LAMMPS (22 Aug 2018)
OMP_NUM_THREADS environment is not set. Defaulting to 1 thread. (../comm.cpp:87)
  using 1 OpenMP thread(s) per MPI task
#lammps script for united atom polymer simulation (full-scale run)

# 1. INITIALIZATION
#allows pair, bond, bending and dihedral interactions
atom_style molecular

  # periodic (video game) boundaries in all cartesian directions
boundary p p s

  # uses real units (instead of units based on pair potential parameters).  List of units used in manual
units metal

###########
# 2. ATOM DEFINITION
##########

   ##
   # Read in data from starting configuration file
   ##

#read_data lammps-AT-config

 #use to restart
read_restart RESTART
  restoring atom style molecular from restart
  orthogonal box = (0 0 -23.0029) to (20 20 146.861)
  1 by 2 by 12 MPI processor grid
  restoring pair style hybrid from restart
  restoring bond style harmonic from restart
  restoring angle style harmonic from restart
  restoring dihedral style opls from restart
  1198 atoms
  197 bonds
  96 angles
  95 dihedrals
  2 = max # of 1-2 neighbors
  2 = max # of 1-3 neighbors
  4 = max # of 1-4 neighbors
  6 = max # of special neighbors

   ##
   # Specify the nature of the bond interactions
   ##

bond_style harmonic
bond_coeff 1 19.51 1.54
bond_coeff 2 22.45 1.82
bond_coeff 3 10000.0 2.0
special_bonds lj 0.0 0.0 0.0 angle no dihedral no

angle_style harmonic
angle_coeff 1 2.683 114.00
angle_coeff 2 2.683 114.40

dihedral_style opls
dihedral_coeff * 0.06071 -0.011743 0.1363628 0.0

mass  1   14.00
mass  2   32.06
mass  3  196.97
mass  4  196.97


pair_style hybrid lj/cut 14.0 morse 14.0 eam
pair_coeff 1 1 lj/cut 0.00395 3.95 14.0
pair_coeff 2 2 lj/cut 0.01594 3.62 14.0
pair_coeff 3 3 eam Au_u3.eam
Reading potential file Au_u3.eam with DATE: 2007-06-11
pair_coeff 4 4 eam Au_u3.eam
#pair_coeff 1 2 lj/cut 0.0079 3.785 14.0
pair_coeff 1 2 lj/cut 0.0000 3.785 14.0
pair_coeff 1 3 lj/cut 0.0026 3.44 14.0
pair_coeff 1 4 lj/cut 0.00 3.44 14.0
pair_coeff 2 3 morse 0.828 1.378 2.903 14.0
pair_coeff 2 4 morse 0.000 1.378 2.903 14.0
pair_coeff 3 4 lj/cut 0.00 2.934 14.0


group freeze type 4
100 atoms in group freeze
fix startend freeze setforce 0.0 0.0 0.0



################
# 3.  Simulation Settings
###############

neighbor        2.0 bin
neigh_modify    every 1 delay 0 check yes



# Define some variables
variable Lx          equal xhi-xlo   # Ang
variable Ly          equal yhi-ylo   # Ang
variable Lz          equal zhi-zlo   # Ang

variable dz          equal ${Lz}/30  # Ang
variable dz          equal 169.863772754551/30  

variable zzlo        equal zlo  # Ang
variable zzhi        equal zhi  # Ang
variable vol         equal ${Lx}*${Ly}*${Lz}  # Ang^3
variable vol         equal 20*${Ly}*${Lz}  
variable vol         equal 20*20*${Lz}  
variable vol         equal 20*20*169.863772754551  
variable TEMP        equal 300.00 # K
variable TThi        equal 320.00 # K
variable TTlo        equal 280.00 # K
variable dt          equal 0.00025 # ps

timestep     ${dt}
timestep     0.00025

variable zlo1      equal ${zzlo}+${dz}
variable zlo1      equal -23.0028863772755+${dz}
variable zlo1      equal -23.0028863772755+5.66212575848503
variable zlo2      equal -6.0
variable zhi1      equal 129.0
variable zhi2      equal ${zzlo}+29*${dz}
variable zhi2      equal -23.0028863772755+29*${dz}
variable zhi2      equal -23.0028863772755+29*5.66212575848503

# heat layers

region          hot  block  INF INF INF INF ${zlo1} ${zlo2}
region          hot  block  INF INF INF INF -17.3407606187905 ${zlo2}
region          hot  block  INF INF INF INF -17.3407606187905 -6
region          cold block INF INF INF INF ${zhi1} ${zhi2}
region          cold block INF INF INF INF 129 ${zhi2}
region          cold block INF INF INF INF 129 141.19876061879
compute         Thot all temp/region hot
compute         Tcold all temp/region cold


# Second Equilibration
fix             1 all nve
fix             hot all langevin ${TThi} ${TThi}  0.005 59804  tally yes
fix             hot all langevin 320 ${TThi}  0.005 59804  tally yes
fix             hot all langevin 320 320  0.005 59804  tally yes
fix             cold all langevin ${TTlo} ${TTlo} 0.005 287859 tally yes
fix             cold all langevin 280 ${TTlo} 0.005 287859 tally yes
fix             cold all langevin 280 280 0.005 287859 tally yes
fix_modify      hot temp Thot
fix_modify      cold temp Tcold

variable        tdiff equal c_Thot-c_Tcold
thermo_style    custom step c_Thot c_Tcold f_hot f_cold v_tdiff
thermo            4000
run             800000
WARNING: Using a manybody potential with bonds/angles/dihedrals and special_bond exclusions (../pair.cpp:218)
Unused restart file peratom fix info:
  fix style: STORE, fix ID: layers_COMPUTE_STORE
Neighbor list info ...
  update every 1 steps, delay 0 steps, check yes
  max neighbors/atom: 2000, page size: 100000
  master list distance cutoff = 16
  ghost atom cutoff = 16
  binsize = 8, bins = 3 3 22
  4 neighbor lists, perpetual/occasional/extra = 4 0 0
  (1) pair lj/cut, perpetual, skip from (4)
      attributes: half, newton on
      pair build: skip
      stencil: none
      bin: none
  (2) pair morse, perpetual, skip from (4)
      attributes: half, newton on
      pair build: skip
      stencil: none
      bin: none
  (3) pair eam, perpetual, skip from (4)
      attributes: half, newton on
      pair build: skip
      stencil: none
      bin: none
  (4) neighbor class addition, perpetual
      attributes: half, newton on
      pair build: half/bin/newton
      stencil: half/bin/3d/newton
      bin: standard
Per MPI rank memory allocation (min/avg/max) = 8.668 | 9.273 | 10.17 Mbytes
Step c_Thot c_Tcold f_hot f_cold v_tdiff 
151201000    306.17053    298.67255 1.2881719e-17 -1.4337811e-17    7.4979749 
151204000    312.21393    286.64594   0.19288725  -0.47610063    25.567986 
151208000    313.39847    260.52555 -0.074717311   0.71673941    52.872918 
151212000    312.74597    289.66252   0.13254122   -1.8611868    23.083444 
151216000     325.6819    289.35401   -0.7693729  -0.63654069    36.327895 
151220000    354.04549    270.86975   -2.2932809  -0.45367734    83.175741 
151224000     352.0118    279.73784   -1.4936522  0.013796544    72.273964 
151228000    333.51285    299.24112  -0.14244706   0.19833623    34.271731 
151232000    331.56311    298.65922  -0.92145798   -1.1621615    32.903891 
151236000    317.55727    292.38018   -1.0423058   0.26861928    25.177085 
151240000     334.7177    289.76462   -1.1345622  -0.01469525    44.953082 
151244000    300.21925    296.40212  -0.36565142   0.39180171    3.8171254 
151248000    318.44729    279.90974  -0.26628044    1.5263007    38.537551 
151252000    338.46611    300.30247   -1.3954578   0.75626058    38.163644 
151256000    321.04746    274.19296  -0.64158467   0.28469609    46.854498 
151260000    327.94054    261.56288  0.039152035   0.74967236     66.37766 
151264000    331.03049    280.91525  0.042774433   0.21012426    50.115245 
151268000    318.14792    295.82203   0.91279625  -0.97171375    22.325887 
151272000    314.96745    295.35311    1.0508737   0.21356135     19.61434 
151276000     325.3602    300.20703   0.62049347   -1.7483221    25.153171 
151280000    302.75184     286.6313    1.5709854  -0.73329296    16.120537 
151284000    300.72717    299.63751    1.8645188   -1.4485644    1.0896608 
151288000    311.07088    282.63601    1.2507271  0.091302079    28.434866 
151292000     321.9737    273.05452   0.68974389    0.2082734    48.919181 
151296000    332.12469    293.41384  0.055812804   0.40613844    38.710846 
151300000    335.09459    265.42138  -0.14138337     1.066223    69.673211 
151304000     336.2469    246.15858   -1.4426693    1.3140901    90.088321 
151308000    302.84377     253.6316     1.375839    1.4939633    49.212171 
151312000    347.17623    282.69758   -1.5467832   0.48585623    64.478649 
151316000    335.14409    305.81404   -1.3589206  -0.74766638     29.33005 
151320000    327.49389    283.99815  -0.42265876    0.9824354    43.495738 
151324000    335.95832    294.09629   0.10782002 -0.082630901    41.862037 
151328000    315.06264    286.76913  -0.14270596  -0.55189178    28.293515 
151332000    335.60738    287.84856     -1.94896  -0.96110809    47.758817 
151336000     336.1172    281.51225   -1.1001019    -0.291755     54.60495 
151340000      329.493      275.419   -1.2002936   0.10396161    54.073998 
151344000    308.72554    290.31567   -1.3837061  -0.64902557    18.409867 
151348000    327.57563    293.73303   -1.1801659  0.090047654    33.842593 
151352000    349.04522    287.99633    -1.812707    -1.183094    61.048891 
151356000    304.36428    289.72301 0.0025531737   0.59299953    14.641268 
151360000    336.78066    272.09712  -0.39600559   0.77025155    64.683535 
151364000     353.1845    287.59257   -1.8166808   -1.0146626    65.591933 
151368000    320.61547    277.34431   -1.5494809     0.401258    43.271156 
151372000    352.75054    283.68837   -2.0618709   0.61726191    69.062169 
151376000    308.59202    282.24344    1.2287817   0.36149099    26.348589 
151380000    309.90194    268.18317   0.33030278   0.23841561    41.718774 
151384000    344.00512     306.3928  -0.13647281   -1.7054241    37.612313 
151388000     328.0401    274.17854    0.6588263   0.10555088    53.861565 
151392000    329.07447    291.34422   0.56120585   -1.2233487    37.730255 
151396000     309.1571    282.35231   0.76826191  -0.25857362    26.804788 
151400000    298.39939    270.09858   0.88005492 -0.072510012    28.300808 
151404000    322.87856    285.67709  -0.36427607   0.55725273    37.201471 
151408000    332.99202      283.428  -0.61862106   0.11099051    49.564022 
151412000    309.59455    289.13427  -0.48138643  -0.47408295     20.46028 
151416000    334.49224     276.8719   -1.8651209   -0.7918457    57.620332 
151420000    338.34972    267.19663  -0.51875763   0.24622889    71.153092 
151424000    323.33236    284.57559    -1.348893  -0.30317537    38.756766 
151428000    299.14814     276.3636  -0.64696259   -0.2223127    22.784538 
151432000    293.67295    262.09295   -1.0716422    1.2569434    31.579998 
151436000    319.65886    269.99851   -1.9196914  0.064573734    49.660346 
151440000    304.46273    267.92025   -1.0007407    1.3571648    36.542484 
151444000    331.73106    282.67673  -0.97670884  -0.39727578    49.054327 
151448000    308.47272    275.75543  -0.67585069  -0.39211333    32.717289 
151452000    329.02487    276.64115   -2.1577766   -1.1075556     52.38372 
151456000    294.15635    276.94001  -0.45201593  0.033639292    17.216342 
151460000    343.37965    271.44461   -2.7460875  -0.25933959    71.935043 
151464000    300.73445    281.78688   -2.0676441  -0.38566765    18.947571 
151468000    327.80475    297.33128   -3.3604946   -1.5240218    30.473473 
151472000    330.89441    269.65737   -2.4925366   -1.1024702    61.237041 
151476000    309.23905    278.06848   -1.0908337  -0.62677148    31.170573 
151480000    320.10391    284.69674   -2.1154507 -0.011289212    35.407169 
151484000    328.38771    272.52853   -1.8426783 -0.024069451    55.859185 
151488000    334.47184    258.49035   -1.8453043  -0.48407718    75.981482 
151492000    320.99761    255.44056   -1.7924518  -0.39161544    65.557049 
151496000    324.35565    274.21438   -1.5872246  -0.51851743    50.141268 
151500000    328.52759    300.17187    -1.797536   -2.4518163    28.355719 
151504000    328.44801    262.81574   -2.2273902  -0.44912774    65.632269 
151508000    313.39246    276.12973   -1.7320578   -0.3629309    37.262736 
151512000    319.59642    282.73095   -1.0787144  -0.97503784    36.865471 
151516000    332.25685    266.47472   0.14335422   0.60222555    65.782122 
151520000    285.48213    274.22978   0.99464448  -0.72968573    11.252358 
151524000    317.28135    285.45938  -0.57104263  -0.73133432    31.821967 
151528000    315.41963    298.04298  -0.48199737  -0.82068428     17.37665 
151532000    325.91287    289.19297  0.092648225  -0.79488822    36.719898 
151536000     334.9605     283.9001  -0.74009098  -0.32096193    51.060396 
151540000    329.51543    288.65922   0.12218097   -1.4221172    40.856212 
151544000    337.51978    294.43816   -1.0595639   -1.3891298    43.081621 
151548000    309.38314    278.91792   -1.0815473  -0.29794108    30.465214 
151552000    319.57082    282.77925   -0.8296873  -0.81883232    36.791571 
151556000    359.76338    283.56103   -3.1818928   -1.4185669    76.202345 
151560000     328.9923    270.19166  -0.53497265  -0.18797328    58.800649 
151564000     314.5988    282.39663  -0.52365363    -1.246697    32.202169 
151568000    319.70788     274.3985   -1.0487013   -1.2757799    45.309383 
151572000    306.84426    283.48685   0.29758651  -0.50994155    23.357406 
151576000     315.9981     282.2883  0.041697611   -0.3367646    33.709795 
151580000    314.75738     283.3081  0.070151442  -0.42506521    31.449285 
151584000    326.19311    253.23041  -0.88245029     1.403138    72.962704 
151588000    320.54492    285.61175  -0.43131856  -0.63511692    34.933172 
151592000    310.52365    288.27119 -0.0080603341  -0.68211145    22.252456 
151596000    332.25138    271.37117  -0.98877205  0.052130218    60.880207 
151600000    334.72229    288.90171   -1.4848137  -0.87312169    45.820589 
151604000    290.34088    272.54349   0.21767561   0.25599496    17.797397 
151608000    336.06946    283.39555   0.06168883  -0.91350365     52.67391 
151612000    301.07147    273.50197   0.87244513   0.50881318      27.5695 
151616000    327.70399    277.28275   0.66590745    0.1049958     50.42124 
151620000    317.74079    267.81327   0.26566028    1.3529808    49.927518 
151624000     303.6347    252.73722  -0.40532916   0.24959414    50.897478 
151628000    300.61705    269.47272   0.14464319   0.27127437    31.144329 
151632000    329.63684     321.4781  -0.57338778   -2.8119705     8.158739 
151636000      324.607    275.67066  -0.82330623   0.36720238    48.936334 
151640000    303.27358    265.35259  -0.36541025    1.0359856    37.920991 
151644000    313.66063    276.26362  -0.31931047   0.76244201     37.39701 
151648000    317.04963    281.92141   -1.5921668    1.1121315    35.128214 
151652000    322.07449    267.85923   -1.4451591    1.8326254    54.215262 
151656000    335.67982    274.48816   -1.4647028    1.2270581    61.191652 
151660000    349.04883    274.77752   -1.9755834    1.4262431    74.271308 
151664000    329.04663     280.8206  -0.83702189   0.85432637    48.226025 
151668000    318.43219    272.53802   -1.6623605     1.478164    45.894173 
151672000    298.16426    281.69325   0.52956097   0.36382263    16.471005 
151676000    322.56852    286.83014   0.37242603 -0.055518357    35.738379 
151680000    330.89826    281.02187  -0.87531239   0.55236342    49.876392 
151684000    306.48159    250.91163   0.89431618    1.7406379    55.569958 
151688000    309.06877    274.74395  -0.80726672   0.42983108    34.324813 
151692000    323.12001    270.03468   -1.1544959   0.63676492    53.085338 
151696000    302.95901    275.48321  -0.93462126   0.30007684    27.475803 
151700000     315.8849    295.67371   -0.2628197   -1.4881904    20.211186 
151704000    309.45357    262.65427  -0.88828939   0.59268052    46.799304 
151708000    330.03332      259.916    -1.658743    1.1614072    70.117322 
151712000    320.85089     262.1839  -0.74081944   0.22720145    58.666985 
151716000    310.43359    291.87047   0.32845938 0.0062490335    18.563126 
151720000    343.45514    296.11044  -0.95795994   -1.6259245    47.344699 
151724000     292.1961    276.70731   0.71519398  -0.68117074    15.488787 
151728000    322.87642    292.80468   0.52203589   -1.0166403    30.071736 
151732000    310.72755    253.79073   0.26241088   0.67133697    56.936812 
151736000    340.01646    296.96207   -1.2863882  -0.62644039    43.054394 
151740000    315.75751    299.98908    -1.270481   -1.3673228    15.768434 
151744000    326.93661    266.35529   -1.4520099  -0.16201795    60.581315 
151748000    308.67958    287.18998   0.42064242     -1.07655    21.489596 
151752000    299.13424    271.25939    1.7880915  -0.42233351    27.874846 
151756000    311.69416    255.51507   0.40957199    0.6781193     56.17909 
151760000    324.57451     314.0987   0.42895475   -1.3459602    10.475818 
151764000    323.79942    255.25282  -0.10813152   0.08741872    68.546596 
151768000     304.2383    261.45979   0.45596363   -1.5943287     42.77851 
151772000    313.76163    276.17335   0.78045451  -0.82160878    37.588281 
151776000    334.12096    271.11581   0.23123325   -0.6743526    63.005149 
151780000    314.91506    295.66971   0.74178375   -2.4142166    19.245353 
151784000    327.29186     280.1266   0.76003285   0.22002574    47.165259 
151788000    297.72375    258.43932    1.6466778   0.42768306    39.284426 
151792000    340.70102    288.94409    0.3934011  -0.75047845    51.756926 
151796000    327.92991    280.44986   -1.1680166 -0.010946734    47.480044 
151800000    318.16015    287.81345  -0.58577728  -0.75533081      30.3467 
151804000    299.41343    286.70303  -0.47438665  -0.56517479      12.7104 
151808000    322.23024    267.63081   -1.3351655  -0.40530465     54.59943 
151812000    326.17394    265.40148   -1.0632272 -0.095920781    60.772466 
151816000    311.44585     289.3794  -0.31232639  -0.68348257    22.066447 
151820000    345.23226    267.79991   -2.1454057  -0.84394666    77.432347 
151824000    349.37392    276.08026    -1.127886  -0.49808086    73.293666 
151828000    330.96464    273.07191   -1.1283688    0.5398176    57.892738 
151832000    316.32531    281.45672   0.11619606   0.29956131    34.868593 
151836000    326.58897    292.72256  -0.53287531  0.088011553    33.866411 
151840000    307.99205    283.01556   -1.4994582  -0.58324003    24.976493 
151844000    320.17914    288.45791  -0.26248667  -0.63696929    31.721234 
151848000     316.1762    297.48756  -0.61801784    -0.633164     18.68864 
151852000    300.15569    296.21899   0.40567289   -1.2931782    3.9367062 
151856000     331.8469    274.50944   -1.9186745  -0.48820289     57.33746 
151860000      321.874    285.78515   -1.9575838  -0.43362269    36.088851 
151864000    332.75493     291.9788   -1.4946633   -1.1683047    40.776121 
151868000    308.72931    272.43267  -0.75492152  -0.26334861     36.29664 
151872000    284.30361    274.79263     1.349987   0.31547076    9.5109737 
151876000    297.10549    296.12721   0.72623275   -0.9832704   0.97827436 
151880000    336.40228    285.47991   0.36326382   -1.3549709    50.922372 
151884000    329.91602    278.64511  -0.53922136   -0.2035463     51.27091 
151888000    318.40701    249.46257  -0.11694816    1.1532244    68.944441 
151892000    332.63106    278.15673  -0.28313726  -0.07002209    54.474327 
151896000    295.61193    288.15788    1.5023888   -0.6077348    7.4540546 
151900000    343.07994    297.84078    0.4035128   -1.0262443    45.239157 
151904000    314.53595    280.42802  -0.79167662  -0.15629147    34.107933 
151908000    331.83018    272.14522  -0.94909072  -0.23697686    59.684962 
151912000    329.07044     287.1791   -1.8393409   0.29548154    41.891331 
151916000      325.982    286.76722   -1.1459222  -0.07078226     39.21478 
151920000      355.685    271.47628   -2.3066141   0.56106376    84.208718 
151924000    345.53512    292.42903   -1.3232266   -1.5390262    53.106091 
151928000     304.2841    271.10761  -0.26075373 -0.068142436    33.176497 
151932000    318.06086    289.06042  -0.27009535   0.30797868    29.000436 
151936000    320.71844    300.81627    -0.229559   0.23257386    19.902173 
151940000    322.51152    262.14073   -0.4932058 -0.045339451    60.370792 
151944000    334.81749    274.90327   -1.5104275   0.11775325    59.914219 
151948000    329.98204    297.54711   -1.2722088  -0.21439167    32.434932 
151952000    344.15828    279.91831     -1.49247   0.23930861    64.239969 
151956000    338.31045    296.01231   -2.0199273  -0.80515675    42.298144 
151960000    319.48524    303.68827   -1.8251482   -1.1902089    15.796973 
151964000    343.71682    295.21792   -2.5820168  -0.63591489    48.498898 
151968000    310.30087    269.66814   -1.4208297   0.68342334    40.632723 
151972000    334.41091     300.5583   -1.8844935  -0.75312348    33.852604 
151976000    331.16093    281.19285   -1.3024554  -0.20321789    49.968079 
151980000    291.12339    273.91213  -0.34086094   0.90050802    17.211256 
151984000    330.66505    264.22475   -2.2331095   0.84197544    66.440296 
151988000    303.31054    250.59109   -1.2097881    1.2112116    52.719443 
151992000    314.25257    287.32106   -1.4596242   -0.7038456    26.931514 
151996000    308.25148    285.45426  -0.85032051  -0.44012126    22.797215 
152000000    316.36845    275.73026   -1.3673889   0.66714881    40.638195 
152001000    301.56046    275.51931  -0.64428032    0.2757897     26.04115 
Loop time of 470.792 on 24 procs for 800000 steps with 1198 atoms

Performance: 36.704 ns/day, 0.654 hours/ns, 1699.266 timesteps/s
89.9% CPU use with 24 MPI tasks x 1 OpenMP threads

MPI task timing breakdown:
Section |  min time  |  avg time  |  max time  |%varavg| %total
---------------------------------------------------------------
Pair    | 94.812     | 249.58     | 371.83     | 496.5 | 53.01
Bond    | 0.52002    | 1.286      | 1.9538     |  37.8 |  0.27
Neigh   | 2.1536     | 2.1927     | 2.2996     |   3.2 |  0.47
Comm    | 31.941     | 104.76     | 187.76     | 486.2 | 22.25
Output  | 0.0061803  | 0.0090012  | 0.020455   |   2.7 |  0.00
Modify  | 28.259     | 99.595     | 182.85     | 573.1 | 21.15
Other   |            | 13.38      |            |       |  2.84

Nlocal:    49.9167 ave 177 max 0 min
Histogram: 16 0 0 0 0 4 0 0 0 4
Nghost:    1338.92 ave 3021 max 199 min
Histogram: 12 0 0 0 4 0 0 0 0 8
Neighs:    2176.21 ave 11812 max 0 min
Histogram: 19 1 0 0 0 0 0 0 0 4

Total # of neighbors = 52229
Ave neighs/atom = 43.5968
Ave special neighs/atom = 0.647746
Neighbor list builds = 1435
Dangerous builds = 0
unfix 1


# PRODUCTION

fix             1 all nve
fix             hot all langevin ${TThi} ${TThi}  0.005 59804  tally yes
fix             hot all langevin 320 ${TThi}  0.005 59804  tally yes
fix             hot all langevin 320 320  0.005 59804  tally yes
fix             cold all langevin ${TTlo} ${TTlo} 0.005 287859 tally yes
fix             cold all langevin 280 ${TTlo} 0.005 287859 tally yes
fix             cold all langevin 280 280 0.005 287859 tally yes
fix_modify      hot temp Thot
fix_modify      cold temp Tcold

variable        tdiff equal c_Thot-c_Tcold
thermo          4000

dump gigo all atom 4000 dump.cords_xyz.dat
dump_modify gigo scale no
dump vfgigo all custom 4000 dump.velo.dat id vx vy vz fx fy fz

# thermal conductivity calculation
# # reset langevin thermostats to zero energy accumulation
#
compute         ke all ke/atom
variable        temp atom c_ke/1.5/0.00008617333262

fix             ave all ave/time 100 40 4000 v_tdiff ave running
thermo_style    custom step temp c_Thot c_Tcold f_hot f_cold v_tdiff f_ave

#compute         layers all chunk/atom bin/1d z lower 0.05 units reduced
compute         layers all chunk/atom bin/1d z lower ${dz} units box
compute         layers all chunk/atom bin/1d z lower 5.66212575848503 units box
fix             2 all ave/chunk  100 40 4000 layers v_temp file profile.langevin

run             16000000
WARNING: Using a manybody potential with bonds/angles/dihedrals and special_bond exclusions (../pair.cpp:218)
Neighbor list info ...
  update every 1 steps, delay 0 steps, check yes
  max neighbors/atom: 2000, page size: 100000
  master list distance cutoff = 16
  ghost atom cutoff = 16
  binsize = 8, bins = 3 3 22
  4 neighbor lists, perpetual/occasional/extra = 4 0 0
  (1) pair lj/cut, perpetual, skip from (4)
      attributes: half, newton on
      pair build: skip
      stencil: none
      bin: none
  (2) pair morse, perpetual, skip from (4)
      attributes: half, newton on
      pair build: skip
      stencil: none
      bin: none
  (3) pair eam, perpetual, skip from (4)
      attributes: half, newton on
      pair build: skip
      stencil: none
      bin: none
  (4) neighbor class addition, perpetual
      attributes: half, newton on
      pair build: half/bin/newton
      stencil: half/bin/3d/newton
      bin: standard
Per MPI rank memory allocation (min/avg/max) = 10.13 | 10.2 | 10.3 Mbytes
Step Temp c_Thot c_Tcold f_hot f_cold v_tdiff f_ave 
152001000    257.83611    301.56046    275.51931 1.9862941e-18 -2.0669472e-17     26.04115            0 
152004000    274.59471    338.22346    297.48796  -0.67079997  -0.82034451    40.735505            0 
152008000    266.90666    331.35416    273.87598    0.9301363  -0.16741457     57.47818    46.238626 
152012000    280.27337    328.34352    291.94115   0.11448461   -0.9023763    36.402366    38.304029 
152016000    275.70621    340.91876    288.97776   -1.6731582   0.40021158    51.941001    38.735203 
152020000    266.71843     329.2637    277.23128   -1.2121594  -0.21607123     52.03242    38.902536 
152024000     264.3497    308.28753    289.25736   0.60228816  0.015239487    19.030164    38.840789 
152028000    268.80461     326.5598    289.82884   0.31660758  -0.51779457    36.730959    39.586777 
152032000    269.34097    324.32172     288.1497  -0.13872924   -1.3439907    36.172019       39.286 
152036000    279.09136    328.84579     284.2497   -1.1473077   -1.0097561    44.596092    39.161087 
152040000    263.83488    323.70986    264.39884   -1.0456896  -0.44736555    59.311021    38.835665 
152044000    284.81179    346.34819    293.21155   -1.9924032   -1.9055432    53.136642     38.45852 
152048000    275.17964    318.85556    299.53652   -1.6394479   -2.4972463    19.319037     38.74756 
152052000    277.75359    317.52859    308.32233    -1.390214   -1.4909422    9.2062544    38.891881 
152056000    266.15899    328.52028    267.15968  -0.14241405  -0.82127917    61.360597     39.05053 
152060000    274.25547    338.89279    277.33686    -1.493146  -0.31289661    61.555929    39.198571 
152064000    267.14619     316.2218     275.4385  -0.99630682  -0.44158617    40.783304    39.632595 
152068000    279.69711    318.28545     307.6264   -1.3166079   -2.1510001     10.65905    39.775822 
152072000    260.85991    295.37222    271.53194  -0.63766154  -0.17640957    23.840281    40.009864 
152076000    272.34438    311.64354    289.26023   -1.2363078   -2.2515175    22.383318    40.018425 
152080000     262.6159     319.7779    267.17592   0.43041258  -0.44565084    52.601981    40.049224 
152084000    266.23189    310.79217     305.3803   0.02253923   -2.1199431     5.411875    40.147823 
152088000    271.44873    321.06155    289.88281   0.10065971   -1.7940396     31.17874    39.893584 
152092000    263.00169    297.20996     276.0447   0.75601556   -0.5715826    21.165256    40.134854 
152096000    280.03548    338.98407    287.50645  -0.28827914   -1.4438021    51.477615    40.344517 
152100000    258.07113    309.62977    285.54655   0.70084165   -0.6734755    24.083216    40.330968 
152104000    268.40291    344.43569    260.09181  -0.69929394   0.22455074    84.343882    40.781532 
152108000    268.33507    309.43207    282.93191   0.63222621  -0.12763177    26.500162    40.602649 
152112000    271.56091    322.95065     265.2987  -0.44659952   0.61508861    57.651954    40.741689 
152116000    264.09489    325.69441    282.76656  -0.46121628  -0.42231283    42.927847    40.700619 
152120000    261.47853    294.31336     270.3929    1.7505826   0.94448889    23.920455    40.679745 
152124000    267.07401    315.21783    264.22452   0.05776157    1.1932373    50.993308    40.694826 
152128000    268.28282    307.39128    292.57273   0.78778974   0.14932935    14.818545    40.312871 
152132000    269.50216    315.82851    298.52158   0.55838291  -0.52234067     17.30693    40.305828 
152136000    270.46016    307.59533     301.3737    1.1797673  -0.87384353    6.2216353    40.168839 
152140000    265.89854    331.96315    279.20812  -0.18848273 -0.0017385971    52.755033    40.145776 
152144000    268.89787    328.45924    269.03925  -0.30845227    1.1924399    59.419989    40.177525 
152148000    269.26998    330.86574    290.31784   -0.6955769   0.47105997    40.547902    40.180255 
152152000    268.57601    317.86544    306.57707  -0.68514855  -0.77255536    11.288365    40.185115 
152156000    266.98246    311.80934    260.34834  -0.85477783    1.7425763    51.461007    40.202102 
152160000    263.71883    299.31107     308.4398  -0.26919589  -0.46906897   -9.1287321    40.187479 
152164000     269.4972    315.22346    279.10968  -0.74416886   0.21971924    36.113778    40.191985 
152168000    271.72969    344.33312    273.81903  -0.62973577    1.6668438    70.514086     40.32502 
152172000    266.21925    308.77589    284.23769   0.25380881  -0.61232664    24.538199    40.384731 
152176000    275.84919    355.74694    273.45425   -1.9530322   -0.1592892    82.292693    40.410818 
152180000    267.83437    318.94803    289.11704  -0.18169036  -0.65346575    29.830982    40.414841 
152184000    267.77717    321.26133    274.75772  -0.73983438 -0.094508696    46.503608    40.276806 
152188000    272.92893    325.61692    292.15285  -0.79835766   -1.5313401    33.464069    40.371794 
152192000    275.48759    331.22255    288.88743    -1.756171   -1.6563702    42.335121    40.282046 
152196000    268.65964    326.90272    260.26297   -1.6693667  0.082570043    66.639749    40.246057 
152200000    260.03368    297.97397    279.60514   -1.4332731  -0.37446289    18.368831    40.331631 
152204000    267.90729    308.63857    273.97798  -0.27569802  0.049563378    34.660593    40.282576 
152208000    268.86045    320.43347     271.4942   -1.8657685   0.95498544    48.939278    40.438309 
152212000    266.58274    298.56088    287.26283   0.53549098 -0.0082217037    11.298043    40.481736 
152216000     276.3513     340.3655     268.2827   -2.3834788   0.67601812    72.082791    40.534303 
152220000    273.37222    326.33563    283.54418  -0.59213235   0.22202742    42.791442    40.494701 
152224000    267.70827    322.85167    274.31882  -0.32489362   0.59385038    48.532848    40.463123 
152228000    268.99693    322.15974    287.70521    0.1974708   0.28501896    34.454533    40.444048 
152232000    254.63979    290.97533    284.94176   0.82640323  0.011411906    6.0335723    40.499953 
152236000    263.01339    307.04857     266.2212  -0.93873647   0.69714892    40.827376     40.48494 
152240000    262.73358    320.40584    244.66864  -0.67721339    2.5471619    75.737194    40.555416 
152244000     270.7656    323.64098    286.19909   -2.3118844   0.39658179    37.441888    40.562693 
152248000    270.68727    318.00667    278.85342  -0.93608357    1.1634136    39.153246    40.524518 
152252000    271.61916    321.76851    288.33361  -0.92045324  0.034021095    33.434902    40.451021 
152256000    264.26063    328.80954    262.89246  -0.83682213    1.2107804    65.917083    40.403613 
152260000    269.09686    317.58274    288.35889  -0.73694554  0.019466839     29.22385     40.37754 
152264000    265.03314    298.65696    294.62935  -0.18073833   0.32313747    4.0276152    40.269594 
152268000     265.9796    300.11076    308.47666  -0.84329373  -0.91287955   -8.3658964    40.276517 
152272000    265.18078    309.21591    257.73926    -1.359685    1.2061789    51.476645    40.234591 
152276000    272.15454    327.32258    278.59411    -2.664499   0.67675433    48.728473    40.235367 
152280000    269.16235    335.52031    259.18979   -1.8737775   0.86449995    76.330523    40.187078 
152284000    266.42779    309.23787    273.05792    -1.676265   0.64509825    36.179951     40.18001 
152288000    261.73213    310.07871    266.20457   -2.3172375    1.9836117    43.874141    40.136253 
152292000    264.18888    291.47218    290.41091  -0.61881308   0.64106783    1.0612694    40.117906 
152296000    271.24263    340.02542    277.55177    -1.443774   0.69599851    62.473648    40.185272 
152300000    266.40468    323.20069     277.2691    -2.950859   0.67948922    45.931593    40.197268 
152304000    266.93511    322.02835    287.21241  -0.27631573    0.8545081    34.815937    40.210595 
152308000    272.19096     327.8278    280.85003   -1.0851921   0.95768837    46.977773    40.181139 
152312000    268.68737    331.79686    272.38938   -1.9197118   0.87788011    59.407484    40.271504 
152316000    263.80959    309.81271    276.81126 -0.011462682  -0.48902782    33.001455    40.258017 
152320000    270.65741    311.38147    289.22328  -0.60360737   0.29252739    22.158194    40.273355 
152324000    262.70711    314.74065    278.98397  0.094597889 -0.035826409    35.756686    40.220195 
152328000    263.70371     309.3765    295.32966  -0.90450591   0.15132069    14.046842     40.23486 
152332000    261.74751    318.30677     276.2557 -0.091845224    1.1946321    42.051071     40.18573 
152336000    266.91893    311.18063    315.81511  -0.33731665  -0.92255818   -4.6344861    40.171298 
152340000     262.5383    315.64948    268.87902  -0.70468057    1.8352579    46.770456     40.17311 
152344000    270.58193    319.24485     285.8932  -0.10576365    0.7358775    33.351655    40.189785 
152348000    269.26899    338.44874    278.48981  -0.92370387    1.1027092    59.958929    40.128594 
152352000    257.65756    295.68118    280.87125   0.81445188     1.268257    14.809939    40.068763 
152356000     269.2845     324.8185    271.70082   -2.3819858   0.77622166    53.117685    40.104205 
152360000    269.12044    331.21384    278.61078   -2.2017932   0.31600872    52.603062    40.084547 
152364000    273.61651    315.85541    311.77194   -1.1143188  -0.11940639    4.0834699    40.064228 
152368000    260.80416    299.70426    296.87412   0.41605187  -0.15481327    2.8301395    40.050084 
152372000     267.3515    304.95831    283.11693   0.47681351   0.84550005    21.841375     40.04749 
152376000    266.80897    318.85186    274.42334   -0.3434864 -0.0046681264    44.428522    40.033636 
152380000    260.91141      295.556    279.98705    0.1373038    0.4843304    15.568946    39.988569 
152384000     265.9694    313.68898    272.60714   -2.3907966   0.23071708    41.081836     39.97949 
152388000    269.90146     327.7358    284.12115   -2.6397881 0.00035902921    43.614654    40.001326 
152392000     270.4151    318.40363    291.96113   -1.6703504   0.29210252    26.442499    39.994689 
152396000    264.72232    318.87521    281.96487  -0.97601763    1.1719121    36.910338    40.055197 
152400000    272.53485    297.70483    297.37504   -1.2338877   0.12921822   0.32979075    40.056743 
152404000    281.68567     347.0915    284.76957    -3.263025 -0.025121066    62.321928    40.082942 
152408000      292.056    341.39629    300.79947   -2.7480484   -1.4471651    40.596817    40.080859 
152412000    275.20481     315.8396    290.17349   -2.0097408  -0.42202432    25.666112    40.074072 
152416000    280.07657     313.2087    291.47092   -1.0482628  -0.95145619    21.737777    40.067331 
152420000    272.72143    318.27418    284.59871   -1.9626338  -0.41579093    33.675469    40.040706 
152424000    256.69763    308.47976      266.832  -0.67810692   0.59521068     41.64776    40.031435 
152428000    265.50677    289.13305    285.39069  -0.39882117   -0.3005106     3.742358    40.021293 
152432000    264.72696    313.87946    267.91535  -0.46409992   0.75594859    45.964113    39.991995 
152436000    277.32543    331.01672    292.40862   -1.4950165   0.28280651    38.608099    40.005824 
152440000    269.40901     329.8098     278.4301   -1.8932637     1.160629    51.379697    40.048809 
152444000    270.21161    338.86657    268.74436   -2.2205864    1.3068913    70.122207    40.044175 
152448000     275.3548    324.26823     280.2276   -1.4676932   0.89569752    44.040637     40.04691 
152452000    267.19565    314.88691    268.18643   -2.0449285    1.4109556    46.700476    40.044957 
152456000    272.38456    314.20847    271.61665   -1.7240603   0.70625088    42.591823    40.062043 
152460000    268.14422     328.1152    266.69244   -1.4067245    1.4671277    61.422759     40.08239 
152464000    268.72082    325.36306    274.06908   -1.9498295   0.90706725    51.293984    40.101888 
152468000    273.31277    325.62766    279.39762   -1.6597975    1.1615878    46.230043     40.09687 
152472000    268.24825    313.61648    283.79683  -0.84313141    1.2069498    29.819647    40.082447 
152476000    272.15094    318.89253    274.05783   -2.0654285    1.1635672    44.834699    40.102256 
152480000    275.09287    329.10194    286.71877   -1.7692646    1.3277632    42.383172     40.12229 
152484000     257.1183    307.27579    263.91594   -1.0221902    2.6369144    43.359852    40.095605 
152488000    268.56582    309.30563    277.87343   -1.8862299    1.4678553      31.4322    40.121735 
152492000    261.71534    317.87844    263.88335  -0.73092147    2.1179239     53.99509    40.136223 
152496000    267.22653    324.04067    269.59532   -1.3829117   0.80949574    54.445348     40.11805 
152500000     260.3146    311.00886    263.46923 -0.030245405   0.85573792    47.539629     40.10117 
152504000    273.90777    315.06737    288.25102  -0.66499822   -1.2185194    26.816352    40.096085 
152508000     268.0389    307.71139    286.14769   -1.5930323   0.55982577    21.563701    40.118438 
152512000    267.89869    331.41671      281.988  -0.90375441   0.78544396    49.428708      40.1503 
152516000    266.08303    309.07305    276.17093  -0.70076465    1.0403483    32.902121     40.12153 
152520000    265.01516      293.805    297.12322  -0.81439393  -0.63355942    -3.318224    40.143799 
152524000     267.0467    306.29154    290.97363   -2.1648577  -0.25007575    15.317906    40.147202 
152528000    269.98643    311.81669    275.06073    -1.446938   0.26067103    36.755958    40.138773 
152532000    270.21674    322.24486    273.88833   -2.9177781  -0.19763515    48.356534    40.152567 
152536000    276.11749    312.41999    294.67537   -2.6815102  -0.59072247     17.74462    40.153906 
152540000    265.79521    278.50237    296.24591   -1.0367595    0.3022716   -17.743538    40.097773 
152544000    272.44967    323.06399    276.35168    -4.177312    0.1658764    46.712305    40.114159 
152548000    263.61766    312.37484    272.12708   -1.3698638 -0.087249961    40.247764    40.136132 
152552000    269.07011    318.52404    289.39087   -2.3811506   0.12193786    29.133163    40.092717 
152556000    265.21613    314.60239    279.24397   -1.5114202    1.1179445    35.358413    40.089405 
152560000    265.66142    316.41834    276.09013   -1.2633731   0.89486838     40.32821    40.083568 
152564000    272.27359    324.69577     271.9236   -2.9180787   0.78862938    52.772174    40.103148 
152568000    268.85171    306.29731    278.38512  -0.98481804    1.5651583    27.912193    40.103692 
152572000    274.97592    315.66919     304.6356   -1.4477211  -0.34798414    11.033594    40.120242 
152576000    262.34227    309.00678     261.2288   -1.5451612    1.4975711    47.777984    40.151582 
152580000    264.41959    314.36594    255.76461   -1.4750573     2.193489     58.60133    40.151188 
152584000    270.98663     325.8706      272.334   -2.6647751    1.1442187      53.5366    40.136815 
152588000     278.5576    332.77046      286.904   -3.0329248  -0.37807464     45.86646    40.116474 
152592000    260.45698    301.33702    273.28739   -1.2888942    1.8850884    28.049634    40.114261 
152596000    266.42739    314.27882    278.00433   -2.1961897    1.9089342    36.274482    40.135391 
152600000    273.53182    324.33431    277.24011   -3.7481503    1.3712243    47.094202    40.183327 
152604000    275.96868    336.33416    295.61215   -3.1793032    1.0783278    40.722012    40.171723 
152608000    262.74841    311.95705    286.82764   -1.0700538   0.79553697    25.129407    40.170253 
152612000    265.62481    307.59551    266.85276   -1.4085326      1.92045    40.742751    40.161768 
152616000    277.14685    337.23602    297.71428   -3.6306297   0.41708442    39.521737    40.145567 
152620000    271.33075    329.37135    283.94831   -3.1856488   0.89830939     45.42304    40.162727 
152624000    266.08038    307.69425    267.54282   -2.0886674    2.3811349    40.151436    40.160865 
152628000    271.96771    318.20047    289.27171   -2.7508758    1.0712157    28.928756    40.134165 
152632000    268.24303    305.44001    291.56251    -2.926754    1.0723196    13.877506    40.124485 
152636000    275.08091    346.99906    282.94365   -4.3056799    1.6445376    64.055411    40.143535 
152640000    267.57719    327.06505    254.63668   -2.3721155    2.8223989    72.428376    40.144932 
152644000    262.01307    297.38248    284.92979   -1.5977058    1.4035563    12.452691    40.134328 
152648000    269.40605    336.78168     279.0814   -3.0000159    2.7455381    57.700277    40.133717 
152652000     266.8584    311.14405    285.75724   -1.2887701     3.009856    25.386815    40.111327 
152656000    256.16081    311.70854    259.29959   -3.2296081    4.3279266    52.408948    40.101945 
152660000    271.03328    321.36998      289.628   -3.6255137    2.8403624    31.741982    40.122114 
152664000    271.03402    338.20866    282.97345   -3.4122685    1.8678409    55.235208       40.117 
152668000    263.09837    319.98912    285.19526   -3.1472769    3.3850951    34.793867    40.102666 
152672000    268.11206     324.9461    275.49048   -2.9863457    3.1045452     49.45562     40.12134 
152676000    261.90464    332.88383    266.69708    -4.219378    3.0141361     66.18675    40.126277 
152680000    255.92402    311.69124    270.90489   -3.8090988    3.1830768    40.786356    40.120849 
152684000    260.82063    320.06289    244.46522   -3.2235597    3.7204015    75.597668    40.098547 
152688000    271.64925    341.68406    276.54782   -4.4619942    2.1440401    65.136237    40.091186 
152692000    264.92478    329.28057    261.65617   -4.2047667    3.4564411    67.624405    40.060248 
152696000    274.26656    345.43689     288.7033   -4.9068196    1.3942218    56.733594    40.069356 
152700000    269.90058    304.23549    294.35367   -3.0099351    2.7249618    9.8818235     40.06845 
152704000    265.66525    292.84451    281.91943   -3.6234168    2.6568241    10.925081    40.067167 
152708000    264.49413    323.35982    266.91194   -3.1803246    2.9724137    56.447887    40.071549 
152712000    262.83759     301.6457    282.15024   -3.0458312    1.8440454    19.495463    40.085112 
152716000     262.8245    308.64859    290.24778   -2.6299935    1.9356041    18.400806    40.085374 
152720000     281.2564    323.34608    300.19304   -4.0519045    2.3067549    23.153045    40.074772 
152724000     267.4488    321.58266    283.88054   -2.8400498    2.8748672    37.702128    40.078917 
152728000    254.62684    269.20319    279.73678  -0.74545474    1.6042542   -10.533586    40.079243 
152732000    261.30404    306.31122    271.64204   -2.1331934    1.8899438    34.669181    40.068826 
152736000    265.80794    337.81233    252.52625   -3.2566413    3.6641141    85.286075    40.062004 
152740000    265.77926    319.04336    283.58389   -2.7524638    2.8847624    35.459461    40.059551 
152744000    268.86682    327.86504      268.341   -3.8064753    3.1853017    59.524042    40.049502 
152748000    265.91157    316.40116    271.90955     -3.27243    3.2945552    44.491608    40.043107 
152752000    262.90836    314.84557    279.00618   -3.3183718    1.8961365    35.839394    40.048222 
152756000    269.63617     327.6047      282.519   -2.7730616    2.3278635    45.085704    40.032753 
152760000    268.09904    313.63045    306.99554   -2.9775567   0.95127732    6.6349158    40.030029 
152764000     263.2528    314.95337    277.80095   -2.7032043    2.6964046    37.152421    40.034216 
152768000    264.95252    324.24444    290.29502   -3.6781409    2.1161676    33.949419    40.036549 
152772000    264.52944    318.39239    286.90009   -3.7740202    2.3374237      31.4923    40.020401 
152776000    267.01437    310.57066    288.32917   -2.7065093    2.3099474    22.241488    40.042536 
152780000     272.8726    317.53885    279.28843   -3.4857069    3.1757844    38.250414    40.034893 
152784000    271.93145    334.39742    282.86069   -3.9539498    2.2629755    51.536721     40.00937 
152788000    275.29063    325.45636    280.52696   -3.9860115    2.3064229    44.929401     40.00664 
152792000    270.15473    321.89047    280.00585   -4.1432553    2.3651226    41.884623    40.002859 
152796000    265.58087    306.47184    265.05068   -2.2323879    3.5491419    41.421164    40.011506 
152800000    274.18261    322.07563    273.59644   -3.2721939    3.5703664    48.479185    40.061898 
152804000    275.19623    325.00138    292.70498   -3.2433928    1.5267904     32.29639     40.04692 
152808000    268.91637     341.6274    275.31019   -3.5907058     2.232254    66.317218    40.027543 
152812000    259.68284    316.85246     276.1017   -3.3806499    2.6559327    40.750757    40.012464 
152816000      269.128    318.90954    275.55419   -3.0821603      3.66048    43.355348    40.018177 
152820000    265.70081    350.96012    249.47271   -4.1035343    4.0309141    101.48741    40.037806 
152824000    274.62974    336.70968    278.49568   -3.2968084    2.6016308    58.214006    40.033602 
152828000    265.17583    315.72153    289.99226   -2.8921216    2.9465302    25.729274    40.024036 
152832000    263.68888    333.44339    260.67037   -4.5933958    2.9526836    72.773024    40.027326 
152836000     275.9287    344.95374    276.17241    -4.198634    2.3978142    68.781331    40.025415 
152840000    272.41227    320.13112    287.33382   -3.2590573    1.8173152      32.7973    40.027902 
152844000    272.36261    328.34825    287.05738   -4.1195378     2.066221    41.290868    40.031938 
152848000    265.48354    308.29099     290.0405    -3.437316    2.2306921    18.250486    40.024563 
152852000    276.41536    327.28628    282.73868   -2.6389138    2.7776548    44.547603    40.011646 
152856000    271.12461    328.40136    284.91597   -3.8119109    2.2288352     43.48539    40.003808 
152860000    268.64647    307.41089     286.2316   -2.7118674    1.6682765    21.179285    40.008827 
152864000    267.31304    317.24227    261.23216   -3.7933309    2.6157028    56.010107     40.01129 
152868000    271.45144    296.05288    289.23458   -2.9342004    2.2297404    6.8183003    40.032609 
152872000    273.63905    327.42626    281.33834   -3.0417441    1.7262311    46.087926    40.022841 
152876000    273.84312    343.74546    271.82263   -3.5906502     2.971621    71.922833    40.011555 
152880000    268.18692    331.97631    273.93249    -3.968503    2.0208077    58.043819    40.029452 
152884000    272.94435    330.86729    290.55493   -3.7385195    1.6660874    40.312358    40.036914 
152888000    276.50835    314.44972    298.71036   -2.9400116   0.82714861    15.739359    40.031313 
152892000    269.13764    317.49833    287.06382   -3.9451036    2.3363716    30.434509    40.029467 
152896000     261.5442    311.70916    279.41947   -3.5496632    3.7124469    32.289691    40.021165 
152900000    258.52362    279.65071    293.28215   -1.4347168    2.5646313   -13.631446    40.013056 
152904000    265.82078     333.8719    261.64621   -4.8635865    4.0415409     72.22569    40.017124 
152908000    275.88587    328.07621    297.24737    -4.796848    2.0723198    30.828847    40.023136 
152912000    258.29846    295.65149    269.69827   -2.8861856    3.4214377    25.953225    40.023059 
152916000     273.5361    347.97037    275.82601   -4.3310519    2.7720754    72.144355    40.025757 
152920000    263.73861    318.37279    272.77401   -2.9641247      3.17776    45.598781    40.054765 
152924000    276.81633    348.64193    283.70345   -4.8049621    3.2661507    64.938473    40.069254 
152928000    265.64799    304.76605    298.76621   -3.5678498    1.7621966    5.9998456    40.045091 
152932000    262.67746    295.18168    256.66246   -1.4111518    4.3370366    38.519216    40.042445 
152936000    278.00497     329.9541    298.19344    -4.163176    2.7516734     31.76066    40.033333 
152940000    282.36594    344.57289    296.32254   -4.0859828    2.6722481    48.250352    40.036281 
152944000     261.1062    311.88469    263.85918   -2.4141942    4.1989733    48.025512    40.033166 
152948000    264.28724     317.0157    273.61731   -3.4425905    3.4704578    43.398396    40.017426 
152952000    270.63461    331.91265    293.55481   -4.2144609    2.8469427    38.357844    40.014351 
152956000    262.55324    322.38258    284.48573   -3.5184053    2.8398469    37.896853      40.0157 
152960000    274.37967    336.52839    287.14532    -4.013951    2.3789678     49.38307    40.027767 
152964000    275.26986    335.71191    296.78548   -3.2300723    2.4924639     38.92643    40.036293 
152968000    274.59779    322.67259    288.54327   -3.4591684    2.2977237    34.129319    40.035304 
152972000    271.54865    333.42047    286.51329   -5.0861158     3.420425    46.907182    40.028848 
152976000     268.0474    317.27265    287.17844   -3.2756974    2.7230061    30.094201     39.99877 
152980000    272.84313    319.07465    287.26053   -3.1063339    3.1208425    31.814124    39.983038 
152984000    261.75787     329.0352    270.57748   -3.1703107     3.771831    58.457714    40.002343 
152988000    258.54963    321.42551    272.37615    -3.901507    4.0102778    49.049361    40.012712 
152992000     256.0196    314.87314     271.9692   -2.3652679    4.1321777    42.903942    40.024506 
152996000    262.34355    304.28054    279.94001   -3.8372204    4.7901538    24.340529    40.012797 
153000000    272.19442    333.25999     279.3505   -3.0542841    4.0900881    53.909489    40.009036 
153004000    267.31391    317.26705    285.10109   -3.6524885    3.3348505    32.165967    40.037026 
153008000    267.68736    327.59026     282.6702   -3.8689005      4.96213    44.920061     40.03805 
153012000    267.22168    303.54891    292.88702   -1.6954293     4.123384    10.661889    40.019111 
153016000    264.39407    313.43407    279.70721   -3.1353372    3.7694614    33.726864    40.026031 
153020000    270.54464    332.81985    273.07745   -4.1648679    4.8704324    59.742398    40.010403 
153024000    254.59989    302.73999    276.13707   -2.8151524    4.3872934    26.602914    40.011578 
153028000    273.39379    339.60658    294.17391   -4.9317898    2.9220278     45.43267    40.019907 
153032000    258.83478    319.48342    292.46756    -3.569384    4.7290032    27.015862    40.000932 
153036000    253.97616    347.42103    242.55038   -4.6470744    5.4279308    104.87065    40.009863 
153040000    258.08269    307.65216    286.49827    -3.550331    4.6770197    21.153898    40.000163 
153044000      260.278    338.37354    273.44171   -4.5226134    4.5612824    64.931836    39.997106 
153048000    252.60096    325.79529    263.83129   -3.6860412    5.1853542    61.963998    40.003296 
153052000    272.93173    327.24133    290.39805   -5.1102009    3.4290989    36.843281    40.036829 
153056000    263.51555    322.90404    270.47752   -4.6835968    5.8417239    52.426515    40.041491 
153060000    273.06284    325.09306    305.57324   -4.0511546    3.0077477    19.519818    40.062346 
153064000    264.80273    322.83874    294.63462   -3.7685846    4.8161555    28.204122    40.061537 
153068000    251.52459    300.99344    270.56342   -2.5705796    5.7976063    30.430021    40.056536 
153072000    275.16454     344.1171    292.17347   -4.3201718    4.4760022    51.943636    40.049159 
153076000    269.59525    314.37271    286.53524   -3.3982167    4.2486101    27.837464    40.028638 
153080000    263.70715    323.81749    281.75888   -4.2547926     4.591074    42.058619    40.028029 
153084000    260.01852    302.63921    279.58058   -3.7024852     5.061513    23.058627    40.041598 
153088000    269.11476    319.06631    302.63877   -4.8512603    3.2757595    16.427547    40.063116 
153092000      265.801    312.81225    270.85533   -3.7928436      5.25878    41.956926    40.059886 
153096000    260.83543     327.8431    261.52356   -4.3198534    5.9076547    66.319544    40.073029 
153100000    266.60566    318.21958    282.92744   -5.0712295    4.8537672    35.292144     40.05196 
153104000    263.08812    324.65846    276.04991   -4.4350378    4.6674023    48.608544    40.063662 
153108000    262.68132    315.21543    281.92448   -5.1258782    3.9757843    33.290948    40.072467 
153112000    268.25195    331.48963    282.85424   -5.5512161    4.1476408    48.635395    40.070751 
153116000    265.01528    325.57037    284.29851   -5.1430526    4.0039393    41.271858    40.089585 
153120000    281.00236    345.54037    297.41727    -5.459241    4.4224007    48.123105    40.095135 
153124000    267.12626    345.82889    270.57436    -4.648217    5.0941146    75.254536    40.103694 
153128000    260.17875    300.86784     279.5403    -3.963074    3.6595287    21.327543    40.111864 
153132000    272.73649    324.87738    286.40321   -5.0994964    3.7363448    38.474174    40.129748 
153136000     259.8381     306.0612    272.28928   -3.8775686    3.6204726    33.771918    40.140787 
153140000    287.57225    376.25236    272.37374   -5.8872147    5.0004401    103.87863    40.138675 
153144000    268.13149    310.08268    292.38883   -3.8431334    4.3836376    17.693852    40.139069 
153148000    279.82436    360.09737    282.77635   -5.0295232    4.3756471    77.321013    40.149506 
153152000    262.46461      320.127     272.0025   -4.2201768    4.7863476      48.1245     40.14482 
153156000    267.33696    329.87948    268.48158   -3.3764461    5.1714786    61.397899     40.14808 
153160000    267.01263    316.62061    285.83843   -3.4891005     4.518973    30.782184    40.162572 
153164000    264.36433    318.87274    260.93368   -3.5768058    5.6578215    57.939061    40.151984 
153168000    275.87517    340.11489    282.59264   -6.0897685    3.8581099     57.52225    40.160966 
153172000    266.99456     313.6222    279.94089   -4.3922654    4.3975028    33.681307    40.156714 
153176000     267.8319    309.04677    287.71877    -3.378772    3.6783043    21.328006    40.160287 
153180000    270.60399    325.75568    295.53255   -4.6341733    3.6902629    30.223137    40.173689 
153184000    272.88795     319.0978    296.15216   -4.9193343    3.7875554    22.945649     40.16373 
153188000    268.41286    324.84953    287.04526   -5.6933546    4.0409534    37.804271    40.157119 
153192000    274.44702    340.56968    269.66753   -5.6848426    4.3082759    70.902158    40.177325 
153196000     271.0823    330.53615    283.45808    -7.043784    3.9246223    47.078071    40.154237 
153200000    260.10536    326.36504    265.37476   -6.4488851    4.0942451    60.990288    40.158523 
153204000    265.03754    340.97381    272.98175    -6.546729    4.2822639    67.992064    40.142405 
153208000    272.12792    308.03193    286.71996   -4.7856546    4.1525292    21.311976    40.130834 
153212000    269.39573    314.90407    274.41209   -5.1601628    3.6200959    40.491979    40.138966 
153216000    266.10924     320.1977    269.74937   -5.4493726    4.4496692    50.448323    40.133406 
153220000    269.58785    317.76315    289.08128   -5.4248772     4.831051    28.681868     40.12515 
153224000      267.022    321.84588    280.45985   -6.3142291    5.1453363    41.386026    40.124151 
153228000     275.6079     313.0842    289.31723   -6.1745264    4.3109268    23.766975    40.129705 
153232000     278.2341    343.28732    274.76372   -7.7654372    3.9971335    68.523601    40.111525 
153236000    268.11072    318.16819    282.13493   -7.7452301    3.8266962    36.033255     40.11567 
153240000    280.03133    321.85325    292.08917   -6.7424893    4.3056744     29.76408    40.115345 
153244000    268.39945    313.89005    277.16525   -4.8508336    4.5537439    36.724801    40.100037 
153248000    276.98245    332.38829    295.94995   -5.9838778     3.383653    36.438345    40.106196 
153252000    266.24527    323.07522    272.95607    -4.665796    4.6014669    50.119155    40.111677 
153256000    266.77429    297.37815     284.4249   -4.9554371    4.0521754    12.953256    40.105977 
153260000    275.61202    317.35925    318.49806   -6.1713103    2.7275797    -1.138806    40.092374 
153264000    274.89807    330.05376    278.84289   -6.4137399    3.9416314    51.210866    40.083574 
153268000    265.81014    293.92023    281.64397   -4.6210229    3.7553555    12.276266    40.075436 
153272000    264.67447    323.42484     275.9273    -6.517631    3.1653927    47.497536    40.060208 
153276000    276.16387    326.35147    281.31819   -6.0767103    3.3761569    45.033285     40.06074 
153280000    273.59546     321.6326    277.16729   -4.4469757    3.9778131    44.465307    40.069654 
153284000    269.88317    316.01339    282.26709   -7.5369226    4.1185655    33.746307     40.07271 
153288000     279.7927    320.75981    297.30493   -4.4489856    2.5997522    23.454879    40.076965 
153292000    271.76521    330.34974    281.30437   -5.0998673    3.8197677    49.045372    40.082811 
153296000    265.49159    323.49298    272.89646   -5.5553848    4.4178182    50.596525    40.086926 
153300000    263.10712    316.32019    281.16792   -4.9546411    5.0253593     35.15227    40.092655 
153304000    262.99629     331.5436    284.96481    -5.246324    2.9285387    46.578785    40.100384 
153308000    274.76099    342.95944    294.48709    -5.342366    3.3386346     48.47235    40.100013 
153312000    262.79204    317.09371    262.52687   -4.2804945    5.3816094    54.566838    40.090149 
153316000    264.98051    316.76403    275.04905   -5.6233105     5.275342     41.71498    40.089376 
153320000    264.59922    316.22175    279.14485   -5.8977888    5.3561948    37.076901    40.080213 
153324000    256.72324    314.16645    268.83753   -5.7098054     5.820892    45.328917    40.066887 
153328000    274.62511    344.14324    292.08791   -5.7692643    4.3005438     52.05533    40.077541 
153332000    276.32693    332.79329    296.32421   -5.2886184    4.8640102    36.469079    40.090806 
153336000    263.49602    305.71586    277.60535   -4.1776798     5.249723    28.110518    40.095486 
153340000     266.2708    317.80596    293.79918    -4.893095    4.9493806    24.006781    40.099631 
153344000    271.83613    313.98364    297.21851   -6.0709991    4.0416093    16.765126    40.099006 
153348000    253.65559    324.25739    245.11118     -5.85822    7.2989337    79.146209    40.098895 
153352000    266.07678    327.85522    268.48907   -4.6046325    5.9026744    59.366153    40.094094 
153356000    271.32813    322.53014     286.7774   -4.8834815    4.5283641    35.752745    40.085588 
153360000    264.77202    338.82224    268.28315   -5.1148134    5.1411428    70.539092    40.088013 
153364000    261.61787     335.1931    277.33497   -5.8801651    5.4049125     57.85813    40.089055 
153368000    262.90371    292.56116    282.50244   -5.4695898    5.0659991    10.058713    40.081046 
153372000    264.25698    325.74035    269.95171    -6.281635    4.9613314    55.788632    40.094752 
153376000    272.76393    325.51924    282.96011   -6.5461614    5.0424164     42.55913     40.10687 
153380000    267.76618    313.94687    289.13702   -5.4598137    5.3206489    24.809847    40.095278 
153384000     267.4695    327.11648    291.58146   -5.7913314    4.6414427    35.535022    40.103627 
153388000    269.41376    330.59626    275.51007   -5.9512232    5.3978162     55.08619     40.11149 
153392000    259.79876    312.60242    279.00697    -5.572317     5.154689    33.595454    40.108889 
153396000    265.94054    305.26256    298.44697   -5.3568297    3.6724394    6.8155953    40.112239 
153400000    271.59001    317.96701    298.39716   -5.7438343    5.1341266    19.569849    40.089308 
153404000    271.11913     329.3147    281.96934   -6.0634756    4.6008544    47.345359    40.096526 
153408000    260.35836    302.97869    261.54592   -4.4180227    6.5369631    41.432766     40.10127 
153412000    260.34551     313.8291    274.26707   -5.2613045    5.0694723    39.562033    40.099782 
153416000    275.44741    347.56637    278.64866   -5.3290262    5.2208648    68.917704    40.087439 
153420000    261.57054     302.9586    283.77576    -3.375987    4.3892635    19.182839    40.093828 
153424000    268.66103    310.15941     310.9236   -4.6652548    2.8864968  -0.76419493    40.091816 
153428000    257.58373    308.41112    278.58857   -4.0930519    4.3907877    29.822551    40.103225 
153432000    266.88837    315.07961    293.33769   -5.0974965    3.9942468    21.741921    40.121808 
153436000    277.22148    365.00007    290.29062   -7.9212735    4.3080494    74.709449     40.10792 
153440000    262.56994    311.29852    275.89597   -4.5462341    5.5292192    35.402551    40.104088 
153444000     268.4574    319.62942    302.74789   -4.2757735     4.224457    16.881536    40.094052 
153448000    267.06311    332.80569    287.02226   -5.0798588    4.1915867    45.783428    40.090391 
153452000    262.73813    321.77085    267.07357   -4.0016945    4.8842826    54.697275    40.090726 
153456000    276.78405    334.85883    285.21744    -5.111953    4.5986362    49.641387    40.094048 
153460000    263.07881    335.94308    270.29703   -4.5931867     4.372545    65.646053    40.107684 
153464000     260.7321     313.0157    265.56462   -3.3692006    5.0057383    47.451074    40.111249 
153468000    267.29223    308.12985    282.07314   -3.2322344    3.6836676    26.056704    40.116987 
153472000    271.84215    326.43041    295.72763   -4.6098724    2.8723214    30.702778    40.125916 
153476000    264.23995    313.81105    276.22438   -4.3120574    3.7263382    37.586673     40.12986 
153480000    269.77638    343.01535    268.44571   -4.7453394    4.9298447     74.56964    40.123594 
153484000     263.0406    329.06871    258.69411   -4.9932951      4.63676    70.374604    40.120129 
153488000    261.26514    328.55443    272.06195    -5.036037    4.3699266    56.492476    40.127453 
153492000    270.29188    315.27021    282.19495   -3.3750581    4.7755785    33.075256    40.134373 
153496000    256.32488    308.56425    261.47297   -3.9795591    6.4661668    47.091288    40.142071 
153500000    268.60587    331.99215    287.06012    -5.265527    4.7039487    44.932026    40.141903 
153504000    253.78749    302.74513    270.00402   -3.4611107    5.5269978    32.741114    40.145981 
153508000    269.84136    320.02009    293.85646   -4.6218543    3.3392612    26.163626    40.133544 
153512000    254.63036    306.30613    262.72678   -5.1622239    5.1527007    43.579341    40.135829 
153516000    261.68068    312.75923    269.33823   -5.5532019    4.5204308       43.421    40.137497 
153520000    264.36457     305.4759     286.0596   -4.9832824    4.2787139    19.416298    40.141335 
153524000    268.20716    315.22957    280.59601    -4.927583    3.7925679     34.63356     40.13063 
153528000    273.08359    330.62947    286.32663   -6.5143007    4.0598845    44.302833    40.139005 
153532000    248.92383    287.53325    268.92104   -4.2442497    5.7345666    18.612217    40.141431 
153536000    273.39379    332.30867     285.1856   -6.4967506    5.2087006    47.123068    40.134678 
153540000    266.04768    334.78781    268.94575   -6.0893539    7.0270857    65.842059    40.134552 
153544000    266.24591    321.02217    274.19976   -5.9685538    5.5594986     46.82241    40.128673 
153548000    259.97778    304.58327    283.18677   -4.9871026    5.2927969    21.396495     40.11105 
153552000    270.43865    341.09971     289.6978   -5.3687488    5.1263002    51.401908     40.10508 
153556000    261.37635    306.94882    266.52778   -5.8591304    5.9032694    40.421036    40.094089 
153560000    271.51556    329.98521    275.27737   -5.6447747    5.3047401    54.707839    40.090047 
153564000    273.02675    344.77927    276.76034   -6.1112745    5.7121538    68.018937    40.083379 
153568000    271.73113     336.8811    298.39798   -5.3502808    4.3649927    38.483121    40.078085 
153572000    264.38087    304.49393     274.3674   -5.1716532    4.7219767    30.126531    40.069873 
153576000    273.34078    339.02994    289.01474   -6.7636544    4.8887035      50.0152    40.069128 
153580000    258.85148    315.63912    282.72161   -4.7998096    5.6977377    32.917514    40.077075 
153584000    258.99466    313.02551    274.48494   -5.6306943    5.2530021    38.540571    40.067975 
153588000    269.14879    334.73747    280.93587   -5.8176782    4.6519895    53.801597    40.057558 
153592000    253.50188    299.20837    264.84375   -3.0995979    5.5449433    34.364624      40.0512 
153596000    264.23823    317.45905    276.38989   -4.6588169    5.0484609    41.069166    40.058157 
153600000    273.35635    320.63184    304.16872   -4.3942888    4.2410959    16.463118    40.053677 
153604000    268.40365     316.9899    301.36303   -4.2457823    4.3695107    15.626871    40.063367 
153608000    262.81064    315.30147    274.36751   -5.0748875    5.2822628    40.933966    40.067146 
153612000    262.51863    327.24436     271.1453   -4.9237534    6.1549936    56.099063    40.063051 
153616000    264.62946    328.28182     273.8779    -5.774375    5.6121114    54.403924    40.060059 
153620000    269.02764    328.56771     273.7209    -7.074743     6.400031     54.84681    40.063727 
153624000    272.20024    351.56341    275.63771   -8.5334734    5.3906792    75.925704    40.069676 
153628000    268.86604    320.43624    281.17218   -6.4672088    5.5742207    39.264063    40.080094 
153632000    268.41113    305.59338    270.33255    -5.856608    6.0484716     35.26083    40.087453 
153636000    272.36059    331.41247    279.61617   -7.5387945    5.7851228    51.796301    40.077858 
153640000      268.694    310.04254    272.15842   -7.0148002    5.1830274    37.884118    40.076909 
153644000    279.86585    327.07314    295.04676   -8.0155352    5.3786322    32.026386    40.089653 
153648000    267.24319     310.2133    289.79875    -6.521952    6.2563693     20.41455    40.101896 
153652000    264.46181    319.75848    296.76933   -6.7521796     5.766068     22.98915    40.094171 
153656000    268.68523    334.81485    253.43193    -7.863527    6.6935946    81.382927    40.096123 
153660000    267.94795    284.90928    311.11412   -5.8617832    4.2795464   -26.204838    40.090813 
153664000    271.23666    318.35023    285.04433   -7.3801106    5.2981753    33.305894    40.093196 
153668000    263.73263    311.77304     273.3509   -6.2464251    5.6759807    38.422131    40.101318 
153672000    279.36873    348.20087    299.33669   -8.5716684    5.4530245    48.864185    40.094465 
153676000    275.80522    308.03581    306.66047   -7.3772284    5.7352596    1.3753395    40.094147 
153680000    273.57598    324.34374    293.15927   -6.9608761    5.8148291    31.184472    40.096675 
153684000    274.84503    295.73543    298.76714   -6.7145274    6.7768948   -3.0317066    40.103441 
153688000    271.24811     294.3513    314.47557   -6.8754514    4.3580376   -20.124271    40.094155 
153692000     274.3655     328.5679    287.24724   -7.9069982    6.7432685    41.320664    40.093622 
153696000    276.16396    313.79928    291.05338   -7.9536051    6.4082733    22.745898     40.10409 
153700000    271.03322    326.99733    279.06999   -7.5091887    6.2780838    47.927337    40.097127 
153704000    275.02226     311.4636     295.7611   -7.6929324    5.0816137    15.702495    40.091458 
153708000    278.85274    355.73449    284.23006   -9.4647963    6.4550809    71.504434    40.088602 
153712000    278.25667     342.6207    290.27089   -9.0572787    5.4644841     52.34981    40.096851 
153716000    275.30029       324.66    291.74009   -7.6821252    5.6171345    32.919909    40.094614 
153720000     263.0739    314.31811    261.27362   -7.3443373    7.7994918    53.044483    40.089474 
153724000    270.91896    321.69332    279.97548   -7.9658369     6.833501    41.717842    40.093234 
153728000    270.31888    320.20213     284.7472   -6.1361402    6.0876018    35.454927    40.092747 
153732000     271.8351    322.98449    286.71229   -7.0363461    6.5583934    36.272201    40.094381 
153736000    267.75957    335.31463    268.24592   -7.6206412    6.7113845    67.068711    40.092731 
153740000     269.9665    327.82396    271.20925   -7.1265335    6.6276982    56.614715     40.09169 
153744000    280.03778    343.84428    285.48344   -7.8866233    5.1636101    58.360841    40.101327 
153748000    272.39666    324.46787    281.01938   -7.3065355    5.0499516    43.448489    40.103815 
153752000    274.20192    322.57849     306.9376   -7.2747948    4.3206804    15.640887    40.120082 
153756000    269.23673    312.01602    289.22283    -6.307875    5.3533053    22.793193    40.116094 
153760000    268.42164    303.35883    271.53016   -6.3884341    5.5485029    31.828672    40.115568 
153764000    267.66108    318.25833    269.58527   -6.2971357    5.9078598    48.673057    40.106107 
153768000    267.39338    323.78676    275.58406   -7.0152056    5.5687489    48.202696     40.10367 
153772000    268.03462    316.87057    295.73944   -7.1392839    5.0695568    21.131128     40.10279 
153776000       282.46    357.04588    303.57038    -7.651836    4.6310161    53.475503    40.107558 
153780000    279.37469    343.21927    296.37597   -7.4370076    6.1989119    46.843303    40.114078 
153784000     278.5755    347.32853    268.37543    -6.782545    6.0222106    78.953102    40.124288 
153788000     273.1473    326.85964    289.05616   -5.5375309    4.9790574    37.803476     40.12403 
153792000    264.25206    326.37731    263.34155   -6.7943095    5.9932028    63.035762    40.125213 
153796000    271.51289    339.95143    270.62935   -7.2730756    4.4253843    69.322075    40.143209 
153800000    284.40727    350.05485    290.53052   -8.4213909    4.6562266    59.524328    40.133328 
153804000    264.17053    297.49459    285.21038   -6.3483028    4.0760241    12.284211    40.136119 
153808000     272.4085    334.92489    289.97431   -7.0335489    4.0753825    44.950586    40.139577 
153812000    265.93851    308.85577    285.36252   -5.9885508    5.6767417    23.493244    40.143657 
153816000    267.62984    303.84345    288.07044   -6.6034755      5.87332    15.773006    40.152753 
153820000    277.78562    388.62031    262.23235   -9.6179209    6.0913526    126.38797    40.164978 
153824000    269.46249    317.18504    300.29554   -6.9883724    6.1754164      16.8895    40.159328 
153828000    261.96796    311.86972    262.10626   -6.4615774    7.4185649     49.76346    40.158199 
153832000    268.61204    305.24333     302.8604   -6.2196899    5.4809015    2.3829287    40.147629 
153836000    264.00064    327.50296    264.28518   -8.1340656    7.5880606    63.217774    40.155216 
153840000    249.90389    303.58497     248.5994   -5.9143189    7.7106482    54.985564    40.154037 
153844000    280.40818    334.73651    292.31124   -8.6746996    5.7868574    42.425268      40.1618 
153848000    269.80673    310.01148    284.74465   -7.7906302    7.0492751    25.266826    40.162519 
153852000    267.79099    316.45387    285.91168    -7.788469    5.8599005    30.542195    40.165871 
153856000    276.42769    324.53389    291.72883   -8.6470305    5.9812847    32.805057    40.158146 
153860000    267.80055    333.66982      274.861   -8.2024745     6.870828    58.808819    40.165046 
153864000    269.89392     317.1501    286.07726   -7.9099853    5.9535191    31.072833    40.158387 
153868000    278.11922    339.36398    293.76098    -8.373018    5.9057614    45.602999    40.159913 
153872000    264.58892    316.72001    276.32864   -6.8146043    6.4928998    40.391377    40.155615 
153876000    261.71288    301.57223    278.66312   -6.4246579    6.6068688    22.909114    40.159426 
153880000    271.39571    320.53975    294.99378   -6.0720086    6.4998187    25.545972    40.158487 
153884000    270.34177    337.68223    278.92174   -7.5980612    6.6348821    58.760499    40.163813 
153888000    278.33317    353.05315    288.51139   -8.4135514    6.4594824    64.541763    40.156043 
153892000    272.51717    329.46963    277.57189   -7.2452692    7.4538693    51.897737    40.164075 
153896000    260.92571     306.2636     280.3014   -6.3248261    6.6932583    25.962201    40.159837 
153900000    279.29255    342.22818    290.81095   -7.2058166     6.810783    51.417229    40.155435 
153904000    268.48153    326.77822    290.53637   -5.9251286    6.6194445    36.241848    40.154237 
153908000    256.59182    286.32047    297.70187   -5.6962589    5.6953046   -11.381399    40.155933 
153912000    262.49946    306.76223     284.3856   -6.4477589    6.1888146    22.376632    40.158947 
153916000     272.2842    307.89081    323.73163   -5.9964737    4.6076284   -15.840816       40.156 
153920000    267.85457    334.63234    286.04476   -6.4216792    6.0760854    48.587584      40.1546 
153924000    264.90787    322.20826    276.22129   -6.9047715     6.688945    45.986976    40.143615 
153928000    265.40509    298.32385    280.44226   -6.8436953    7.1745542    17.881588    40.142998 
153932000    268.52935    350.59138    268.50813   -9.5347776    8.3731204    82.083247    40.147877 
153936000    264.08171    313.95307    282.70827   -8.5486923    8.1046519      31.2448    40.150446 
153940000    260.37848    299.60728    273.84729   -7.0802512    8.0416295    25.759996    40.156525 
153944000    264.61017    323.77886    266.90988   -7.6325058    8.4546579    56.868979    40.165316 
153948000    267.66723    299.51089    293.92064   -5.4678008    7.6019013    5.5902473    40.157986 
153952000    268.92231     316.7662    276.10806   -6.7898085    7.9362216     40.65814    40.160927 
153956000    265.22395    310.35504    296.71094   -6.9477164    6.1756587    13.644105    40.156309 
153960000    269.12121     311.7817    285.26322   -7.0913329    6.3240187    26.518484      40.1607 
153964000    267.87435    322.33079    282.09774   -7.8717465    6.7454471    40.233046     40.16392 
153968000    270.12411    332.26776    302.43017   -7.0246349    6.2450786    29.837596    40.169673 
153972000    259.87239    317.74712     274.7577   -6.9683047    7.8523852    42.989416    40.171713 
153976000     265.3226    345.26678    292.50867   -8.3378878    7.2757347    52.758108    40.167918 
153980000    271.60234    345.00503    307.53814   -7.6106968    7.1120976    37.466893    40.163817 
153984000    272.09817    330.47257    288.09694   -7.8990076    7.3714822    42.375626    40.149208 
153988000    261.50308    312.70629    278.16099   -6.3800759    7.4956892    34.545307    40.146495 
153992000    271.71143    309.12514    308.98319   -6.2158471    6.6947798   0.14195585    40.153189 
153996000    269.44511    309.44233    287.99562   -6.9962647     7.642817    21.446712    40.146005 
154000000    263.07339    318.40622    262.95985   -7.5487187    7.4543802    55.446372    40.140994 
154004000    265.77962    323.10073    289.44911   -7.8212543    6.6796815    33.651622     40.14831 
154008000    262.05684    319.06227     287.0492   -8.1023366    6.9770372    32.013067    40.144044 
154012000    267.23168    322.82202    272.19691    -6.614765    7.9337038     50.62511    40.143093 
154016000    256.39652    304.06715    287.76521    -5.049439    7.6168909     16.30194    40.138965 
154020000    254.23607    321.45175    269.37474   -6.1066441    7.7858111    52.077008    40.130894 
154024000      257.796    300.65458    265.33897   -6.8147309    6.9486561    35.315613    40.133405 
154028000    268.64248    319.02621    310.02024   -6.8417366    5.5352477    9.0059713    40.134223 
154032000    258.25219    316.80632    277.52778   -5.2396061    7.2060177    39.278539    40.134779 
154036000    258.65957    301.73269    271.85138   -4.6058071    7.7300897    29.881312    40.138253 
154040000    251.26989    290.32717     271.9656   -4.1785763    7.8090859    18.361563    40.134405 
154044000    269.01713    346.55912    279.37726   -5.2939563    7.5643139    67.181854    40.142498 
154048000      261.641     324.7054    268.27286    -5.903968      7.57599    56.432538    40.152721 
154052000    263.67665    336.34482    266.56819   -5.5045882    7.0620159    69.776629    40.155026 
154056000    254.84921    327.08361    267.79226   -5.1943334    7.3861977    59.291349    40.145151 
154060000    252.33434    315.31422    274.65812   -5.7566768    7.4934042    40.656103    40.152362 
154064000    252.18322    306.53508    256.98077   -5.2489972    8.3642264    49.554311    40.162812 
154068000    263.35096      316.589    289.21145   -5.7608894    6.3488028    27.377543    40.151356 
154072000    266.99766    336.31461    274.00073   -6.9104915    5.9848742    62.313878    40.153641 
154076000    271.62908    325.80982    277.01791   -5.8766468    5.6357026    48.791904    40.157998 
154080000    266.76633     325.4184    277.67471   -5.4303332    6.7528966    47.743691    40.156424 
154084000    264.68165    336.51144    274.50238   -6.8545501    7.4907939    62.009054    40.161085 
154088000    256.34571    308.25525    281.49796   -5.3177238    7.1053528    26.757283    40.160434 
154092000    270.11252    345.86602    275.20468   -6.8029343    7.3625114    70.661337    40.154169 
154096000    252.90609    308.24663    241.11953   -4.5708167    7.2632859    67.127098     40.16457 
154100000    255.30842    281.84964    274.89558    -4.625487    6.0450477     6.954055    40.167367 
154104000    270.68961     325.9124    291.80533   -5.8544006    6.4311181    34.107073    40.171594 
154108000     260.6027    321.85825    284.13576   -6.1753905    5.5802111    37.722489    40.176254 
154112000    269.86149    322.57651    280.27248   -6.9738401    5.7790204    42.304027     40.18466 
154116000    269.23619    340.17272    288.26205   -8.2061924    5.7879943    51.910673    40.193027 
154120000    273.50959    339.81113    283.81606   -7.1523698    5.7926906    55.995064     40.19945 
154124000     269.6216    338.41801    277.10181   -7.2908691    6.0935895    61.316204    40.204137 
154128000    283.91506    339.87919    294.47092   -6.6343288    5.1552075    45.408264    40.199497 
154132000    262.61492    323.97248    257.31126     -5.87295    6.5970498    66.661218     40.20402 
154136000    276.64616     347.2731    280.19298   -7.4132969    6.5424689    67.080119    40.204963 
154140000    265.03007     322.4742    262.48678    -8.005231    7.9415424    59.987422    40.206671 
154144000      273.711    328.12665    281.02948   -6.7202091    6.6232108    47.097165    40.198751 
154148000    258.46061    306.19065    273.47177   -6.4001612    6.2631458    32.718878    40.207461 
154152000    268.29265    329.94863    275.20405   -8.3733781    5.9172492    54.744578    40.205358 
154156000    264.21809    307.71458     278.4967   -7.0201149    6.4273116    29.217877    40.205314 
154160000    280.45174    353.66638    308.74557   -10.616173    5.4678416    44.920816    40.205991 
154164000    265.60129    317.97652    279.49171   -8.3012303    5.9423581    38.484812    40.206158 
154168000     271.2667    316.10494    275.12438   -7.3577994    6.7357335    40.980563    40.206535 
154172000    269.47287     330.0849    273.44875   -8.2211866    7.4321653    56.636155    40.213858 
154176000    269.85948    312.48087    290.63846   -7.7458536    6.3928735    21.842406    40.221396 
154180000    276.77474    330.76272    289.58771   -9.2177507    6.7934985    41.175013    40.214004 
154184000    267.51596    345.30566    260.03698   -8.6280271    8.2013475    85.268684    40.219908 
154188000    268.87955    308.38931    297.21893   -8.0114247    7.2469569    11.170388    40.213712 
154192000    268.02881    303.85191    288.56796   -7.0359847    7.3808382    15.283955    40.218335 
154196000    265.71743    307.28431    305.12162   -7.2024882    5.8280173    2.1626949    40.200957 
154200000    268.98237    325.26641    286.29158   -7.8007069    6.2564459    38.974829    40.187278 
154204000    273.92047    326.58519    302.35035   -7.6022867    6.2829869    24.234831    40.183023 
154208000    268.28121    304.68811    287.60629   -6.1869905    5.4166709    17.081815    40.185352 
154212000    278.30671    336.73157      285.501   -8.3767724     6.600135    51.230573    40.189171 
154216000    269.85081    316.82605    289.92371   -7.3092341    8.1153115    26.902343     40.18392 
154220000    271.41295    327.46953     273.8192   -8.0435728    8.3609761    53.650333    40.185238 
154224000    268.38527    338.86903    270.42779   -8.5354338    8.3957247    68.441236    40.186429 
154228000    268.82739    329.00998    284.40893   -8.2651715    7.1757173    44.601048     40.19276 
154232000    279.93464    368.06957    272.21808   -9.1966467    8.2021158     95.85149    40.196607 
154236000    270.13038    324.00554    292.21119   -7.9472396    7.2538187    31.794344    40.200973 
154240000     260.2717    316.82004    276.05305   -8.0453346    7.4699384    40.766984    40.200457 
154244000    266.56893    325.89738    271.76468   -7.6364924    6.7573175    54.132706    40.207938 
154248000    260.84897    295.87384    279.94486   -6.6413439     7.258073    15.928981    40.208766 
154252000     262.0336     295.9017    287.96775   -6.6200962    7.1306315    7.9339567    40.206623 
154256000    280.95737    346.34099    297.45274   -9.5168319    6.2553535    48.888249    40.210826 
154260000    265.22039    309.88668    281.36549   -7.5370245    8.3257513    28.521191    40.207746 
154264000    255.72012    300.79457    272.32633   -7.4850427    9.1772807    28.468239    40.213816 
154268000    271.67736    337.41888    283.24694   -7.6551181    7.4490245    54.171947    40.217136 
154272000    262.70793    312.30422    297.71294   -7.9897999    6.5915874    14.591278    40.210721 
154276000    267.69836    310.54324    299.49147   -7.2092518    6.9971814    11.051764    40.214408 
154280000    257.88492     326.5148    269.52836   -7.7590061    8.5440877    56.986445    40.216874 
154284000    269.72477    329.61991     283.4704   -8.3526243    8.0052911     46.14951    40.221824 
154288000    281.43782    335.61026     288.0446   -9.0684612    7.3979405    47.565667    40.227912 
154292000    278.41933    330.44063      305.471   -8.4833223    7.0538945    24.969629    40.221438 
154296000    274.76691    329.79979    294.36775   -9.0477289    7.3431333    35.432044    40.222205 
154300000    268.55153    314.88314    293.67162   -8.1198082    7.4186469    21.211526    40.225093 
154304000    267.35086    310.32441    283.69681   -7.2030392    7.2320197      26.6276    40.219043 
154308000    263.67284     330.0588    269.91438   -7.9001308     8.154299    60.144426    40.212495 
154312000    260.96783    305.95614    288.30783    -5.795784    6.7656044    17.648309    40.206483 
154316000    276.04059    319.47246    304.61557   -8.1011307    6.3959029    14.856888     40.20077 
154320000    266.05949    311.86469    294.08338   -7.1717411    7.1122744    17.781312    40.205132 
154324000    264.18076    290.94784    292.23446   -6.7310401      7.90922   -1.2866241     40.20646 
154328000    269.57635    342.44278    292.20883   -8.8832398    8.1565811     50.23395    40.210954 
154332000    277.70229    346.52559    286.16723   -7.8642994    8.4292448    60.358357    40.209665 
154336000    271.27838    346.10207    281.72422   -8.4460572    7.9812031    64.377845    40.209476 
154340000    249.28948    299.82184    260.30607   -7.0532816     9.842025     39.51577    40.213345 
154344000     265.2935    311.39743     288.6396   -6.3751916    7.8555523    22.757828    40.202769 
154348000    251.25226    303.93994    270.57816   -7.3615556    8.5639843    33.361788    40.199707 
154352000    268.36746    331.31771     276.2363   -7.5578773    8.6503829    55.081409    40.199593 
154356000    265.88866    321.67086    274.51424   -7.0634564    8.1939111    47.156623    40.197269 
154360000    263.67742    313.11576    273.94058   -6.8736196     7.799899     39.17518    40.200109 
154364000    273.58863    343.07804    294.96806   -8.8461177    7.1307275    48.109985    40.204206 
154368000    270.11027    328.63903    293.64894   -8.1770372    7.5891213    34.990088    40.200975 
154372000     272.3429    338.42491     289.0448   -8.2730323    6.9681105    49.380111    40.206329 
154376000    264.04023    304.78136    292.31181   -7.1840931    7.3026304    12.469559    40.204009 
154380000    270.27872    305.82701    279.47234   -8.4657327    6.6662996    26.354663    40.211554 
154384000    274.60441    345.42736    268.09578   -10.305798    6.9484901    77.331586    40.210671 
154388000    270.83841    306.55038    282.64949   -8.5518583    7.1130788    23.900891    40.213073 
154392000    261.91691    301.14284    284.10629   -8.2400014    7.2027922    17.036552    40.214347 
154396000    279.00932    337.71402     283.1142   -10.152823    7.8495436     54.59982    40.198965 
154400000    275.86556    335.75664    288.92895   -9.4804937    7.3662617     46.82769    40.197352 
154404000    269.84579     311.7605      273.854   -7.8621182     7.181816    37.906505    40.194642 
154408000    261.61988    300.47171    271.89159   -7.8507207    8.1434497    28.580121     40.19334 
154412000    254.02563    288.34296    269.85578   -7.1369961    7.9598423    18.487179    40.206289 
154416000     264.2665    328.71068    264.52967   -7.4960766    7.5312898    64.181012    40.206109 
154420000    267.82583    319.12339    272.87577    -7.705405    6.6611031     46.24762    40.196623 
154424000    278.59191    319.81957     304.6772    -7.822008    5.4132568    15.142374    40.200078 
154428000    265.17757    311.45919     266.4807   -7.8113116    7.6604029    44.978495    40.194447 
154432000    267.66516    329.63691    285.57046   -8.5454168    6.9721269    44.066445    40.204992 
154436000    269.38669    324.28231    281.83019   -8.3798634    7.1694326    42.452124    40.207414 
154440000     266.3017    301.88757    289.71903   -7.8002775    7.1166458     12.16854    40.198807 
154444000    265.79289    327.92866     282.3867   -8.7802798    6.7518508    45.541963    40.190737 
154448000    264.84503    319.97573    276.04211   -8.3251584    8.3788895    43.933627    40.195269 
154452000    267.93843     322.8012    285.15616   -7.6463044    7.9283252    37.645035    40.202706 
154456000    272.13187    314.76204    292.06746   -7.8664909    7.7805714    22.694583    40.191852 
154460000    262.41151    292.86059    282.88749   -6.5650881    8.2292854    9.9731007    40.186763 
154464000    249.87025    292.09819    255.18088   -6.7262579    8.6287955    36.917312    40.189739 
154468000    259.85533    320.86994    258.06226   -8.4381153    8.6338306    62.807685    40.181891 
154472000    276.74356    338.22374    295.82432   -8.7009908    6.8586739    42.399414    40.176383 
154476000    260.88689    307.71383    285.48777   -7.5660264    7.5773638    22.226064    40.166715 
154480000    270.10566    311.95233    272.75615   -7.6057739    8.6801443    39.196182    40.170033 
154484000    257.12721    318.93084    270.30669   -7.1398031    8.0868137    48.624152    40.168494 
154488000    263.20162    309.79295    286.31018   -6.9139129    8.0210914    23.482769    40.165376 
154492000    264.69631    325.92238    283.25803   -7.4182376    8.0142125    42.664352    40.157232 
154496000    268.62376    324.74762    276.04085   -8.8759703    9.2794305    48.706772    40.162408 
154500000    258.57213    313.59549    276.49348   -8.0834708    10.173888    37.102002    40.156001 
154504000    259.42489    326.81087    282.55428   -8.8368956     8.058612    44.256593    40.150785 
154508000    265.19319     322.0508    276.82639   -7.4987373    8.9767408    45.224403    40.142004 
154512000    267.71031    333.31221    294.44735   -7.9211174     7.481354    38.864856    40.137387 
154516000    266.10469    314.35314    283.43907   -7.3582152    8.7720143    30.914067     40.13611 
154520000    270.40483     335.4591    291.69507   -9.5515922    8.7551387    43.764028    40.136715 
154524000    254.43263    321.53029    243.98238   -7.9959541    11.623849    77.547908    40.140228 
154528000    258.29236    338.58234    263.06351   -8.1854847    9.8469266     75.51883    40.142248 
154532000    256.70941    325.45906    254.16991   -7.2524701    10.336581    71.289151    40.152117 
154536000    272.60086    313.01562    302.34336     -7.88802    8.0073069    10.672265    40.151541 
154540000    256.96092    303.03461    267.37083   -7.0465861    9.1795493    35.663775    40.143229 
154544000    257.06386    292.19648    302.79282   -6.6204586    9.1633503   -10.596339    40.146551 
154548000     255.6823    290.09128    295.41928   -7.5563547    9.3083883   -5.3280019    40.143827 
154552000    265.06926    313.92361    269.89834   -7.8708598    9.9245672    44.025273    40.146559 
154556000     267.4557    331.09058    285.55132    -7.340232    8.5424147    45.539262    40.142882 
154560000    259.18169    347.12502    264.31642   -9.1887141    10.243187    82.808605    40.150044 
154564000    251.81505    278.78871    274.21515   -6.6829719    10.247499    4.5735603    40.143493 
154568000    256.74145    294.24852    274.85303   -7.1756357    9.3664455    19.395482    40.138307 
154572000    272.32236     343.4176    295.59778   -8.6665873    8.7057711    47.819819     40.13372 
154576000    265.88461    321.51231    298.20621   -7.2068814    8.6794878    23.306093    40.131395 
154580000    256.63429    319.89025    284.75732   -6.8350195     9.312471    35.132931    40.136922 
154584000    256.11736    323.92457     262.3056   -8.5006046    10.251282    61.618969    40.139559 
154588000    252.79255    304.43275    265.47694   -7.1122126    9.0055642    38.955807     40.13732 
154592000    268.28257    336.79288    282.17214   -8.0425074    8.8148321    54.620735    40.137512 
154596000    258.76993    318.42913    262.14057   -8.4703073    9.7316064    56.288567    40.135003 
154600000    251.54436    314.13145    250.81598   -8.6130928    9.8596205    63.315469    40.139416 
154604000    262.25944    310.95593    273.43746   -7.0646801    8.8220548    37.518476     40.13443 
154608000    253.76419    305.26426     263.0688   -7.8004791    9.7383603    42.195463    40.134537 
154612000    266.85583    347.06365    284.95135   -8.1291845    8.5608017    62.112299    40.122908 
154616000    264.08589    322.21951    297.09257   -8.0513486    8.6294987    25.126937    40.119249 
154620000    261.06752    318.84053    286.65423    -8.713607      9.23513      32.1863    40.119887 
154624000    263.93294    308.59049    283.04573   -8.4807912    8.9899646    25.544756    40.121423 
154628000    264.96669    323.59916    286.91574   -8.8222301     7.876597    36.683423    40.123363 
154632000    270.88872    344.33096     293.0464   -8.8359456     6.975207    51.284562    40.128424 
154636000    255.94334    294.83826    283.75307   -7.0911546     9.347107    11.085197    40.122973 
154640000    265.14115    332.77505    277.41878   -8.7358372    8.7788607    55.356273    40.125115 
154644000    263.43913     318.0723    281.80142   -9.1102998    9.7310705    36.270887    40.118375 
154648000    272.06984    327.99759    289.47336   -8.6785391    8.8000276    38.524227    40.114287 
154652000    257.60523    308.80193    269.57022   -7.3769711    9.5347544     39.23171      40.1123 
154656000    259.97622    320.80186    273.64609   -8.1509163     9.781642    47.155769    40.113634 
154660000     260.0908    331.53531     254.9124   -9.4334038    10.394367    76.622916    40.111243 
154664000    269.53797    338.88262    288.77201   -9.5306354    9.0431425    50.110612    40.116764 
154668000    264.65989    319.96434    266.67747   -9.1143119     10.01905     53.28687     40.11491 
154672000    269.80783    324.97863     294.6248   -10.039181    8.9073411    30.353828    40.111353 
154676000     274.7083    333.55792    284.06164   -9.0393068    8.2038365    49.496282    40.105615 
154680000    269.28887    354.20431    286.62951   -9.6304272    9.3628244      67.5748    40.107153 
154684000    251.78996    291.21115    266.15923   -7.5258537    9.4888052    25.051924    40.105876 
154688000    267.86003    323.47304     292.8983   -9.9211968    9.2063887    30.574747    40.107388 
154692000    263.04167    309.65272    262.49062   -8.8485106    9.6140185    47.162093    40.111154 
154696000    267.17182    307.89751    312.08774    -8.561763    7.5590759   -4.1902312    40.105682 
154700000    260.93327     301.5385    279.72844   -8.4296119    8.7249064     21.81006    40.110691 
154704000    269.81945    331.58697    297.96366   -11.545029    7.9623873    33.623312    40.111531 
154708000    271.89192    339.58929    279.67437   -11.512556    8.8034772    59.914916    40.117775 
154712000    271.07844    310.33647    283.98819   -10.262227    8.5847028    26.348276    40.114753 
154716000    274.40848    332.50595    286.83195   -10.337514    8.2529124    45.673998     40.10589 
154720000    260.73801    291.16953    278.65246   -9.1004877    10.329433    12.517061    40.098424 
154724000    271.17286    318.34844    280.06518   -9.5231978     10.26893    38.283257    40.093958 
154728000    258.63393    288.43413    283.54356   -9.5885971    9.1591464    4.8905716    40.096027 
154732000    274.42507    328.38919    307.16722     -10.6404    7.7680091    21.221965    40.099958 
154736000    271.67913    328.38365    287.27425   -10.351101    8.8378758    41.109394    40.101848 
154740000    271.07313    314.86137    278.43114   -9.6816648    9.5598862    36.430232     40.09903 
154744000    269.03624    320.95259    294.80614   -9.2597628    8.1441518    26.146445    40.095484 
154748000    278.72481    308.67437    289.95159   -8.9496872    8.6293426    18.722783    40.092038 
154752000    263.51217    305.09066    282.01976   -9.0350087    10.122153    23.070902    40.093589 
154756000    257.85996    310.96994    272.34505   -9.3741791      10.0673    38.624896     40.09343 
154760000    267.34424    324.99659    266.62439   -10.124392    10.511913    58.372207    40.093048 
154764000    268.10968    321.35899    271.35503    -9.632235    9.5162831    50.003956    40.091363 
154768000    261.28706     326.7792    264.69602   -9.7485693    10.262351    62.083183    40.090515 
154772000    271.12837    327.95413    284.34756   -10.669528    10.326133    43.606573     40.09214 
154776000    265.22199    320.33076    289.07621   -9.7150745    10.227616    31.254549    40.097286 
154780000    266.37784     334.2665    271.07567   -11.519692    10.316613    63.190835    40.097539 
154784000    264.26237    310.27782    292.18799   -9.9411985    9.4467603    18.089826    40.092105 
154788000    262.73656    315.33562    278.95805   -9.5270891    9.9678132    36.377568    40.098335 
154792000    260.92773    302.59959    279.41479   -8.8998576    9.3908596    23.184795    40.104386 
154796000    257.83443    293.31409     267.9449   -8.1091534    10.086064     25.36919    40.105971 
154800000    265.42213    293.78434    305.13106   -8.2065687    9.7297629   -11.346714    40.100737 
154804000    257.18827    305.30819    270.57771   -8.3500528    10.900847    34.730484    40.097285 
154808000    259.74206    305.95024    290.18132   -8.9552474    9.5767052    15.768919    40.090167 
154812000    263.83544    317.69209    251.90876   -10.402992    10.259515    65.783337     40.08567 
154816000    261.19185    301.83326    263.11595   -8.2727207    10.180645    38.717312    40.085718 
154820000    280.40802    350.77018    286.99352   -9.9268471    8.9708998    63.776654    40.083961 
154824000    261.60757    307.06475    267.28708    -8.618396    9.8044172    39.777668    40.082558 
154828000    260.81274    305.24602    268.62506    -8.457806    9.7232072    36.620967    40.087285 
154832000    263.39149    306.87713    285.36371   -9.9523486    9.6820649    21.513423    40.091194 
154836000    257.90597    314.88078    268.65769   -9.7920657    11.442743    46.223095    40.085907 
154840000    268.36332    355.34449    269.44154   -12.296387    10.562466     85.90295    40.089329 
154844000    268.81481    327.41715    273.98807    -10.45023    11.554845    53.429072    40.084884 
154848000    265.15081    338.07311    283.88866   -10.493762    11.149867    54.184444    40.085033 
154852000    259.79515    325.17298    283.34479   -10.020811    10.629284    41.828185    40.084032 
154856000     274.8543    350.26229    288.38765   -11.469967    10.683733    61.874635    40.091472 
154860000    271.33352    338.13091    282.76969    -11.12248    11.592873    55.361227    40.087248 
154864000    271.50308    356.33846    266.78339   -10.927455    11.728023    89.555067    40.094646 
154868000    258.90209    297.95093    283.29721   -9.0252514    10.936267    14.653724    40.096653 
154872000    263.72484    310.63893     283.4324   -10.071194    10.742086    27.206523    40.098764 
154876000    254.47839    289.46709    270.87276   -10.025762    11.369505     18.59433    40.102354 
154880000    266.17468    323.59804    283.56576   -10.523384    10.758756     40.03228    40.095268 
154884000    275.06313    341.80831    291.37921   -11.179162    9.5174706    50.429104    40.086656 
154888000    262.06761    300.20821    280.50834   -10.704362    10.304672    19.699876    40.079243 
154892000     268.3643    329.26274    271.34291   -11.894629    10.106234    57.919825    40.078528 
154896000    262.30799    312.08622    256.35963   -11.231936    10.746834    55.726592    40.080639 
154900000    267.35221    322.51878    280.36925   -11.761235     10.12528    42.149531    40.084294 
154904000     274.0132    335.88071    277.84628      -12.312     10.54619    58.034429    40.077262 
154908000    272.16647    310.49685    299.38856   -10.598309    8.4361967    11.108291    40.076276 
154912000    263.24234    320.78651    270.88176   -11.731975    11.376846    49.904755    40.072476 
154916000    265.89737    305.99336    278.06359   -11.017169    11.337712    27.929771     40.07463 
154920000    260.51694    322.33025     269.3346   -10.369705    12.100142    52.995646    40.078158 
154924000    265.02903    310.61477    282.76862   -9.3097664     10.86185    27.846152    40.080164 
154928000    260.14812    312.86687    281.30099   -9.9112423    10.763688    31.565881    40.084582 
154932000    248.23876    293.13555    267.06167   -9.6090544    11.186038    26.073882    40.086998 
154936000    264.88501    360.91372    272.50112   -11.467169    11.114733    88.412606    40.087589 
154940000    262.24784    317.99301    277.49215   -10.048701    10.124376    40.500855    40.084343 
154944000    263.52255    315.74622    283.94598   -10.347318    10.779389    31.800241    40.085658 
154948000    266.82068    322.85722    281.17207   -9.4063886    11.240605    41.685148    40.087613 
154952000    264.84232    305.66536    297.71725   -9.1135122    9.2815833    7.9481064    40.083031 
154956000    265.89165    336.88601    274.13894   -10.169191    10.822542    62.747079    40.084371 
154960000     264.7907    324.76755    289.81413   -10.809809    10.052839    34.953419    40.084636 
154964000    251.49758    286.34019    283.33064   -9.0101993    10.536239    3.0095547    40.081791 
154968000    258.26948    317.01631    270.67328   -9.4904952    10.931211    46.343033    40.076251 
154972000    265.58898    307.10618    293.97205   -10.144844    11.159317     13.13413    40.074851 
154976000    262.96832    304.70211    271.62151   -9.5368675    11.239204    33.080603    40.068635 
154980000    270.14978    333.94795    282.18102   -11.712852     11.40963    51.766926    40.071043 
154984000    263.65952    326.91862    279.50956   -10.903458    11.118534    47.409053    40.073689 
154988000    265.31347     326.1537    278.11173   -10.840869    11.014593    48.041972    40.074762 
154992000    261.33139    330.45978    274.15785   -11.409685    10.851361    56.301924     40.07145 
154996000    274.36271    334.30941    305.99629   -11.660867     9.565629    28.313114    40.071207 
155000000    257.97908    292.99659    272.75051   -10.774458    10.735138    20.246073    40.065883 
155004000    270.61669    307.16273    286.98557   -12.171609    11.409627    20.177167    40.057494 
155008000    264.42277    323.48656    270.71031    -10.47937    10.507167    52.776245    40.058315 
155012000    258.76489    299.55574    273.10541   -9.8911102    10.903607    26.450327    40.054942 
155016000    272.03531    315.02091    301.41836   -10.103637    11.164461    13.602547     40.05563 
155020000    271.31183    327.67363     280.4511   -11.185347    11.729808    47.222529    40.059706 
155024000    260.15949    308.97373    275.08886    -9.896455     11.07055    33.884875    40.064741 
155028000    266.19354    326.68975    268.88404   -11.502035    11.598285    57.805707    40.059181 
155032000    258.84813    304.59134     270.9669   -10.345975    11.564303    33.624437    40.058896 
155036000    279.19978    325.06114    302.87593   -11.552574    10.566598    22.185209    40.056362 
155040000     272.7288    330.93606    280.13529   -11.789871    10.649245    50.800765    40.057118 
155044000    266.02775    303.46864    277.24521   -10.666707    10.877991    26.223421    40.052273 
155048000    262.81566    312.07644     282.0228   -10.333012    10.405165    30.053643    40.050081 
155052000    267.26529    321.37897    278.67238   -9.9963298    11.124441    42.706585    40.047045 
155056000    271.90149    311.81037    292.18461   -10.749784    9.9949426    19.625754    40.058961 
155060000    261.94666    323.52757    276.04378   -10.577376    11.624024    47.483795    40.052086 
155064000    270.00255     337.6964    282.98138   -11.156622    11.369655    54.715023    40.053746 
155068000    276.61672    342.69275    289.49443    -11.49146    10.179191    53.198323    40.051562 
155072000    264.44282    333.34075    285.70226   -10.872453    10.699579    47.638492    40.058898 
155076000    271.32439    330.51634    293.41928   -9.9841325    11.410454    37.097063    40.059489 
155080000    256.71795     311.1354    274.77978   -11.157414    11.385344    36.355618    40.063297 
155084000     261.3726    304.15771    275.57372   -10.468651    10.963545    28.583998    40.059132 
155088000    254.45182    296.49299    260.85815   -9.8979215    11.493657    35.634838    40.064737 
155092000    255.13875    301.20938    256.70392   -9.4972038    11.644887    44.505464    40.057349 
155096000    280.07726    335.48995    306.44443    -12.03752    9.2542016     29.04552    40.064499 
155100000     263.8379    307.70483    269.76205   -12.517867     10.91028    37.942779    40.062948 
155104000    267.66814    320.10839    277.31516   -10.785925    10.562573    42.793232    40.062227 
155108000    263.92431    292.54741    271.58882   -10.811191    10.557416    20.958583    40.061557 
155112000    268.96303    326.63175    275.14814   -12.194395    10.698765    51.483609    40.057359 
155116000    268.40537    319.81182    281.08685   -10.460491    10.637315    38.724965    40.061389 
155120000    269.23991     316.0588    287.71835   -10.863761    10.156424    28.340447    40.057609 
155124000    270.05477    327.44146    279.76273   -10.181921    11.195813    47.678727     40.04891 
155128000    275.55715     347.3194    284.15363   -11.987267    10.139154    63.165773    40.054143 
155132000    262.44848    304.44141    279.02128   -9.9106698    9.9007288    25.420124    40.044119 
155136000    267.08553    304.12304     291.6676   -9.9246938    9.4746223    12.455441    40.047503 
155140000    266.48551    334.83375     282.3623   -10.262134    10.267873    52.471449    40.052654 
155144000    270.04401    315.11715    261.50195   -11.178667    10.031314    53.615194    40.052569 
155148000    268.66037    337.71556    265.57613   -12.625266     10.86215    72.139423    40.055538 
155152000    283.55211     339.8803    313.23702   -12.637102    9.3219171    26.643271    40.055941 
155156000    264.42212    319.47687     258.2478   -10.528212    10.753061    61.229067    40.064758 
155160000    271.61039    314.32131    274.14379   -10.619533    10.385052    40.177524    40.062669 
155164000    270.76908    310.44145    284.05259   -9.9213423    8.6010478    26.388861    40.063687 
155168000    282.34145    317.79199    314.89583   -10.370241    8.1199956    2.8961609     40.06263 
155172000    271.03881    303.36809    292.96242    -10.04957     8.047111    10.405675    40.063146 
155176000      274.252    303.03626    287.71192    -11.11586    8.4574326    15.324341    40.057859 
155180000    269.98628     299.5112    280.77553   -9.2792205    8.4549853    18.735673    40.063868 
155184000    258.99451    312.76281    257.60179   -11.367701    10.079438    55.161018    40.071096 
155188000    264.30747    293.03312    279.35493   -9.0667987     9.656849    13.678197    40.073201 
155192000    280.61048    330.75745    299.43187   -12.147042    8.7302917    31.325589    40.071372 
155196000    270.29191    310.56779    281.22067   -11.001473    8.8341533    29.347122    40.063943 
155200000     259.7286    324.65141     253.8222   -11.447706    10.284426    70.829213    40.072151 
155204000    277.01099    330.81308    279.56904   -12.599466    10.022122    51.244032    40.071469 
155208000     265.3831    310.98028    275.50642    -10.94397    10.337701     35.47386    40.064591 
155212000    268.98693    317.41098    274.04428    -11.56554    9.9571484    43.366691    40.058176 
155216000     267.2604    317.73015    272.76264   -10.364471    10.185599    44.967505    40.062029 
155220000     260.9476     297.6564    278.45355   -10.398263    10.080167    19.202855    40.058044 
155224000    261.35058    305.92249    279.95864   -11.427715    10.743938    25.963846    40.060901 
155228000    276.31779    332.04511    283.57581   -12.291401    10.078757    48.469302    40.057312 
155232000    263.50695    324.22421    277.85815   -11.754431    10.227428    46.366061    40.059225 
155236000    269.59945    325.69896    261.11861    -10.61427    10.429882    64.580349    40.062208 
155240000    263.20346    329.65531    264.34623   -11.295937    11.215374    65.309084    40.059648 
155244000     269.7096    326.53325    279.83441   -10.177218    10.006321    46.698841    40.059586 
155248000    274.68706    330.74842    279.98394   -11.456639    11.021909     50.76448    40.054911 
155252000    266.10944    320.91494    282.44319   -10.002844    9.7449629     38.47175    40.060638 
155256000    260.74362    301.47937    279.94406   -8.9342967    10.419136    21.535316     40.06354 
155260000    263.33645    325.93323    275.05458   -10.481476    11.228047    50.878649    40.060859 
155264000    262.83252    306.37399    266.32193   -9.8006848    10.633624    40.052056     40.06411 
155268000     265.1919    315.23879    278.94015   -10.256473    10.523146    36.298638    40.068057 
155272000    263.14789    315.79193    283.43237   -8.8131934    10.470547    32.359554    40.071716 
155276000     254.0478     295.8882    286.90714   -8.2749019    9.3412133    8.9810687    40.066787 
155280000    261.18023    294.94692     272.8438   -7.6971145    10.166799    22.103115    40.064374 
155284000    257.59167    308.33746     271.6344   -8.5616954    10.595215    36.703061    40.072458 
155288000    262.68228    318.17379    291.05945   -9.3551185    10.146162    27.114344    40.074757 
155292000    267.53903    327.57866    271.70293   -8.8585145    10.171845    55.875725    40.066122 
155296000    266.97298    299.75409    282.53726   -8.0103922    10.277682    17.216825    40.065431 
155300000    274.15177    351.40997    263.79637   -10.763247    10.777716    87.613601    40.076386 
155304000    259.43513     307.8154    268.63609   -8.2067623    11.249303    39.179309     40.07448 
155308000    260.85549    310.00771    300.39915    -9.026339    8.9680824    9.6085611    40.081121 
155312000    267.21238    327.17263    283.86183   -8.9098753    9.4553967    43.310803    40.082592 
155316000    260.86125    312.88505    290.12813    -8.866381    10.116343     22.75692    40.083807 
155320000    262.46056    319.83385     278.4362   -8.9282759    10.471543    41.397648    40.086717 
155324000    266.17723    342.55875    279.14079   -9.4956896    10.265498    63.417967    40.083794 
155328000    257.22113    336.70567     270.1862   -9.3152734    10.673333    66.519469    40.090573 
155332000    265.32446    326.61752    285.92329   -9.5507682    9.9735438    40.694229    40.089046 
155336000    268.47559    285.26356    320.52895   -7.6686223    8.1021819   -35.265396    40.086107 
155340000    264.55694    341.80386    256.94508   -9.5675304    10.333043    84.858777    40.083075 
155344000    263.14964    310.53375    274.72348   -7.1215888    9.0509122    35.810275    40.082161 
155348000    256.32923    307.54518    281.27885   -8.6577563    9.6986993    26.266327    40.082179 
155352000    257.81189    329.26048    263.41118   -9.1870498    10.890674    65.849298      40.0802 
155356000    262.94784     341.5228    276.63905   -9.8480091    9.9225521    64.883744    40.082048 
155360000    259.94878    307.79208    294.13552   -8.0490908    9.4455023    13.656556    40.081876 
155364000    255.81546    307.80999    264.88555   -8.0197735    10.234178    42.924437    40.080433 
155368000    273.49977    338.51165    282.17152   -9.8583522    9.8136234    56.340138     40.07927 
155372000    262.37397    318.62351    288.61977   -9.0363818    10.252947    30.003745    40.078034 
155376000    268.99277    318.27992    289.68448   -8.5198371    9.6781344    28.595438    40.077324 
155380000    260.93755    339.36101    267.67436   -9.3867611    10.734202    71.686651    40.084376 
155384000    257.56084    292.98817    281.87145   -7.9370115    10.052522    11.116715    40.080278 
155388000    257.76868     318.5575    264.90741   -8.8357233    10.295714     53.65009    40.080721 
155392000    263.80893    328.47651    274.45151   -9.1057049     11.36282    54.025006    40.075761 
155396000    260.27637    323.95333    283.84711   -10.282551    11.086469    40.106226    40.078347 
155400000    261.69724    338.49783    284.87502   -10.598924    11.554623     53.62281    40.076314 
155404000    267.49366    328.65017    281.38953    -10.51669    11.384641    47.260635    40.072028 
155408000     262.9489     319.6954    295.13143   -7.8634631    11.102301    24.563969    40.072817 
155412000    266.56975    318.08803    306.96407   -8.0038901    9.4978673    11.123961     40.06672 
155416000    260.62619    332.65493    273.38624   -9.5244301     11.66894    59.268687     40.07067 
155420000    267.33067    303.21738    298.47731    -10.29074    9.8486811     4.740074    40.075393 
155424000    262.04369    305.23173     275.2761   -9.5865026    11.016727    29.955628       40.078 
155428000    267.86867    346.70355    274.79451   -10.782475    11.499441    71.909039    40.074781 
155432000    266.93601     327.9672    276.91174   -10.745049    11.806379    51.055461    40.075962 
155436000    273.74047    341.68225    282.13736   -11.400841    10.374457    59.544886    40.078512 
155440000    269.31808    325.86347    290.34956   -10.851173    10.137273    35.513909    40.077654 
155444000    267.03898    315.91624    291.01559   -10.402775    9.5628809    24.900647    40.078105 
155448000    265.20612    326.04507    273.42345   -10.031744    9.8812558    52.621616    40.079322 
155452000    268.51747     308.9236    283.85437   -9.9182904    9.3894079    25.069229    40.086573 
155456000    265.49647    331.46927    262.55804   -10.485724    10.067815    68.911225    40.081755 
155460000    261.84005    310.72628    277.69138   -10.037402    9.2977025      33.0349    40.080702 
155464000    264.16197    329.54695    267.47687   -10.791155    9.0344063    62.070082    40.083976 
155468000    272.45501    300.59599     292.4447   -9.7183545    9.0447301     8.151291    40.082079 
155472000    267.49252    310.97466    292.16159   -9.3156182    8.5998643    18.813069    40.080102 
155476000    267.44167    323.52668    273.23133   -10.641842     9.272378    50.295359    40.085119 
155480000    272.12451    335.81612    271.98283   -10.981695    9.7537807    63.833291    40.080153 
155484000    268.98859    316.20262    287.45979   -10.933396    8.8370487    28.742832    40.075814 
155488000    270.37845    337.25958    267.97203   -9.8126072    9.6812054    69.287552    40.074846 
155492000    275.24784    332.67582    286.29703   -9.1506701    8.7295047    46.378789    40.077979 
155496000    265.85361    322.99202    278.19307   -10.500128     8.950294    44.798949    40.079016 
155500000    284.00664    351.42255     294.4486   -11.145526    7.8316222    56.973953    40.077336 
155504000    276.46386    332.02613    297.32626    -9.445477    8.0426162    34.699871    40.079167 
155508000    264.67716    320.25302    271.61502   -9.4909507    9.2931321    48.638004    40.073581 
155512000    258.33784    308.57453    257.33258   -10.117842    10.112883    51.241952    40.075649 
155516000    260.86554    308.64284     274.4277   -7.7860233    8.7507121    34.215144    40.074076 
155520000      269.812    333.51649    270.93716   -9.1896307    9.8301321    62.579326    40.072474 
155524000    275.88419     342.0079     301.3643   -9.9157028    7.5999796    40.643601    40.071256 
155528000    263.36136    322.46232    286.65876    -10.51408    7.5404525    35.803559    40.077389 
155532000    269.39056    325.66572    281.77146   -8.9131894    8.0710733    43.894263    40.076829 
155536000    269.61561    316.19358    280.77459   -8.6188404    7.8595916    35.418989    40.082783 
155540000    263.09293    290.63229    301.46233    -7.507857    7.7637218   -10.830039     40.08629 
155544000    271.49118    325.27606    266.57846   -9.5276763    8.8778544    58.697595    40.090659 
155548000    266.69392    308.96778     278.7424   -10.153601    8.0080877    30.225377     40.09091 
155552000    268.52499    341.64529    273.85021   -10.920725    8.6518423    67.795078    40.083526 
155556000      265.883    323.88493    271.79545   -9.7373266    8.2961954    52.089477    40.081751 
155560000     269.7937    323.40653     281.2873   -9.6543789    7.6373106    42.119235    40.084842 
155564000    264.88837    321.25969    288.70757   -9.1728096    7.6437554    32.552121    40.085023 
155568000    286.80712     348.1718    306.59996   -9.7982495    6.9041827    41.571837    40.086715 
155572000    266.63946    316.41954    279.00335   -9.4011198    7.7770234    37.416182    40.086577 
155576000    272.43152    311.76973    305.15189   -9.1647596    7.6028844    6.6178367    40.083396 
155580000    267.89163    315.44824    282.36056    -9.976878     8.703419    33.087683    40.085281 
155584000    270.63828    345.16244     288.9443   -9.9149012    9.0243405     56.21814    40.088586 
155588000    271.63746    323.71331    282.78815   -9.4083061    8.5899911    40.925162    40.092401 
155592000    262.84405    281.69191    295.94687   -8.9075125     7.041894   -14.254961    40.092656 
155596000    274.34043     313.0543    291.41692   -8.5466326    7.8857675    21.637375     40.09572 
155600000    260.18778    314.18995    279.08586   -10.273063    8.0911537    35.104089    40.094878 
155604000    272.11794    326.56264    285.24948   -8.5377003    8.2204066    41.313159    40.094599 
155608000    264.60224     301.5465     280.5624   -7.4716174    8.1804854    20.984096     40.09519 
155612000    276.39153    333.29482     293.0498   -10.016552    7.7380778    40.245022    40.090758 
155616000    265.26523    330.79929    264.10204   -9.2658861     7.989484    66.697248      40.0956 
155620000    271.03355    334.81252    283.13718   -10.789543    8.2478455    51.675339    40.088991 
155624000    265.15412    315.47999    261.89879   -9.1303475    9.6470272    53.581205    40.084388 
155628000    263.93818    337.59892    249.68252   -10.007037    10.099932    87.916399    40.090223 
155632000    267.85633    310.66496    275.14708   -9.4010265     8.859382    35.517875    40.092785 
155636000    276.74801     331.0725    289.90877   -10.268461    7.1476478    41.163737    40.093614 
155640000    271.56572    340.90955    263.18839    -11.09067    9.0654056    77.721159      40.0939 
155644000     270.7528    334.79955    287.65784   -10.251049    6.5642551    47.141715    40.096346 
155648000     270.0559    325.54382    275.41088    -9.826729    8.1384354    50.132935    40.097489 
155652000    272.33582    333.06326    275.63566   -10.369207     8.066221      57.4276    40.091187 
155656000    267.04646    316.54596    282.60752   -8.6733588    8.8099132    33.938446    40.095135 
155660000    259.14776    300.75054    281.18219   -7.8774531    8.9383224    19.568349    40.099581 
155664000    269.84543    322.96298    300.19891   -9.2113466    8.0716078    22.764063    40.098366 
155668000    263.39842    308.76957    290.23927   -9.5421177     8.741406    18.530303    40.098152 
155672000    276.48222    342.63326     280.5071   -9.1157345    6.6888465     62.12616     40.09942 
155676000    279.33998    327.99203    292.25347   -10.181423      8.49868    35.738559    40.101557 
155680000    259.56377    297.54782    265.27713   -8.7293772    10.026531    32.270689    40.103602 
155684000    269.56055    314.04807    278.61421   -7.9372199    9.5750496    35.433853    40.107777 
155688000    267.14924    306.41307    275.04103   -8.2473769    10.106594    31.372036    40.108572 
155692000    266.11855    310.98952    282.99307   -8.7456173    9.3396679    27.996451    40.110525 
155696000    266.98294     330.1952    260.01589   -8.5510289    9.5982185    70.179312    40.111622 
155700000    265.13307     313.3045    271.21337    -9.658616    9.5024981     42.09113    40.117086 
155704000    264.04483    334.84041     262.0453    -9.250215    8.7820902    72.795105    40.120952 
155708000    270.31371    347.29147    254.26869   -9.7929299    9.8920161    93.022787    40.119397 
155712000    267.81824    337.60736    263.59928   -10.001046    9.7654963    74.008079    40.118635 
155716000     265.0742    292.14961     291.2385   -7.7985204    7.8510446   0.91111239     40.11363 
155720000    265.71978    327.48865    293.07096   -10.233587     7.528085    34.417694    40.110257 
155724000    279.44455    328.03895      307.783   -9.9561354    7.0473249    20.255949    40.111774 
155728000    273.75637    300.73549    303.31314   -8.2492606    7.2385021   -2.5776552     40.11042 
155732000    267.57667    339.97731    260.77434   -9.0984231    9.2819653    79.202978    40.112014 
155736000    268.25058    324.14757    288.72423   -8.2132125     7.876026     35.42334    40.112673 
155740000    263.69818    317.79936    255.55047   -8.8069971    8.4849386    62.248885     40.10759 
155744000    260.10433    307.08893    267.12069   -8.1254719    9.9865052    39.968236    40.105846 
155748000    262.32338    317.74595    285.94445   -8.8933394    9.1707649    31.801502     40.10308 
155752000    265.44856    315.39421    290.11949   -9.4096666    9.2062355    25.274724     40.09944 
155756000     259.4848    299.04746    284.32131   -8.4740443     8.268018    14.726153    40.100886 
155760000    266.72951    341.22333    269.53203   -9.8638769    8.5218402    71.691306     40.10322 
155764000    269.64432    305.17764    297.72494   -8.7217933    8.6325372    7.4527014    40.104782 
155768000    269.61958    315.30157    269.01541    -8.214721    9.2043596    46.286157    40.105186 
155772000    267.95748    315.38552     285.5954    -9.060041      7.65937    29.790119     40.10352 
155776000    269.07483    327.52294    267.33701   -9.8842632    7.9004542    60.185937    40.104037 
155780000    271.32604    331.82702    268.60931   -10.129127     8.586974    63.217705    40.104973 
155784000    272.85236    331.44338    277.75659   -9.6393622    8.8371603    53.686793    40.111332 
155788000    265.35832     290.9306    284.52981   -7.5842066    8.4979076    6.4007911    40.105538 
155792000    265.86409    330.87209    276.10651   -8.7989871    8.9441145    54.765581    40.106722 
155796000    270.19637    336.49811     288.9706   -10.081794     8.648435    47.527509    40.108553 
155800000     259.0167    295.38457    276.59408   -7.7856221    9.2935696    18.790486    40.108441 
155804000    274.49484    321.40231    276.78386   -10.038911    9.3946251    44.618449    40.106733 
155808000     269.4306    313.25562    295.25886   -9.8535687    8.7678042    17.996754    40.107087 
155812000    264.89507    309.67966    278.04275   -9.4088493    9.2706426    31.636903    40.106862 
155816000    271.50604     334.4447    276.51693   -10.111609     8.971638    57.927769    40.102824 
155820000    264.79414    313.71755     271.9599   -9.4948235    9.8609179    41.757649         40.1 
155824000    260.89684    301.95829    291.36639   -8.7592012     9.792393    10.591892    40.100815 
155828000    270.10569    319.79125    298.87105   -9.4850191    10.051657    20.920205    40.097283 
155832000    275.38288    355.88442    282.31003   -9.9834022    10.889322    73.574389    40.095506 
155836000    267.11371    318.38296     278.8343    -9.345915    10.158339     39.54866    40.099579 
155840000    265.14172    301.65168    309.87658   -9.1711262    7.8933178   -8.2249041    40.099235 
155844000    271.88086    326.40677    285.10728   -10.263098    8.3495711    41.299489     40.10356 
155848000    264.70847    304.20263     277.2942   -8.5735587    9.2054505    26.908426    40.103284 
155852000    265.84877    329.79912    273.46618   -10.086537     9.644988     56.33294    40.107414 
155856000    273.07787     333.9281    290.03576    -10.94987    9.3417975    43.892344    40.108558 
155860000    266.79015    300.59156    290.01572    -9.431819    8.5249602    10.575832    40.110714 
155864000    262.81117    337.13567    261.96107   -11.547075    10.633747    75.174604    40.111132 
155868000    274.28191     332.1663     263.4634   -10.925911    9.8702942    68.702905    40.110638 
155872000    270.58952    323.95725    274.54477   -11.089937    9.2749986    49.412475    40.112547 
155876000    274.52211    341.21483    283.30677   -11.429166    8.5120378    57.908057    40.108824 
155880000    263.77928    329.44829    276.56113   -10.528562    10.240721    52.887162    40.111698 
155884000    257.56994    308.07666    256.61038   -9.6608535     9.966253    51.466279    40.109107 
155888000    268.35434    322.93404    274.64812   -11.529074    9.4114191    48.285916    40.105144 
155892000    265.94352    305.27997    275.40044   -10.486573    9.0506045    29.879531    40.109475 
155896000    264.04481    316.18836    270.27251   -9.8898657    9.5765013    45.915845    40.112584 
155900000    268.38558    312.01097    278.06226   -11.163019    10.027472    33.948703    40.118883 
155904000    275.30656     337.3487    290.03893   -12.168926    9.2558432    47.309766    40.120105 
155908000    272.72477    322.54573    277.92966   -11.623438    9.0921932    44.616076    40.118692 
155912000    275.01376     321.8837    290.92411   -10.914108    8.2874836    30.959593    40.120753 
155916000    269.71722    335.00039    284.56475   -11.943593     9.195098    50.435636    40.122152 
155920000    275.54175    342.54241    284.48071   -11.078314     8.750286    58.061702    40.122156 
155924000    267.29448    323.03179    289.44005   -10.522771    8.3778628    33.591748    40.122298 
155928000    271.02691    306.06704     286.8692   -9.9577088    8.7065729    19.197844    40.123772 
155932000    278.13966    347.78515    290.10508   -11.493629    9.0887254    57.680073    40.121648 
155936000    281.42551    339.18595    285.89208   -12.379982    8.8438093    53.293871    40.125759 
155940000    284.53181    345.78746    303.62646   -11.628496    7.6556873    42.161008    40.124667 
155944000    261.28916    284.98093    285.67129   -9.4562066    8.3725215  -0.69035434    40.121711 
155948000    269.31407    327.59283     275.2537   -11.271956    9.1129631    52.339127    40.124608 
155952000    265.09589    329.24578    261.82777    -10.86619    9.5534256    67.418015    40.123084 
155956000    266.67169    322.09857    266.66901   -10.743666    9.8897478    55.429564    40.126244 
155960000    278.95672    331.01998    288.40894    -11.14707    9.4707413    42.611035    40.128053 
155964000    269.41592     310.2249     276.0563   -9.7962054    9.3116363    34.168595    40.129409 
155968000    269.52814    314.79887    278.54527   -10.072997    9.2518719    36.253609    40.127288 
155972000    265.66638    300.34717    295.76959    -9.984178    8.6751413    4.5775867    40.120181 
155976000    266.33787    308.64647     267.9934   -10.017394    9.5690361    40.653066    40.118423 
155980000    273.50129    313.62439    283.11159   -10.210118    8.8994058    30.512803    40.118824 
155984000    261.60615    302.06523    265.69446   -10.073497    8.7021032     36.37077    40.116611 
155988000    273.88245    304.55832    309.60095   -9.6147112     7.679174   -5.0426283    40.118175 
155992000    276.80111    347.29202    275.77667   -10.773183    8.9866683    71.515348    40.115622 
155996000    269.73237    325.50653    273.62555   -9.6190398    9.0561222    51.880971    40.116937 
156000000     272.0698    313.44508    273.16655   -10.699276    9.9722835    40.278526    40.111714 
156004000    269.23835    295.91748    274.79889   -8.9663446    9.5205618    21.118594    40.108764 
156008000    276.94237     334.5108    280.79901   -11.074927    9.9126222    53.711791    40.109392 
156012000    273.82613    325.55773    270.12778   -10.620147    10.156316    55.429944    40.113523 
156016000    265.49893    310.56378    261.03484   -10.854496    9.3267477    49.528942    40.116133 
156020000    275.36672    340.39391    282.08079   -12.803779    9.5057299    58.313123    40.122106 
156024000    280.69994    335.24278    299.98897   -10.917323    7.9740132    35.253804    40.129492 
156028000    277.51236    327.38189    289.14253   -10.923964    8.8411233     38.23936     40.12783 
156032000    269.78209    306.85117    272.56944   -9.2468377    9.7872135    34.281724    40.129716 
156036000    271.97919    330.36866    275.74291   -10.730958    9.8614405    54.625749    40.128127 
156040000    270.79568    332.13734    272.18745   -10.242459    10.175278    59.949887    40.132761 
156044000    273.79038    331.00051    286.08653   -9.8975641     9.304511     44.91398    40.131651 
156048000    257.90304    313.00007    257.69618   -8.8441588     9.938002    55.303894    40.130195 
156052000    270.36064    334.40215     286.6797   -10.860863     9.682236    47.722447    40.130525 
156056000    268.66014    324.95498    286.95052   -10.142321    8.8437726    38.004456    40.126038 
156060000    267.31798    339.06887    278.06606   -11.493662    10.649744    61.002809     40.12973 
156064000    255.29985    299.83772    249.76288   -9.0485866    10.947805    50.074839    40.131572 
156068000    266.21611    336.59372    269.84014   -10.864948    10.866265    66.753576    40.131186 
156072000    275.23972    365.34397     280.1519   -13.875536    11.075567    85.192068    40.131438 
156076000    264.38744    319.32295    254.80205   -11.491437     11.35392    64.520906    40.127601 
156080000    285.81239    389.37334    275.75045   -12.578705    10.780999    113.62289    40.121651 
156084000    280.15908    351.80288     284.0283   -11.974366    10.236957    67.774584    40.125443 
156088000    262.72905    327.47709    263.47887   -10.352467     10.66765    63.998221    40.127321 
156092000    276.56033    329.42509    293.96921   -11.405169    9.9778012     35.45588    40.125253 
156096000    261.18793    310.18584    276.19466   -9.9612796    11.006218    33.991176    40.130114 
156100000    273.80934    323.25119    281.65935   -11.347952    10.614769    41.591831    40.126543 
156104000    278.37774    320.02679    293.78944   -11.450377    10.725757    26.237347    40.127393 
156108000    263.44235    318.08874    274.58974   -11.642545    10.870327    43.499007    40.122035 
156112000    271.88367    309.42591     293.6006   -10.701386    8.1416219    15.825301    40.119423 
156116000    266.69024    319.58669    267.92082   -11.858524    10.466897     51.66587    40.117893 
156120000    267.54402    309.69266    283.40791   -10.108117    10.091474    26.284754    40.114872 
156124000     273.1578    327.88209     279.0879   -10.925025    10.445332    48.794191     40.11132 
156128000    257.76918    300.88074    271.75112   -10.629908    10.622066    29.129619    40.115743 
156132000    270.55933    303.54594    296.72529   -10.327822    9.7645393    6.8206502    40.120969 
156136000    266.14815    310.80876    277.10675   -11.832215    10.520295    33.702005    40.116262 
156140000    272.88875    340.63041     282.8822   -12.456078    10.511594    57.748208    40.115447 
156144000    276.67379     331.4835    296.64638   -11.318486    9.5505544    34.837126    40.116847 
156148000    267.75501    321.01641    293.77515   -10.348254    10.682573    27.241263     40.11924 
156152000    266.40247    323.17944    257.31965   -10.337083    10.896175    65.859793    40.121923 
156156000    268.38169    326.81613    285.36479   -10.152906    10.172543    41.451339    40.120607 
156160000    265.92493    326.26317    266.19046   -10.774853    11.319341    60.072716    40.124413 
156164000     256.3503    301.92262    269.03264   -9.3670228     11.89222    32.889979    40.121373 
156168000    260.62844    298.42341    269.72884    -9.545441    10.675987    28.694566      40.1173 
156172000     259.2662    298.44676    269.23346   -9.5658013    11.162795    29.213302    40.113816 
156176000    274.56362    304.26663    306.66071   -10.955232    9.2757063   -2.3940758    40.109626 
156180000    284.39158    351.22001    291.98635   -11.997742    10.554798    59.233656    40.110187 
156184000    270.48295    321.92675    275.50766   -10.953089    11.929876    46.419095    40.111715 
156188000    265.42826    330.93851    284.50532   -12.735003    10.619282    46.433191     40.11444 
156192000    272.33792    330.75709      273.037   -12.910346    10.652746    57.720091    40.109921 
156196000    274.50646     334.6017    263.60248   -12.263974    12.221805    70.999225    40.106771 
156200000    268.54448    328.94298    273.10015   -11.369082    11.776805    55.842832    40.112185 
156204000    266.18403    329.54176    267.07853   -11.930233    11.814696    62.463232    40.113952 
156208000    267.03273    317.61991    289.43134   -10.727328    11.479081    28.188566    40.109554 
156212000    260.01148    296.99511    296.24739   -10.090585    9.7231329   0.74771787     40.11161 
156216000      268.258    325.80081    277.35891   -11.799374    10.741428    48.441897    40.107867 
156220000    269.18027    309.82211    304.57912   -12.083321    10.330196    5.2429879    40.106331 
156224000    265.73783    318.88168    272.35281    -11.86236    12.112197    46.528873    40.108125 
156228000    279.48162    328.15463    296.71595   -12.841844    10.430867    31.438675    40.107998 
156232000    261.78312    319.01022    283.92614   -11.491524    10.797643    35.084087    40.111032 
156236000    271.59354    316.43323    302.76929   -12.009635    9.6891554    13.663939     40.11715 
156240000    267.89177    336.63163    274.65686    -11.50099    10.421665    61.974769    40.118218 
156244000    262.04065    321.41194     258.9818   -11.110906     11.02417    62.430142    40.118961 
156248000    267.67271    322.00142    279.84604   -10.722608    10.629299    42.155379    40.123611 
156252000    259.57496    303.27684     277.9696   -9.8006305    10.075493    25.307234    40.122359 
156256000     262.6182    327.78106    267.81215   -10.842618    10.692254    59.968914    40.129201 
156260000    253.21253    309.58658    255.81093   -9.5772987    11.768403    53.775653    40.132455 
156264000    257.25636    330.60589     276.6555   -11.023354    11.469921    53.950391    40.137374 
156268000    263.23267    324.53422    279.11719   -10.352708    10.661347    45.417027    40.135933 
156272000    272.15083    332.04714    277.27031   -11.271817    11.213762    54.776828    40.135536 
156276000    260.23484    323.96547    270.56169   -11.229608    11.672618    53.403776    40.134233 
156280000    277.43542    356.42853    300.20219    -12.20676     10.75068    56.226344    40.134287 
156284000    266.23276    329.15546    275.38681   -11.468956    11.894668    53.768644    40.140676 
156288000    261.49075    304.50221    286.69861   -11.545524    9.8007695      17.8036    40.137807 
156292000    271.04755    330.78661    290.59687   -12.211483    10.833954    40.189738    40.135543 
156296000    265.45392    304.26155    274.13697   -11.796665     11.38955    30.124577    40.137995 
156300000    273.26453    318.18485    296.97837   -10.937654    8.9712888    21.206479    40.136384 
156304000    262.98334    297.43012    289.62406   -10.493655    11.068819    7.8060638     40.13571 
156308000    256.48581    310.45347    257.97532   -10.744714    12.083793    52.478148    40.134283 
156312000    269.86543    320.68074     283.2961   -12.452658    11.370261    37.384638    40.138343 
156316000    263.88097    318.50698    271.30881    -12.75466    11.604106     47.19817    40.137557 
156320000    273.70845    335.04588    265.98772   -13.864957    11.748488     69.05816    40.142276 
156324000     272.8295     304.0003    299.14751   -12.919246    11.308554    4.8527877    40.141559 
156328000     272.8248     318.0749     277.2286   -13.501783     12.41795    40.846295    40.138797 
156332000    272.57547    335.35017    270.46326   -14.522625      12.1469    64.886902    40.139232 
156336000    267.89653    285.83504    287.47555   -11.818797     10.59692   -1.6405094     40.13605 
156340000    272.66852    319.82799    294.96874    -12.18984    9.4184921    24.859252    40.130755 
156344000    270.25784    319.01463    267.61751   -13.296585     11.35704    51.397115    40.131313 
156348000    266.94956    353.37574    242.58846   -13.114852    12.557272    110.78728    40.130132 
156352000    269.53546    316.20011    270.53256   -11.637263    11.418907     45.66755    40.129512 
156356000    278.64281    335.39489    298.12261   -12.379329     10.56577    37.272283    40.128254 
156360000    272.39277     320.8707    289.58142   -12.031604    11.107497    31.289282    40.125957 
156364000     275.3478    339.86776    287.90744    -13.72215     11.08638    51.960323    40.129573 
156368000    268.20741     319.8789    282.23983   -11.340702    11.514606    37.639069    40.131133 
156372000    272.34597    328.66477    261.23702   -12.265226    12.134366     67.42776    40.129521 
156376000    268.56245    330.29557    257.58999   -12.879296    12.206371    72.705585    40.132599 
156380000    264.68507    311.82418    284.27297   -11.791141    10.777685    27.551215     40.13411 
156384000    276.87214    318.86295    287.37671   -11.726525    10.645578    31.486239    40.131688 
156388000    265.03643    316.38574    279.46449    -10.82698     10.09211    36.921254    40.132795 
156392000    269.82554     325.4637    284.86801   -11.602693    10.337199     40.59569    40.133253 
156396000    286.01666    347.50723    304.60185   -12.044618    9.8333324    42.905373    40.137007 
156400000    263.24823    288.76272    267.04019   -10.969813     11.52931    21.722525    40.136392 
156404000     266.1482    309.45624    279.93868   -11.355112     10.23681    29.517553    40.137127 
156408000    265.52728    314.06025    271.40351   -11.850885    10.860692    42.656738    40.138517 
156412000    272.25968    338.56364     270.9148   -11.607478    9.9703891    67.648843    40.139641 
156416000    270.88744    334.59254    278.84933   -11.117244    9.9824323    55.743207     40.13738 
156420000    272.48117    337.90615    299.68826   -12.305876    9.5442973    38.217886    40.135611 
156424000    263.65222    307.64071    271.02891    -10.54853    10.583755    36.611799     40.13795 
156428000    262.87231    321.91103    258.40732   -10.800885    11.862472     63.50371    40.136662 
156432000    285.20641     326.9363     317.4295   -11.926559    9.7093942    9.5067969     40.13425 
156436000     273.3737    341.48336     265.8397   -13.038145     12.09653    75.643661    40.136827 
156440000    263.56883    302.87841    288.35407   -12.230068    11.281194    14.524343    40.137632 
156444000    268.69307    312.92214    285.84757   -12.324339    10.064677    27.074565    40.129666 
156448000    270.95317    324.27811    268.04849   -12.636899    11.349328    56.229627    40.129565 
156452000    271.53046    324.54779    301.16833   -13.202677    10.355063    23.379452    40.131959 
156456000    266.07357    327.25234    256.59382   -13.772048    12.608677    70.658515    40.132427 
156460000    271.59611    335.21378     290.5171   -12.567162    11.956171    44.696689    40.135263 
156464000    273.46841    329.85128    283.63345   -12.487873    12.140333     46.21783    40.133763 
156468000    263.20367    295.48749    278.09627   -10.458548    11.750584    17.391221    40.132448 
156472000    273.42397    322.86868    293.79854   -12.797765    11.288252    29.070143    40.132827 
156476000    267.66571    336.65636    264.06642   -13.555907    12.353432     72.58994    40.129326 
156480000    272.09541    336.34756    269.16043   -13.573884    11.944765    67.187132    40.128439 
156484000    269.54133    324.28865    268.87126   -12.383798    12.173776    55.417393    40.124273 
156488000    268.38453    308.66009    271.72465   -10.782698    11.060379    36.935439    40.125128 
156492000    267.43945    337.64759    256.13887   -11.054151    11.121503    81.508719    40.126778 
156496000    270.71833    328.39064    284.42294    -10.70242    11.197093    43.967698    40.122139 
156500000    267.31433    303.74124      269.209   -11.805586    12.515258    34.532234    40.121277 
156504000    274.97154     307.9962    293.87874   -11.829062    10.705735    14.117466     40.11898 
156508000    281.79187    343.46024    298.86496   -12.244601    10.812884    44.595273    40.117498 
156512000    262.38417     296.9611    290.29212    -10.61992    11.229413    6.6689837    40.109615 
156516000    269.29767    330.74075    274.34465   -11.231848    12.393145    56.396096    40.112719 
156520000    270.38698    338.78135     282.1217   -11.556134    10.607399    56.659643    40.115183 
156524000    269.39704    310.83724    295.70195   -11.431465    11.940793    15.135295    40.118214 
156528000    265.94995    314.56232      280.402   -10.452184    12.594329    34.160319    40.120038 
156532000    262.33367     316.1321    260.69794   -11.208803    12.624934    55.434161    40.116713 
156536000    272.09437     325.9445    278.26974   -11.637691    12.869737    47.674758    40.116725 
156540000     262.5678    313.80271    272.09741   -11.285761    12.621223    41.705307    40.118983 
156544000     275.2272    352.15852    279.90988   -14.209809    11.861672    72.248645    40.115849 
156548000    265.27987    332.52386    272.12512   -14.038861    12.600578    60.398737    40.111494 
156552000    252.02219    305.20668    253.42515   -10.824398    14.081627    51.781532    40.112649 
156556000    271.00388    335.66014    283.12715   -13.455501    12.958689    52.532988    40.112157 
156560000    258.85986    303.23747    279.57487    -12.42816    12.202263      23.6626    40.106478 
156564000    268.35024    336.98755    271.55996   -12.885962    13.139794    65.427597     40.10584 
156568000    271.61461    342.88399    264.54666   -13.405854    12.151727    78.337326     40.10092 
156572000    268.75498    303.87122     290.0121   -12.641821    11.662735    13.859119    40.097647 
156576000    279.39355    324.52087    297.05288   -13.910975    12.007075    27.467997    40.101905 
156580000     265.3047    296.09169    291.51297   -12.104505    11.045869    4.5787223    40.102446 
156584000    267.59272    311.17849    289.71007   -12.743213    12.095631    21.468418    40.100373 
156588000    267.52159    319.10864    278.65139   -13.324252    12.303692    40.457256     40.10022 
156592000    266.98619    311.05988    265.83606     -12.2641    13.130613    45.223822    40.096679 
156596000    265.62596    320.54267    268.91007   -12.438629    12.547137    51.632593    40.097238 
156600000    262.98684    292.93943    300.16599   -12.018579    11.620036   -7.2265601     40.09791 
156604000    272.08312     317.3769    300.54426   -14.668948    11.226266    16.832641    40.100792 
156608000    267.45638    321.55119    299.37275   -12.670252     11.75337    22.178434    40.101427 
156612000    272.71324    354.87727    283.14289   -14.759058     12.54627    71.734378     40.09858 
156616000    260.23678    328.62248     275.9286   -13.500245    13.667154    52.693884    40.098375 
156620000    267.87982    321.03483     282.9485   -12.332154    14.383245    38.086325    40.098027 
156624000    273.47755     340.4765    278.42236   -13.466856    13.769901    62.054137    40.096405 
156628000    260.69266    315.04479      295.708    -12.39711    13.132494    19.336788    40.098916 
156632000    264.62644    330.55199    252.47952   -12.523679    13.872059    78.072471    40.098026 
156636000    262.78204    324.25896    269.28642   -13.768462    12.888547    54.972536    40.098042 
156640000    269.62575    318.64335    289.45247   -12.705266    11.466454    29.190879    40.102463 
156644000    260.70361    299.57523    271.47966   -12.372411    13.061378    28.095572    40.099976 
156648000    272.02462    327.05959    287.58881   -13.490441    11.645505     39.47078    40.102585 
156652000    274.66908    328.12073    281.71077   -13.458707    10.754436    46.409959    40.102487 
156656000    274.31734    330.84452    276.78035   -14.150161    12.099655    54.064163    40.100564 
156660000    268.41089    303.26294    290.68776   -12.074152    11.927148    12.575178    40.101309 
156664000    265.19026    316.74754    292.14072   -12.502559    11.402886    24.606817    40.100992 
156668000    268.70562    316.31233    269.94396   -12.209368    11.995644    46.368369    40.103267 
156672000    259.07996     325.3455    266.50749   -15.092192    11.568382    58.838018    40.106275 
156676000    267.09534    317.50688    282.00534    -12.57755     11.13142    35.501542    40.107699 
156680000    264.88232    312.55291    287.36069   -12.433997     11.31422    25.192218    40.106579 
156684000    271.24172    329.37813    292.78169   -13.491736    11.372388    36.596444    40.100746 
156688000    268.06095    315.00015    301.28804   -12.554664    11.206155     13.71211    40.101623 
156692000    265.46868    298.29019    284.88302   -11.516542    12.616102    13.407173    40.098791 
156696000    275.26039    328.82099    293.23514   -13.342152    11.969146    35.585849    40.098844 
156700000    262.40241    307.76161    293.28318   -12.473247    12.148232    14.478427    40.103627 
156704000    267.12834    337.98394    264.66765   -13.671186    12.977314    73.316289    40.106778 
156708000    252.77814    298.49417    267.24644   -12.251515     14.08619    31.247728    40.104024 
156712000    266.98724    308.47613    272.62323   -13.578981    13.568215    35.852899    40.099008 
156716000    262.09332    313.65339    278.57964     -14.1739    13.027675    35.073741    40.100178 
156720000    276.71674    322.19876    300.33778   -13.791203    12.935299     21.86098    40.096286 
156724000    267.93145    318.73666    275.34161   -14.050188    13.394995    43.395051    40.100055 
156728000    278.51549    350.99984    267.84485   -14.778264    14.340573    83.154996    40.098027 
156732000    265.69005    316.77135    278.08387   -13.788659    13.807089    38.687485    40.100559 
156736000    270.74109     324.2765    298.62267   -14.937305    14.037465    25.653822    40.103229 
156740000    266.95168    310.80394    287.44663   -13.409866    14.237549    23.357313    40.102349 
156744000    266.72895    329.32502    272.92109   -14.021039    13.984608    56.403923    40.101917 
156748000    266.54719    326.16326     280.2338   -13.721914    13.409872    45.929465    40.104381 
156752000    265.03298    314.34815     262.4698   -15.002689    14.541167    51.878353    40.099798 
156756000     261.4776    317.97978    281.83665   -14.127559    14.587292    36.143125    40.095595 
156760000    266.83055    314.64464    293.27829    -13.14975    14.173612    21.366342    40.096763 
156764000    262.89021     320.3817    271.68763   -13.745842    14.677539    48.694071    40.098791 
156768000    267.85905    309.83538    273.90494   -14.919671    14.530819    35.930441    40.099765 
156772000    284.49009    356.29684     299.0172   -15.947299    13.451056    57.279646    40.101111 
156776000      261.925    294.68345    271.27391   -13.531273    14.499615    23.409539    40.097233 
156780000    266.46501    302.09639    278.36167   -13.742934    13.379549    23.734721    40.096572 
156784000    257.50518      305.203    284.39014   -13.418717    13.827879    20.812868    40.094573 
156788000    264.49845    320.77225    268.87209    -14.72627    13.764571    51.900159    40.095919 
156792000     266.4012    345.71567     259.3887   -15.704699    14.321958    86.326968    40.098294 
156796000    264.92891    302.24608    289.87242   -14.273986    13.424131    12.373666    40.099997 
156800000    269.65304    334.22614    271.10859   -14.913805    14.776826    63.117552    40.100903 
156804000    257.15157    314.07567    256.72866   -13.331366    14.419153    57.347014    40.104076 
156808000     268.6586    310.41234    276.09949   -14.603636    13.619242    34.312847    40.101838 
156812000    263.15998      313.401    265.30896   -14.499779     13.79581    48.092037    40.101095 
156816000    270.51873    323.91241    276.98157   -14.189382    13.337012    46.930836    40.100661 
156820000    274.09254    327.47744    278.46957   -14.773181    12.365387     49.00787    40.101465 
156824000     269.8062    320.05823    281.88865    -13.63749    13.802497    38.169583     40.09973 
156828000    268.98748    340.57621    282.69978   -14.999715    12.429326     57.87643    40.102504 
156832000    267.93302    311.70714    265.50999   -13.702657    12.784546    46.197156     40.10314 
156836000    277.22876    356.26899    270.70296    -16.50449    13.588609    85.566033     40.10639 
156840000    259.95707    297.91708    276.48977   -14.480555    12.846022    21.427305    40.110137 
156844000     261.3172    299.85072    280.33683   -13.753135    12.251215    19.513889    40.110149 
156848000    266.04823    339.90549    264.58053   -13.923097    13.245788    75.324966    40.110733 
156852000    258.36166    294.84768    286.32655   -11.974555    13.822181    8.5211371    40.112568 
156856000    269.06542    328.79636    286.08322   -12.814045     12.99091     42.71314    40.109916 
156860000    254.59721    305.00947    248.84036   -12.970924    14.187159    56.169111     40.10974 
156864000    263.43456    320.07447    273.11705   -12.555922    13.641786    46.957418    40.111979 
156868000    268.34978    322.22589    279.07933   -14.020629    13.296041    43.146563    40.110487 
156872000    263.34134    316.16839     284.7126   -13.221867    13.558861    31.455798    40.110865 
156876000    260.41909    305.20033    266.11396   -12.709614    14.354883    39.086366    40.107172 
156880000    267.79516    329.66057    282.55414    -13.73237    13.889956    47.106426    40.108075 
156884000    275.50484    325.41372    287.70736   -13.625555    13.182446    37.706353    40.104843 
156888000    273.05927    332.31603    294.53221   -13.735566    12.600271    37.783812    40.101547 
156892000    259.89766    312.46057    271.30387   -13.472805    13.693515    41.156704    40.099141 
156896000    277.15049    341.60202    285.71992    -14.84809    12.469181    55.882097    40.100917 
156900000    273.66293    324.53231      292.996   -14.353882    13.017704     31.53631    40.102145 
156904000    277.73213     329.3136    296.02697   -15.047031    12.895003    33.286629    40.101466 
156908000    270.46983     316.2985    281.62481   -14.981745    12.709492    34.673695    40.096299 
156912000    270.18917    298.42647    300.91219   -13.622705    13.121085    -2.485717    40.095433 
156916000    275.03721    319.21331    296.07275   -14.116986    12.786587    23.140565     40.10004 
156920000    261.82878    309.44686     289.2705   -13.776837    13.320364    20.176369    40.100655 
156924000    260.83474    306.20893    268.94794   -13.583717    13.820603    37.260996    40.100894 
156928000     267.4102    304.13382    288.92314   -12.767927    12.650006    15.210676    40.099963 
156932000    263.70255     313.3446    269.44103   -12.485442     12.75649    43.903565    40.099698 
156936000    276.11043     361.8763    269.42932   -14.877447     13.35333    92.446985    40.105896 
156940000    274.85449    324.06951    305.09397   -14.134563    11.513476    18.975545    40.105821 
156944000    278.17852    338.60864    263.05367   -14.367633     14.23029    75.554977    40.104474 
156948000    267.36287    338.10655    276.83737   -15.025429    11.981249    61.269182    40.103654 
156952000    277.71309    333.69685    292.86058   -15.157281    13.084026    40.836272    40.099963 
156956000    257.72467    312.12227    265.17363   -13.219913    13.401195    46.948645    40.098032 
156960000    255.64361    317.19583    268.28948   -13.719919    13.380806    48.906348    40.100031 
156964000     258.3237    306.95235    261.04033    -13.14341    13.655221    45.912018    40.098048 
156968000    270.62174    351.57541    260.04865   -15.470664    14.579468    91.526762    40.100999 
156972000    275.41418    355.74118    272.47921   -15.252035    13.990146    83.261969    40.104385 
156976000    261.87545    325.10339    267.20895   -14.278484     13.87397     57.89444    40.102973 
156980000    260.47805     314.8037     267.7017   -13.717543    14.958974    47.101993    40.105394 
156984000    269.57555    340.23362    295.55362   -13.785094    14.040271    44.679994    40.106502 
156988000    250.31724    294.48124    273.47895    -11.81776    14.515072    21.002288    40.102242 
156992000    273.06542    345.58264     294.4227   -13.878137     13.86452    51.159943    40.104721 
156996000    270.10433    331.20882    280.98647      -14.382    13.560706    50.222348    40.109751 
157000000    262.87041    311.09939    297.81959   -12.767608    12.283578    13.279807     40.10768 
157004000    272.82982    346.80172    284.07256   -12.791415    13.451581    62.729159    40.107552 
157008000    253.25677    320.33555    248.89263   -12.120008    14.858532    71.442918    40.108758 
157012000    256.42672    313.97338    270.53972   -11.629992    14.699164    43.433657    40.108724 
157016000    257.20998    317.50996    270.52561   -12.144972     14.15084    46.984353    40.111974 
157020000      262.116     304.4789    287.25075   -11.390651    12.650388    17.228141    40.113191 
157024000    263.45867    331.85954    292.05182   -12.847558    13.448734    39.807718    40.108174 
157028000    250.74346     293.8508    271.28911   -11.598688    14.381306    22.561691    40.108026 
157032000    258.84071    325.91023    265.22729   -12.526632    13.929019    60.682942    40.110378 
157036000    257.12269    309.98285    279.55455   -12.335059    14.078215    30.428301    40.111057 
157040000     277.4952    346.47964    298.02859   -13.900743    13.353715    48.451051    40.111977 
157044000    264.64482    319.80974    291.55675   -13.277514    13.032722    28.252987    40.109546 
157048000    271.96128    319.69462    279.44806   -12.269202     13.80343    40.246566    40.112299 
157052000    266.88322     300.8861    291.36871   -12.621289    13.098569    9.5173931    40.114917 
157056000    269.02215    331.45692    280.47403   -12.968308    13.951335    50.982891    40.119516 
157060000    263.41306    317.61947    278.80216   -11.760078    13.930384    38.817316    40.117573 
157064000    265.51396    334.66867    287.64135   -13.965656    14.133811    47.027321    40.117761 
157068000    258.51528    310.03658    291.29831   -12.998842    13.672671     18.73827     40.11997 
157072000    263.72389    323.04126    277.80527   -13.197524    14.623612    45.235987    40.122509 
157076000    258.88603    303.53059    290.03642   -12.706444    14.015131     13.49417    40.124451 
157080000     262.0795      315.328    301.63613   -12.505602    14.263744    13.691868    40.121015 
157084000    268.93195    320.33532    297.01858   -12.556124    13.655526    23.316736    40.120453 
157088000    259.19779    319.30203    277.46589   -11.471809      13.9367     41.83614    40.116265 
157092000    252.67221    341.91875     260.1047   -13.409669    15.895718     81.81405    40.119213 
157096000    253.44447    291.55544    276.35249   -10.666871    13.989308    15.202954    40.124327 
157100000    262.73873     331.9414    294.54206   -11.982052    13.840656    37.399346    40.125002 
157104000    259.36791    318.89849    279.13345   -11.997845    13.440273    39.765033    40.128954 
157108000    257.19932    317.23792    284.95067   -12.269859    13.291858    32.287245    40.128795 
157112000    259.44899    326.56879    253.60341   -12.466615     14.31881    72.965382    40.132975 
157116000    256.18385    325.99052    257.68123   -12.482288     15.38634    68.309297     40.13218 
157120000    266.16216    337.78551    287.08741   -13.283667    13.881495    50.698102    40.134409 
157124000    256.69954    310.00871    285.62387    -11.81885    13.444736    24.384843    40.134379 
157128000    273.11819    372.63281    291.15089   -14.702283    14.092198     81.48192    40.134201 
157132000    274.34494      324.769    290.02278    -13.73175      13.5129    34.746217    40.131302 
157136000    264.08538    318.01151    274.14117    -13.37666    13.134868    43.870343    40.131134 
157140000    262.49631    305.67897    267.24092   -12.775589    13.335233    38.438045    40.130625 
157144000    267.30156    314.52021    282.88822   -13.154442    13.276786     31.63199    40.133595 
157148000     260.6799    308.46675    286.34303    -13.28082    13.228613    22.123728    40.135145 
157152000    259.69525    306.37819    278.79099   -12.976006    13.440366    27.587201    40.137401 
157156000    269.15217    313.44845    286.89757   -13.752753    12.847638     26.55088    40.137262 
157160000    270.50329    320.75297    299.71038   -13.028988    11.511188    21.042583    40.138664 
157164000    271.67348    330.62683    292.54022   -13.679603    12.573194    38.086614    40.138735 
157168000    269.32697    305.58788    294.73416    -13.22482    11.968656    10.853726    40.140486 
157172000    262.14359    312.34438    282.46073    -13.06929    12.776213     29.88365    40.144778 
157176000    266.22279    321.48009    270.52279   -12.554043    13.123215    50.957297    40.147493 
157180000    273.49943     304.3447    306.29096   -13.030311    10.838513   -1.9462541      40.1479 
157184000    271.73099    333.91638    296.81402   -13.933067    11.452388    37.102355    40.145662 
157188000    263.96652    316.01607    280.27204   -13.086073    13.126956    35.744029    40.150924 
157192000    267.90823    305.64338    296.31895    -11.65675    13.753835    9.3244362    40.149996 
157196000    254.68239    307.01335    283.04451   -12.800214    13.775623     23.96884    40.154412 
157200000     276.0132    332.71135    300.18199   -15.095785    12.969321    32.529358    40.149585 
157204000     269.1814    338.07478    276.07319   -14.219943    13.638511    62.001583     40.14976 
157208000    267.97354    308.97779    277.37914   -13.055866    13.950589    31.598651    40.151183 
157212000    270.14218    331.49586    276.76584   -14.334507    13.734557    54.730012    40.148219 
157216000    253.06899     306.3631    263.75258   -12.001613    14.935407     42.61052    40.147392 
157220000    272.40445    340.93541    290.13012   -13.627297    14.465205    50.805291    40.144402 
157224000    275.65136    329.16068    304.36907   -12.664607    12.044639    24.791609    40.149696 
157228000    255.05442    297.52087    259.14969   -12.473094    14.291796     38.37118    40.152612 
157232000    260.58865    301.91406    286.20872   -12.330665    12.675197    15.705343    40.151056 
157236000    260.30071    319.22922    266.34694   -13.152274     13.25123    52.882281    40.149453 
157240000    268.44699    326.78811     288.1991   -12.597465     13.04714    38.589016     40.14936 
157244000     277.8662     339.9105    292.99603   -13.059434    13.365312    46.914469    40.147692 
157248000     258.0156    305.33554    275.44043   -12.608349    14.032715     29.89511    40.146277 
157252000    272.27152    331.76418    288.87128   -13.320198    14.206031    42.892897    40.145782 
157256000    268.70536    334.35047     283.3491   -14.052472    14.558754    51.001371    40.143639 
157260000    258.42434     302.6702    267.20042   -14.303958    14.918398    35.469781    40.141189 
157264000     276.2589    332.84357    287.31684   -14.350922    13.673183    45.526732    40.144975 
157268000    272.96549    319.59632    285.40302   -14.130272    13.234474    34.193294    40.143119 
157272000    263.87815    329.39468    267.39977   -14.162089    14.223386    61.994901    40.141887 
157276000    272.83518    326.78633    280.85511   -14.511388    13.798644    45.931222    40.141009 
157280000    266.71024    291.05107     272.5745   -12.876852    14.295108    18.476571    40.140632 
157284000    267.20209    311.75151    278.45941   -12.174197    13.757707    33.292095    40.138816 
157288000     252.8308     325.8464    247.43589   -13.273903    14.731408    78.410508    40.136349 
157292000    273.49499    349.51066    285.08127    -14.05531    13.318709    64.429389    40.138229 
157296000    266.15445    322.81977    266.03721    -13.15559    13.143816     56.78256    40.135045 
157300000     267.5344    329.41505    288.50496   -13.628267    11.484864    40.910092    40.136125 
157304000    269.76019     326.4978    289.06626   -13.022992    12.818401    37.431543    40.138197 
157308000    260.37035     307.6828     272.7115   -11.529626    12.474212    34.971307    40.136602 
157312000    265.29802    319.61129    279.19484   -12.144411     12.44713    40.416445    40.136751 
157316000    270.57783    357.85845     289.2701   -14.479436     11.73521    68.588353    40.141474 
157320000    259.37398    289.63319    289.34475   -11.324078    12.637635   0.28843603    40.141981 
157324000     270.2177    339.75897    301.27322   -12.954739    11.798408    38.485755    40.143039 
157328000     268.7784     322.2204     292.9081   -12.932805    12.288822    29.312304    40.144181 
157332000    259.40724    295.02746    286.91617   -13.040789    12.622652    8.1112909     40.14149 
157336000    259.95562    315.91641    273.49071   -13.004938    13.869411    42.425701    40.142236 
157340000    281.56651    359.67161    282.59025   -14.449272    14.380082    77.081352    40.135027 
157344000    264.43235    321.86856    274.62983   -13.095787    13.747363    47.238727    40.135223 
157348000    254.89214    319.50419    259.35121   -13.335367    15.453681    60.152975    40.135414 
157352000    255.59817    298.79618    273.67155   -12.137293    15.587291    25.124631    40.137276 
157356000    268.51753    328.49888    287.96854   -12.326312    14.912487    40.530339    40.136778 
157360000    269.36063    341.46465    278.44373   -13.223174    14.057852    63.020917    40.138232 
157364000    257.58138    319.82599    247.46742   -13.893534    16.050386    72.358564    40.138422 
157368000    255.13346    332.16671    250.44375   -14.346048    15.647827     81.72296    40.139815 
157372000    257.28386    286.89285    288.35219   -11.704154    14.837905   -1.4593427    40.138335 
157376000    259.67117    302.57591    270.12114   -12.183249    15.288437    32.454768    40.137815 
157380000    263.44882    319.43927      292.118   -12.359296    14.529455    27.321268    40.139123 
157384000    263.79207    335.03605    283.32457   -13.116385    14.375232    51.711475    40.138144 
157388000    259.15991    323.34775    269.05676   -12.691092    14.437553    54.290985    40.140226 
157392000    262.74229    320.27636    299.90508   -12.637012    14.163271    20.371279    40.137194 
157396000    266.57883    325.67415    290.95266   -12.610724    14.865174    34.721488    40.139149 
157400000    267.07967    347.63714    278.76943   -13.791055     14.99975    68.867715     40.14227 
157404000    263.01361      319.801     290.6086   -12.229272    14.333637    29.192399    40.144122 
157408000    257.70023    304.72633     289.1369   -12.759425     12.88676    15.589429    40.142754 
157412000    257.93804    301.56159    280.08427    -11.73377    13.594503    21.477317    40.140039 
157416000    260.10257    309.62364    275.17247   -12.660951    14.139479    34.451163    40.142496 
157420000    264.82085    327.76037    285.62838    -12.73538    13.983368    42.131994    40.140232 
157424000    266.88924    341.33347    264.48079   -12.748453    14.392478    76.852674    40.139575 
157428000    255.39371     295.2607    292.32616   -11.044144    13.723154    2.9345428    40.140426 
157432000    254.89926    302.46561    275.64558   -11.317564    14.451346    26.820027    40.145276 
157436000    267.87183    340.81468    287.93502   -12.956704    12.949529    52.879655    40.144948 
157440000    256.86754    276.27401    291.88902   -12.105784    13.207657   -15.615003    40.144297 
157444000    253.59029     309.3477    285.61868   -13.100221    14.540405    23.729014    40.143722 
157448000    271.84482    330.44699    279.93174   -12.650293    14.314821    50.515254     40.14378 
157452000    264.18366    322.68111    279.27257     -13.9797    14.039409    43.408538     40.14456 
157456000    281.20274    345.56476    287.44718   -14.552916    13.614908    58.117579    40.140898 
157460000    272.50003    306.50452    309.78308   -13.508042    13.744493   -3.2785546    40.140768 
157464000    265.56279    323.31366    276.08542   -13.747447    13.190588    47.228237    40.141798 
157468000    263.07743    310.73783     271.8182   -13.405432    14.755012    38.919624    40.142077 
157472000    266.50691    332.49776      267.295   -15.356252    14.616482    65.202763    40.143893 
157476000    264.67711    347.60456    276.93714   -14.138674    14.111772    70.667421    40.143821 
157480000    265.82714    310.78771    298.16995   -12.437842    11.866141    12.617752    40.143056 
157484000    256.61017    307.84382    266.67794   -13.167017    13.527449     41.16588    40.143525 
157488000     265.3268    320.64368      271.048   -13.275319    14.284396    49.595679    40.144103 
157492000    271.99371    329.33018    287.29371   -14.599018    13.580369    42.036469    40.140724 
157496000    254.57533    308.08828    248.58014   -12.834135     14.85445    59.508136    40.139642 
157500000    252.56465    293.22927    274.69483   -12.957093    14.014271    18.534446     40.13924 
157504000    260.84421    313.23047    267.89101   -13.897712    14.574555    45.339459    40.138499 
157508000     263.7479     338.0595    273.64788    -14.21059    14.212722    64.411616     40.13925 
157512000    262.07846    318.02991    268.55922   -13.861227    13.680452    49.470689    40.139362 
157516000    270.03216    334.92199    265.21587   -14.773187    14.316805    69.706117    40.142773 
157520000    260.30947    310.16475    280.18948   -14.192913    14.115648    29.975276    40.141581 
157524000    257.94619    316.15507    277.23896   -13.026509    14.112049    38.916114    40.140226 
157528000    249.86082    292.58375    278.66668   -12.410072    14.117153    13.917072     40.14299 
157532000    260.33218    303.04813    273.61592   -12.787563    14.435704    29.432214    40.143186 
157536000    267.26095    325.07556    268.80942   -13.749924    14.715238    56.266142     40.14667 
157540000    265.56182     319.5328    278.54252   -13.432063    13.652234     40.99028    40.145042 
157544000     265.8709    363.89102    254.26974   -16.003776    15.140844    109.62128    40.144664 
157548000    266.99923    325.85459    292.40086   -14.247785    13.626141    33.453735    40.141211 
157552000    269.78188    347.48366    276.90502   -14.422234    14.102227    70.578637    40.140557 
157556000    260.09786    326.15863    261.23262   -14.242147    14.584975    64.926015    40.137349 
157560000    264.69924    306.38176    285.75332   -14.169513    13.802169    20.628443    40.137606 
157564000    270.20858    319.82344    297.98196   -14.497302    13.593848    21.841483    40.134364 
157568000    271.60047    326.23989    292.82832   -16.026199    13.281327    33.411577    40.130205 
157572000    283.25301    360.46702    284.82969   -15.334382    13.834387    75.637336    40.134481 
157576000    261.19986    314.08147    267.58855   -14.268001    14.693019    46.492924    40.135649 
157580000     272.3141    321.27071     310.3295   -13.253575    13.058863    10.941214    40.132982 
157584000    272.27001     333.0539    292.91948   -14.364562    12.936536     40.13442    40.132754 
157588000     271.2677    331.65542    286.18608   -14.839535    15.005712    45.469339    40.135914 
157592000    271.34136    330.67744    286.29483   -14.836463     13.93817    44.382609    40.133651 
157596000    269.72307    334.57334    283.53252   -14.549748    14.258933     51.04082    40.138393 
157600000    262.21805    299.61219      270.983   -12.089845    14.610747    28.629183    40.136415 
157604000    261.64634    303.39442    293.55443   -12.702642    12.640836    9.8399845    40.137748 
157608000    263.73126    293.16134    280.89629   -12.329587    13.623668    12.265048    40.135994 
157612000    266.38559    296.88231    294.79428   -11.743355    13.528349    2.0880288    40.136597 
157616000    262.49881    305.28895    258.77026   -12.977892    14.168601    46.518689    40.136487 
157620000    273.47738    339.69172    279.33886   -14.362483    14.170726    60.352861      40.1366 
157624000    267.06203    331.70712    292.30111   -13.660385    13.605885    39.406012    40.135414 
157628000    265.22806    304.02513    273.17704   -13.498931    13.879373    30.848085    40.134978 
157632000     272.0436     338.2212    273.39047   -15.569675    14.810427    64.830721    40.135201 
157636000    254.17574    300.62095    262.67294    -13.12552    15.351761    37.948009     40.13252 
157640000    264.08914    310.05441    274.90754   -13.461739    14.841682    35.146867    40.135061 
157644000    263.82317    303.42856    286.76992   -14.068254    13.498431    16.658645    40.133487 
157648000     273.2535    336.57763    293.78209   -15.156962    12.688691     42.79554    40.136076 
157652000    261.17327    325.11211    266.70509   -13.847773      15.1387    58.407015    40.136222 
157656000    265.79477    330.47645    284.97091   -13.586933    14.557173    45.505546    40.136299 
157660000    268.24803    331.02438    288.82377   -13.748146    14.656027    42.200608    40.136115 
157664000    268.67909    347.02677     282.6447   -15.725253    14.445382    64.382078    40.134477 
157668000    262.04675    321.26615    281.14573    -14.07466    13.326732    40.120418    40.133348 
157672000      259.958     300.1536      281.849   -14.442041    14.404134    18.304599    40.133742 
157676000      256.083    297.89634    269.14124   -13.344841    14.847135    28.755103    40.132814 
157680000    269.47699    324.03895    282.56206   -14.759775    14.896288    41.476888    40.134211 
157684000     256.6398    324.34369    263.89081   -13.165403    14.454208    60.452882    40.133669 
157688000    264.42051     311.6781    289.10923   -13.219439    13.774067    22.568868    40.135651 
157692000    257.73789    292.93241    275.45273   -12.279744    14.259454    17.479683    40.136021 
157696000     268.1001    343.47601    286.10482   -14.211717    14.931606    57.371191    40.133474 
157700000    260.37534    292.32415    289.71208   -11.864678    13.873937     2.612067    40.135966 
157704000    266.70484    313.64888    299.38651   -12.206027    14.212329    14.262373    40.133738 
157708000    267.90837     343.8455    278.91614   -14.481771    14.873732    64.929365    40.134191 
157712000    268.68898    321.36381    293.35143   -15.484789    14.470094    28.012382    40.135139 
157716000    268.38613     322.1386    280.32148   -14.196676    13.802506    41.817124    40.133905 
157720000    271.19083    326.95539    268.13426   -15.053384    15.331803    58.821134    40.132546 
157724000     265.3309    325.76546    260.73439   -15.444191    15.838413    65.031068    40.133433 
157728000    266.37001    313.23978    289.54182    -14.39124    13.866477     23.69796    40.131915 
157732000    269.11998    326.22188    293.27307   -15.272978     13.85185    32.948806    40.130302 
157736000    268.99481    346.35123    281.16521   -16.248832    15.223142    65.186016    40.132519 
157740000    260.01658    302.87914    286.50511   -14.686606    15.393548    16.374027      40.1282 
157744000    263.88709    314.61344    272.41697   -15.882662    14.458937    42.196471    40.130257 
157748000    271.94142    335.57111    269.80101   -14.801602    15.228974    65.770098    40.132072 
157752000    262.68038    309.92417    300.43255   -14.334843     13.52796    9.4916203    40.130447 
157756000    260.95916    302.19313    278.00874   -14.101441    15.057015    24.184383    40.131204 
157760000    261.16402    327.43837    259.39162   -15.664611    15.915853     68.04675     40.12764 
157764000     265.3321    327.61452    295.10401   -15.099915     14.38864     32.51051    40.123992 
157768000    265.91168    317.74254    280.22886    -15.06424    14.135337    37.513677    40.124091 
157772000    267.14449    317.54835    284.06561   -15.093393    14.907101    33.482744    40.125263 
157776000    263.76204    321.99549    271.12505    -14.30372     15.46236    50.870443    40.126149 
157780000    258.10069     308.8567    279.73702   -15.347687     15.18204    29.119681    40.126009 
157784000    256.74577     301.3046    261.05383   -14.588476    15.899334    40.250767    40.126455 
157788000    270.03945     313.9661    314.80729   -13.965105     12.45272  -0.84119157    40.128666 
157792000    258.13034    297.29634    268.05108   -13.190362    14.391234    29.245261    40.130139 
157796000    259.44794    317.76678    274.40596   -14.106632    13.542477    43.360819    40.132001 
157800000    269.41157     333.2353    284.67939   -14.527121    14.379848    48.555912    40.131287 
157804000    266.73636    334.52005    274.19692   -14.573846    14.504166    60.323128    40.132709 
157808000    265.80233    334.73498    282.25739   -13.853705    13.634667    52.477585    40.132404 
157812000    273.01347     336.0733    288.15005   -13.703273    13.921839    47.923252    40.138236 
157816000    265.97369    315.53429    293.83703   -12.721136    14.084506    21.697265    40.137703 
157820000    260.73916    312.07669    273.52341   -13.566512    14.568326    38.553283    40.134925 
157824000    257.46173    310.51766     263.6427   -14.229833    16.022708    46.874961    40.133429 
157828000    261.11002    338.48886    264.07359   -13.711465    16.467055     74.41526    40.132632 
157832000    263.41186    310.91718    292.48229   -12.974343    15.582073    18.434894    40.133111 
157836000    263.88095    339.23479    281.91749    -14.91538    15.567226    57.317304    40.133285 
157840000    266.56258    332.15405    292.18515   -14.789442     15.90191    39.968902    40.130534 
157844000    261.15042    310.09722    288.10329   -14.292811     15.43903    21.993934    40.129096 
157848000    259.12641    314.68744    284.55575   -12.275911    14.734213    30.131688    40.126578 
157852000    258.18034    321.72875    272.01007   -13.159376    16.659859    49.718675    40.126292 
157856000    260.21014    337.61259    274.22587   -15.104225    16.950303    63.386724    40.129678 
157860000    260.55953    316.55556     268.3436   -15.873043    16.876075     48.21196    40.129192 
157864000    258.29698    314.00971    276.99213   -16.389883    16.177112    37.017578    40.127396 
157868000    262.32815    316.27682    278.98589   -15.206614    15.491745    37.290928    40.125907 
157872000     259.4989      307.381    270.73784   -14.717704    15.850453    36.643158    40.120861 
157876000    264.47225    311.85464    293.18615   -14.303144    14.915811    18.668484    40.120134 
157880000    260.10665    326.67704    279.23015   -15.218657     16.10654    47.446892    40.121498 
157884000    261.51065    304.27502    283.05283   -14.468053    15.311571    21.222191    40.120886 
157888000    258.12611    314.29257    270.10037   -16.278597    15.959687    44.192207    40.121466 
157892000    270.34829    308.90752    285.80099   -15.009847    14.316926    23.106533    40.122313 
157896000    258.05953    326.26119    276.88798   -15.187956    15.367544    49.373211    40.121622 
157900000    252.49369    316.69201    256.79251   -15.066615    15.962256    59.899507    40.123896 
157904000    263.37647    326.54881    277.79274   -15.441548     16.40034    48.756071     40.12218 
157908000    271.66068    326.40015    294.38056   -15.538986    14.862262    32.019584     40.11887 
157912000    265.23478    325.51941    281.17698   -15.514607    15.733018    44.342433    40.117498 
157916000    264.63611      314.943    279.88104   -14.279392    14.552348    35.061967    40.118705 
157920000    271.20809     326.8238    292.88446   -15.817148    14.453391    33.939336    40.119861 
157924000    257.52264    305.93108    270.16042    -15.73401    16.096164    35.770656    40.119953 
157928000    260.37269    286.85737    276.38916   -13.831815    16.841874    10.468218    40.118861 
157932000    265.66276    300.60386    276.40444   -14.893446     16.43605    24.199415     40.12216 
157936000    278.08421    343.93505    303.62827   -17.651657    15.177473    40.306779    40.120711 
157940000    275.05433    350.32375    278.96945   -18.104933    16.313163    71.354299     40.11712 
157944000    261.84256    306.32329    277.30081   -15.667096    14.972533    29.022481    40.117925 
157948000    276.91322    333.46195    283.45006   -16.512471    15.454031    50.011885    40.120374 
157952000    261.89382     312.8057    277.70133   -15.333434    15.141801    35.104375    40.117664 
157956000    262.85954    330.53501    269.44273    -15.40291    15.658257    61.092279    40.118093 
157960000    267.61931    298.54485     289.9249   -15.066248    14.410329     8.619955    40.119598 
157964000    275.30232    323.73135    300.14629   -16.504561    14.832276    23.585066    40.119137 
157968000    259.04567     294.8326    268.64669   -16.825473    14.507962    26.185907    40.118009 
157972000    267.91133    322.68687    276.06732    -15.86036    13.941041    46.619552    40.119026 
157976000    259.01848    270.07992    266.29682   -14.069957    14.509204    3.7831014    40.120266 
157980000     274.3025    329.92008    292.81542   -16.276363    13.356623    37.104661    40.117855 
157984000    278.05128    334.85671    291.00836   -15.408211    14.265799     43.84835    40.112599 
157988000    273.51043    315.27801    295.93407    -16.14675    14.274997     19.34394    40.109634 
157992000     281.4187    345.68448    281.23121   -16.863211    13.788628    64.453271    40.111082 
157996000    259.82787    305.02891     269.4907   -14.656034    13.933433    35.538208    40.112838 
158000000    277.10631    334.92496    292.55314   -16.643207    13.468002    42.371823    40.114424 
158004000    271.86451    336.66214     261.3351   -16.133521    14.757101    75.327047    40.115672 
158008000    267.76038    313.02723    290.49913   -15.052606    13.640747    22.528101    40.113787 
158012000    264.13362    328.24685    279.72219   -16.013451    15.174255    48.524661    40.115504 
158016000    272.64329    335.89894    268.28378   -14.864234    14.794851     67.61517    40.113451 
158020000    275.04159    327.76165    281.32016   -14.636608    15.205022    46.441487    40.113314 
158024000    267.29419    312.55368    277.74015   -14.992613    14.654556    34.813525    40.111095 
158028000    268.99902    306.93738    277.03277   -14.278366    14.121196    29.904606    40.111925 
158032000    279.98214    323.85021     303.9331   -14.320535    13.934652    19.917113    40.108801 
158036000    269.82752     339.7951    276.22599   -15.049334    14.427437    63.569112    40.110443 
158040000    271.50696     314.1882    290.27209   -13.721196    13.538764    23.916103    40.107651 
158044000    261.92747    298.42954     276.7636   -13.875067    14.213346    21.665937    40.108614 
158048000    271.22247    305.17701    299.66274   -14.911011    12.982041    5.5142691    40.104579 
158052000    264.93915    333.32945    261.17986   -15.827052    15.162209    72.149588    40.104428 
158056000    271.85326    332.12831    274.36736   -15.607283    14.079146    57.760952      40.1035 
158060000    272.02047    345.37386    268.69807   -15.699705    15.276443    76.675792    40.106751 
158064000     265.8655    325.14865    282.72941   -15.312708    14.656734    42.419238    40.109584 
158068000    263.05205    311.08537    284.38434   -14.647915    15.476341    26.701029     40.11197 
158072000    251.37475    326.04858     242.3687   -14.994497     16.09985    83.679884    40.114137 
158076000    264.51294    330.45275    273.09406   -14.600613    15.594401    57.358695    40.116377 
158080000    263.61829     310.6451    284.27795   -14.420095    14.921483    26.367143    40.113344 
158084000    271.83701    313.87243    296.18598   -14.560393    15.183491    17.686458    40.114633 
158088000    266.58629    316.01817    283.21191   -14.696608    14.893431    32.806265    40.112076 
158092000    263.70693    319.86713    250.47498   -13.439887    15.537108    69.392152    40.117247 
158096000    257.16666    317.59374    266.77315   -15.245945    16.612666    50.820591    40.116259 
158100000    270.15422    355.10674    280.87182   -16.505479    15.227246    74.234919    40.114217 
158104000    262.23452    290.14298    282.76289   -13.084489    15.118324    7.3800886    40.113807 
158108000    262.05837    326.15192     261.4569   -15.564104    15.615704    64.695015    40.110927 
158112000    272.07419    335.44541    277.13644    -16.76925    15.561375    58.308977    40.113111 
158116000    261.33726    313.12623    281.06436    -15.70212    14.996035    32.061871    40.111066 
158120000    269.20684    308.01889    297.51201   -14.972811    14.759814    10.506877    40.111502 
158124000    264.53783     304.3472    292.78607   -14.452483    14.116638    11.561136    40.112829 
158128000    269.97823    322.72889    288.35216   -15.878582    15.011483    34.376723    40.111635 
158132000    270.60037    345.40916    279.32178   -17.380791    15.889368    66.087374    40.110271 
158136000     266.1357    337.92726    266.01546   -16.622665    16.773611    71.911805    40.111744 
158140000    265.26104    318.11194    279.21261   -16.045923    16.023396    38.899329     40.11119 
158144000    267.49554    304.18299    277.68376   -15.570585    15.912513    26.499236    40.113339 
158148000    273.27486    315.59625    312.89624   -15.600534    15.214066    2.7000118    40.115869 
158152000    281.58453    360.00417     283.7962    -16.78457    15.482336    76.207969    40.116024 
158156000    277.93147    313.76628    301.83166   -15.367362    15.517664    11.934619     40.11524 
158160000    272.88996    326.40589    296.35118   -15.460695    14.730158    30.054704    40.113016 
158164000    257.30862    314.42012     279.4327   -14.992848    15.919369    34.987423    40.114426 
158168000    266.80061    316.97524    277.24944   -14.879799    15.726688    39.725795    40.117043 
158172000    265.70677    327.53479    282.02143    -15.30143    16.130939    45.513368    40.116109 
158176000    265.54519    311.50868    302.10485   -14.519633    14.979687    9.4038235     40.11676 
158180000     267.1494    337.28326    288.49946    -16.09519    13.936409    48.783805    40.116134 
158184000    274.71923    317.02378    316.68519   -14.159519    13.955215    0.3385838    40.111913 
158188000    280.78196    333.44119    297.97243    -16.96113     13.93167    35.468762    40.109242 
158192000    278.63622    326.11062    295.80886   -16.255881    14.421458    30.301761     40.11069 
158196000    270.33449    326.86715    275.77446   -15.805862    14.313964    51.092691     40.11403 
158200000    270.80626     316.4484    296.83221   -16.071908     14.04399    19.616189    40.115368 
158204000    257.17855     307.1804    281.55315   -15.713968    14.637193    25.627257    40.114287 
158208000    260.48674    314.13271    262.96372   -15.305245     15.07443    51.168997    40.115549 
158212000    259.22335    305.20021    274.05375   -13.823518    14.508881     31.14646     40.11397 
158216000    267.84407    331.29837    286.44046   -14.722965    14.658629    44.857916    40.116659 
158220000    255.87041    318.05215    259.73424    -14.51972    15.611608    58.317912     40.11646 
158224000    268.10653    315.11534    274.41012   -13.922662    15.580344    40.705228     40.11667 
158228000    264.16114    314.00623    269.97422   -15.242039    15.670367    44.032008    40.113801 
158232000    257.77024      299.834    275.62699    -14.25748    15.948911    24.207009    40.109604 
158236000    265.76055    335.22396    277.99791   -14.709103    15.897663     57.22606    40.110845 
158240000    263.75151    308.82416    299.45773   -13.168682    16.037244    9.3664251    40.112804 
158244000    254.57752    313.11075     277.5195   -13.444607     15.70736    35.591249    40.113388 
158248000    258.97746    327.15267    269.82085   -13.595883    16.463492     57.33182    40.117915 
158252000     264.0482    341.98311    290.69927   -14.621717    16.376505     51.28384    40.116695 
158256000    258.05718    335.73693    268.01615    -14.13429    17.468574    67.720784    40.116882 
158260000    250.08057    312.76167    265.51889   -13.619408    16.998664    47.242779    40.117931 
158264000    266.36555    338.00797    254.95528   -15.336333    16.877534    83.052689    40.116962 
158268000    255.37215    328.77864    257.84211    -15.70128    17.251163     70.93653    40.117468 
158272000    267.03344    324.06665    285.91718   -15.366547    15.875326    38.149468    40.116755 
158276000     262.6075    326.67972    274.88871   -15.999152    16.233717    51.791014    40.117586 
158280000    262.64089    311.90567    277.39838   -14.970594    16.488886    34.507289    40.118531 
158284000    263.57401    350.95029    287.70275   -15.375338    15.948804     63.24754    40.116507 
158288000    260.41954     311.9803    285.04496   -14.674336    16.188179    26.935334    40.118979 
158292000    267.16428    319.98298    300.17771   -16.024288    14.257341    19.805269    40.118555 
158296000    253.83681    297.03904    272.12694   -15.112276    17.146457    24.912101    40.119617 
158300000     264.8409    335.60148    261.57057   -15.589253    16.015577    74.030908    40.123916 
158304000    270.49119    313.14933    308.34754   -14.121429    15.172266    4.8017963    40.126853 
158308000    275.11004    357.63972    286.84032   -16.198715    15.526926    70.799401    40.126695 
158312000    267.24332    322.49128     299.9174   -15.251294     15.11434    22.573886    40.124698 
158316000    265.43696     317.2635    298.49817   -14.013544    15.760413    18.765333    40.123898 
158320000    264.78536    322.26676    286.47273   -15.669576    16.757601    35.794031    40.126366 
158324000    256.69932     320.0726    264.07505   -16.208639    18.066361    55.997545    40.122221 
158328000    252.87748     316.6246     239.6126   -14.455466    17.975616    77.011999    40.123683 
158332000    260.15748    327.01896    252.35281   -15.775444    17.263206    74.666151    40.126424 
158336000    265.75687    316.09232    277.07919   -14.194185    17.068508    39.013133    40.129178 
158340000    265.96136    324.84139     274.4025   -13.841146    16.513071    50.438891    40.128135 
158344000    268.57463    327.33898    295.05018   -15.235044    15.980582    32.288799    40.129022 
158348000     264.2412    320.98225    301.31146   -16.727686    15.316045    19.670795    40.130471 
158352000    255.32497    304.67685    279.38108   -14.527834    15.017381    25.295768    40.130396 
158356000    270.55876    339.40949    277.30983   -15.236576    15.620235    62.099665    40.130569 
158360000    266.54507     315.9357    285.76246   -16.181402    16.173949    30.173238    40.131011 
158364000    268.74669    324.71812    275.71475   -16.376342    17.596535    49.003371    40.131721 
158368000    269.74071    337.11953    279.56509   -15.466256    15.965391    57.554447    40.132112 
158372000    267.22835    308.56296    274.10997   -15.508137     16.56913    34.452982    40.132743 
158376000    265.43855    320.61644    273.81898   -16.461334     17.06737    46.797458    40.131606 
158380000    266.01343    319.19814    287.11895   -16.542776    16.520352    32.079194    40.128344 
158384000    259.91179    298.00987    263.41991    -14.72244    17.629509    34.589953    40.125644 
158388000    278.14931    369.44687    288.65546   -17.990393    15.476966    80.791408    40.124794 
158392000    272.12401    334.82676    275.36435   -17.095873    16.052622    59.462406    40.126964 
158396000    274.70191    338.88464    299.39173   -16.781388    14.759082    39.492914    40.128718 
158400000    273.78829    313.74019    269.46394   -15.668604    15.421976    44.276245     40.12807 
158404000    269.25813    332.67662    275.80116   -16.574057    14.736718    56.875461    40.129649 
158408000    279.20885      322.247    316.26385   -17.662801    14.191462    5.9831485    40.131116 
158412000    277.37158    333.58907    290.75826   -16.376353    14.711098    42.830812    40.133725 
158416000    267.91048    311.61114    282.98338    -15.47094    15.776269    28.627758     40.13668 
158420000    262.89104    297.72091    286.74527   -14.934708    16.202248    10.975642     40.13552 
158424000    268.96195    341.10274    272.12463   -17.487214    16.264184     68.97811    40.134876 
158428000    266.19301    327.36283    269.00822   -17.062333    15.115762    58.354605    40.132504 
158432000    271.78196    329.68296    291.94835   -17.259961    15.492735     37.73461    40.129451 
158436000    278.18552    339.98045    291.20199   -17.413742    15.245283    48.778458    40.131154 
158440000    262.40823    308.18713    282.88583    -16.85277    16.893718    25.301308    40.132574 
158444000    269.70954    321.86356    289.52503   -16.829779    15.800727    32.338526    40.133624 
158448000    257.89094    293.15818    264.85502   -15.005566    16.215363    28.303161    40.136274 
158452000    260.35174    315.95651    268.78208   -16.208451    16.795276    47.174429    40.132431 
158456000    272.52324    358.83902    276.66968   -16.792084    15.234184    82.169344    40.132201 
158460000    275.55119    312.76289    300.18745    -15.34515    15.000531     12.57544    40.131987 
158464000    270.83926    333.70455    276.21115   -16.578942    16.246551    57.493401    40.132624 
158468000    266.52449    326.62307    267.41894   -16.288685     16.16026    59.204129    40.131494 
158472000     274.5135    331.37925    307.14591    -15.98896    14.946235    24.233336    40.128931 
158476000     271.4599    344.20235    273.46424    -16.56925    16.511038    70.738106    40.126442 
158480000    268.58659    347.49256     271.1342   -16.061618    16.771594    76.358359    40.128432 
158484000    268.29476    325.35145    276.48125    -14.72568    16.262217    48.870206    40.130246 
158488000    262.70545    340.78497    261.91285   -16.879988    16.743208    78.872125    40.132127 
158492000    266.59232    330.91702    271.74358   -16.309924    16.040416    59.173442    40.133371 
158496000    271.74929    349.53249    280.33175   -16.766995    14.976993    69.200739    40.135515 
158500000    255.67384     313.8582    272.02836   -14.336753    15.522688    41.829843    40.139467 
158504000     268.9332     339.2498    286.07171   -14.980613    14.608987     53.17809    40.136898 
158508000    254.70209    309.03497    253.49009   -13.841764    15.549155    55.544878    40.136794 
158512000    270.84438    333.18914    281.64045   -15.067123    14.073574    51.548695    40.138458 
158516000    261.49948    335.95722    256.89521   -14.842897    16.312964    79.062003    40.138964 
158520000    272.95038    325.96176    295.39097   -15.277989    14.104339    30.570798    40.139315 
158524000    264.05032    303.85002    299.16567   -13.963617     13.32982    4.6843473    40.135274 
158528000    280.95357    351.43209    311.30999   -15.447078    13.089288    40.122099    40.136481 
158532000    267.73298    322.39063    286.00561   -13.938536    15.536954    36.385021    40.134555 
158536000    262.05564    315.32634    282.76173   -14.630355    15.560292    32.564608    40.134915 
158540000    261.83183    306.00523    289.05792   -14.265208     14.94791    16.947316     40.13297 
158544000    256.29917    311.33907    275.69184   -14.765418    15.728773    35.647228    40.131535 
158548000    267.18895    344.98894    278.28033   -16.510464    15.734927    66.708605     40.12828 
158552000     263.1692    334.05165    286.75973   -15.629556    15.161124    47.291918    40.129104 
158556000    246.82154    294.30926    257.01309   -13.762329    17.071961    37.296169    40.129196 
158560000    265.92112    315.56496    290.17045   -15.734652    15.096753    25.394501     40.12716 
158564000    276.07804     344.0944    299.33185   -15.032081    14.259756    44.762551    40.130837 
158568000    254.97916    308.02069    269.97512   -13.436235    16.288731    38.045575     40.12845 
158572000     268.0159    340.05462    270.42843   -15.038521    15.796529    69.626189    40.128389 
158576000    264.18878    311.00692    291.39844   -14.390037    14.717529    19.608479    40.130323 
158580000    268.82534    316.66358    286.93474   -13.854063    14.144113    29.728844    40.132597 
158584000    267.34827     341.7312    261.55147   -14.128966    14.953629    80.179734    40.133408 
158588000    255.87534    322.09519    263.32237   -13.266697    15.871999     58.77282    40.130479 
158592000    264.79576    309.73429    276.82904   -13.626566    15.113441     32.90525    40.129363 
158596000    269.64724    335.95272    284.23297   -14.869042    15.348453    51.719747    40.129151 
158600000    269.67594    353.19427    270.06152   -14.482867    14.887262     83.13275    40.131485 
158604000    265.08256    321.44215    292.14497   -14.121259    13.938571    29.297184    40.134844 
158608000      246.993    301.01922    249.28707   -13.928592    15.856462    51.732155    40.136868 
158612000    266.35402    320.19257    290.40623   -13.539102    14.229294    29.786339     40.13789 
158616000    270.71781    322.84657    294.57017   -14.090399    15.476036    28.276397    40.139084 
158620000    265.57784    310.23375    277.23683   -14.015073    15.160298     32.99692    40.136217 
158624000    257.89785    328.84864    270.99673   -14.727235    15.405963    57.851904     40.13801 
158628000    265.89406     317.8465    297.06614   -13.314872    15.077467    20.780368    40.136276 
158632000    271.32525    331.90848    285.35656   -14.244583     14.92298    46.551921    40.136743 
158636000    272.90097    367.50972    294.18849    -16.20253    15.648789    73.321231     40.13565 
158640000    255.86009    323.09546    269.70307   -13.890383    16.145554    53.392389    40.134546 
158644000     263.4904    331.11836    270.41583   -15.787805    16.834925    60.702526    40.134526 
158648000    263.51309    313.76936    290.46419   -14.430413     15.92736    23.305168    40.133735 
158652000    259.70909    297.95167    299.12721   -15.200261    14.683679   -1.1755398    40.129165 
158656000    259.82025     311.1883    283.61506      -15.324    14.867716    27.573245    40.130679 
158660000     263.4768     318.4594    298.74324   -14.086367    15.388162    19.716157     40.13134 
158664000    252.75314    294.42384    271.23823   -12.932707    15.009965    23.185613    40.132382 
158668000      269.242    342.58078    280.45787   -14.881383    15.229523    62.122911    40.132339 
158672000    254.06448    296.35013    291.87261   -12.908912    14.498527    4.4775239    40.127636 
158676000    255.06071    304.80443    268.29793   -13.848912    16.426848    36.506499    40.129417 
158680000    261.54768    323.06347    276.46268   -15.016559    16.075342    46.600787     40.12938 
158684000    261.51622    327.32938    298.11282   -14.323012    15.113609    29.216557     40.13077 
158688000    265.84968    332.93524     274.0993   -14.719726    15.323105    58.835939    40.131372 
158692000    256.48276    309.46557    283.35529   -13.192524    15.821458    26.110286      40.1318 
158696000    260.22574    320.26297     270.7073   -13.674664     16.25528    49.555666    40.132128 
158700000    259.59882    329.17567    274.08273   -14.712537    15.177452     55.09294    40.130836 
158704000    270.63099    325.63925    286.86787   -13.945541    15.299464     38.77138    40.128125 
158708000    253.18394    313.26212    257.12065   -14.392126    16.193393    56.141469    40.126447 
158712000    266.93442    343.61588    290.69126   -14.890254    15.100045     52.92462    40.125586 
158716000    268.08248    323.13685     288.2688   -13.928891    15.535425    34.868049    40.127478 
158720000    261.27173    302.99139    283.61546   -11.932105    16.509376    19.375934    40.128023 
158724000     278.5782    347.57604     300.8194   -15.602234    14.924972    46.756638    40.126687 
158728000    269.27582    326.26204    313.15138   -14.792836    14.678655     13.11065    40.125905 
158732000    261.31632    325.60198    281.35035   -14.662203    16.042567    44.251631    40.125318 
158736000    264.74641    321.07676    288.79316   -14.086735    15.639667      32.2836    40.124047 
158740000    254.48269    336.30633    264.71413   -14.064034    16.116401    71.592197     40.12471 
158744000    265.13159    331.29616    288.73028   -13.960168    15.729798    42.565874    40.127579 
158748000    262.67918    306.46194    283.94976   -14.563826    15.705104    22.512177    40.125443 
158752000     264.1304    321.69793    287.64957   -13.734828    15.538916    34.048355    40.123482 
158756000    262.11577    316.51981    278.36489   -13.213176    15.594119    38.154922    40.126926 
158760000    261.36162    341.35818    275.36085   -14.580803    15.190304    65.997337    40.126089 
158764000    260.40659    330.53597    272.03225   -14.806303    15.655527    58.503711    40.124559 
158768000    264.63388    316.46188    307.19866     -14.9761    14.536654     9.263221    40.123516 
158772000    256.03888    288.08968     284.3499   -12.784872    15.499649    3.7397814    40.123147 
158776000    267.28344     332.4887    276.91632   -15.053693     15.96108    55.572381    40.124609 
158780000     262.8555    315.95644    280.19677   -13.252088    14.948367    35.759669    40.121868 
158784000    265.43922    332.01266    284.88232   -13.562163    14.219181    47.130331    40.123729 
158788000    252.68697    309.85045     252.8589   -14.146786     16.00404    56.991549     40.12309 
158792000    272.58576    336.13933    298.94551   -15.709111    14.734377    37.193815     40.12308 
158796000    264.13066    324.01519    269.95647   -15.609654    15.138744    54.058723    40.125661 
158800000    263.49547     325.6581    280.56933   -15.731068    14.744215    45.088773    40.123353 
158804000     264.5899     319.0461    279.91913   -15.490889    15.908952    39.126976    40.123078 
158808000    262.54504    301.78011    278.34495   -14.762327    15.555604    23.435156    40.121476 
158812000    260.42865    306.55641     279.7004   -15.317758    16.771174    26.856007    40.122556 
158816000    280.33791    309.90777    305.38681   -16.157841    14.957025    4.5209598    40.120579 
158820000    274.32322    331.46681    272.82657   -16.938783    16.025424    58.640235    40.118026 
158824000    271.27369    314.64182    293.39774   -16.299691    14.620784     21.24408    40.117371 
158828000    270.06141     325.8766     272.7278   -16.460504    15.300096    53.148794    40.116084 
158832000    262.95583    307.02016    271.05506   -15.786514    15.816508      35.9651    40.117033 
158836000    254.40277    297.48215    273.15646   -15.757606    14.923454    24.325692     40.11574 
158840000    268.37715    292.24002    291.40403   -16.162748    15.658614   0.83598533    40.114456 
158844000    263.96072    315.63031    268.48102   -15.915074     16.00929    47.149289     40.11539 
158848000    270.90229    319.18907     299.6262   -16.232952     15.39496    19.562869    40.113725 
158852000    272.33496    310.53817    284.34893   -16.536612    15.812124    26.189239    40.113458 
158856000    273.47547    311.52841    295.20997   -16.009375    14.177098    16.318436    40.112171 
158860000    262.70862    309.08196    279.38541   -15.458656    16.043583    29.696555    40.112848 
158864000    269.58783    304.98413    290.82415   -16.280784    15.907449     14.15998    40.111761 
158868000    272.72325    309.30572    310.17706   -15.224936    13.782739  -0.87133602    40.110426 
158872000    266.19908    315.23847    273.12544   -15.527091    16.001766    42.113029    40.109071 
158876000    271.15187    318.24684    278.68733   -15.341974    15.475374    39.559509    40.111556 
158880000    280.93273    334.05892    320.40674   -17.217502    13.721645    13.652183    40.110726 
158884000    271.94274    339.00972    279.22829   -17.143968    14.652374    59.781429     40.11149 
158888000    265.61255    324.08581    274.38476   -16.143007    15.736077    49.701048    40.111261 
158892000    265.94628    330.40546    282.52137   -16.412436    15.447704    47.884088    40.112814 
158896000    273.17083    325.32784    286.89415   -16.309488    14.708476    38.433692     40.11204 
158900000    259.44547    318.35933    261.29999   -16.614588    16.367917    57.059341    40.109892 
158904000    264.89224    320.03967    266.56962   -17.274514    15.485344    53.470053    40.105538 
158908000     271.6838    321.79854    281.32744    -14.94222    15.378343    40.471095    40.105014 
158912000    267.97483    313.58363    277.03375   -15.263778    16.646689    36.549881    40.104487 
158916000    266.94863    305.32236    282.23409   -15.472865    16.005335    23.088271    40.105462 
158920000    272.89727    333.22645    283.31276   -16.871452    15.380774    49.913691    40.106162 
158924000    274.38242    331.59968    284.75102   -15.840969    15.973252     46.84866    40.105365 
158928000    265.16964    312.30959    273.45058   -15.572215    15.510879    38.859013     40.10314 
158932000    261.77686    304.69442    285.61507   -15.263702    15.249862    19.079351    40.104062 
158936000    271.57434    320.98169    286.72938   -16.326223    14.948012    34.252302    40.100587 
158940000    274.05767    321.66517    275.73713    -16.48201    16.279348    45.928043    40.101038 
158944000    266.44743     307.5882    265.97687   -16.580058    16.106728    41.611338    40.101494 
158948000    275.60961    337.87882    284.13038   -16.892374    14.904161    53.748445    40.101553 
158952000    272.94217    325.40674    278.86005    -17.11487    14.954226     46.54669    40.104225 
158956000    269.93031    328.03919    261.28021   -17.815474    15.748102    66.758983    40.103628 
158960000    267.20668    321.34344     263.2689    -16.98726    15.340627    58.074547    40.104691 
158964000    274.02262    344.24417    273.81344   -17.620763    15.393365    70.430726    40.106183 
158968000    267.89882    302.66589    286.68224   -15.837248    14.001615    15.983647    40.105908 
158972000    259.57981    303.93558       265.39   -16.620087    15.490654    38.545583    40.105986 
158976000    269.64366    334.38395    250.47423    -17.54174    16.850377    83.909717    40.103488 
158980000    266.53103    310.06448    281.48217   -16.937583    15.206904    28.582309    40.103273 
158984000    275.76637    323.84102    288.86367   -18.014825    15.020356    34.977357    40.103392 
158988000    273.90686     335.2318    271.97799   -17.338627    16.383473    63.253815    40.100973 
158992000    268.47961    323.55127    267.36226    -16.39395      16.8289    56.189019    40.100967 
158996000     276.3965    310.99013     297.3559   -16.371022    15.681211     13.63423    40.100613 
159000000     267.1252    300.03731    282.38466    -15.39181    16.654781    17.652647    40.101537 
159004000    268.18649    302.70486    288.32092   -14.213712     15.27812    14.383943    40.098562 
159008000    270.24921    334.02543    277.32518   -16.328632    14.946898    56.700249    40.097673 
159012000    264.15851    316.04849    272.78731   -15.243564    15.042869    43.261178    40.096199 
159016000    278.67231    333.38912    313.80014   -17.499479    13.214345    19.588979    40.098753 
159020000    268.64694    327.49701    283.11744   -16.899066    14.813049    44.379571    40.096187 
159024000    257.29764    321.77816    265.15808    -14.85075    15.625499    56.620084    40.096677 
159028000    262.51472    312.76841    289.21636   -14.413949    15.078372    23.552056    40.094195 
159032000    260.97183     296.1891    291.40981   -14.535091    15.091111    4.7792885    40.092645 
159036000    260.24809    291.58923    284.38355   -14.239049    16.326976    7.2056796    40.092312 
159040000    287.13246    346.32543    305.70048   -15.802311     15.08538    40.624953    40.089616 
159044000    278.43386    333.31185    289.48043   -16.390545    15.719879    43.831416    40.090571 
159048000    269.55542    326.90458    286.02973   -16.930536    14.331433    40.874851    40.093135 
159052000    260.75021     308.2574    278.83643   -14.583822     14.79691    29.420965     40.09358 
159056000    272.17394    302.86508    294.79259   -14.023001    13.969159    8.0724868    40.091429 
159060000    266.67356    331.84222    277.58277   -16.661284    14.666387    54.259449    40.092971 
159064000      264.927    315.39128    287.69215   -14.151733     14.11228    27.699125    40.094853 
159068000    285.19347    363.96544    291.56946   -17.122043    14.849336    72.395981    40.091704 
159072000    263.98993    342.58883    270.62129    -15.57489    15.076517    71.967537    40.091124 
159076000    267.40069    292.58156    286.45426   -14.768426    13.633162    6.1273018    40.089004 
159080000    254.00839    286.96629     268.6094   -13.982743    15.906132     18.35689    40.091087 
159084000    271.11056    335.10739    285.68748   -15.363926    16.461932     49.41991    40.091363 
159088000    281.60082    337.94141    298.97843   -15.264057    15.123122    38.962975    40.094777 
159092000    258.96379    317.67866    265.07307   -16.062334    17.010179    52.605596    40.094315 
159096000    264.29139    315.58833    281.30783   -14.525172    15.750044    34.280497    40.093764 
159100000    274.33115    336.52275    292.10782    -17.16494     16.86155     44.41493    40.096637 
159104000     268.5283    318.87481    284.11799   -16.215719    16.705905    34.756823    40.097292 
159108000    276.01604    340.07279     300.9075    -18.53542    15.342258    39.165291    40.097263 
159112000    267.70675    321.13976    287.32703   -17.264453    16.420872    33.812731    40.094994 
159116000     271.1392    324.95243    279.70491   -16.960579    16.679035    45.247528    40.097496 
159120000    265.95085    330.38691    275.21401   -18.305394    17.001946    55.172892    40.099412 
159124000    275.78659    330.45685    292.40464   -17.836908    15.846129    38.052211    40.097708 
159128000    264.41186    319.57182     280.9396   -16.334953    16.514399    38.632216    40.098618 
159132000    257.86876    304.58229    275.10635   -15.954258    17.305274     29.47594    40.095397 
159136000    270.17667    335.37425    279.42911   -16.935815    16.709625    55.945136    40.097295 
159140000    271.12737    332.88125    279.25623   -17.171352    16.817183    53.625024    40.097551 
159144000    251.28831    319.59806    249.90038   -16.759413    18.370475    69.697674    40.098196 
159148000    271.05751    309.08593     281.3447    -15.58929    16.296945    27.741229    40.097871 
159152000    272.63419    317.03874    287.41996   -16.375586    15.967525    29.618779    40.098283 
159156000     267.6149    303.41882    283.59257   -15.983601    15.496614    19.826253    40.099526 
159160000    269.12113    328.46238    274.64623    -16.70805    16.806338    53.816145    40.100409 
159164000    266.89122    322.37362    284.06241   -15.251857    15.456462    38.311214    40.099964 
159168000    259.16894    306.75224    280.86164    -15.34212    16.449435    25.890593    40.097418 
159172000    257.98388    341.16763    247.97511   -16.820304    17.951115    93.192518     40.09784 
159176000    268.35366    308.37487    302.78953   -16.042396     16.24723    5.5853446    40.097587 
159180000    260.51286    317.43938    288.35534    -16.08481    17.070083    29.084038     40.09483 
159184000    259.69096    323.66672    267.46205    -16.25661    17.346903    56.204674    40.097036 
159188000     264.7496    318.16309    279.35207   -15.629666    16.226242    38.811019    40.098244 
159192000    261.58059    329.51488    255.90706   -16.097551     17.26038    73.607822    40.097474 
159196000    263.78432    330.22567    259.16746   -14.955931    17.292091    71.058213    40.096949 
159200000    252.79485    298.44685    263.47433   -15.674677    17.261739    34.972516    40.098202 
159204000     254.5769    311.50223     266.1499   -15.786867    17.058292     45.35233    40.097773 
159208000     261.5409    304.48697    285.75262   -14.585391    17.150959    18.734346    40.099016 
159212000    246.95733     299.2951    255.32497    -14.85527     18.08809    43.970128    40.099087 
159216000    269.41191    339.98659    282.49919   -16.991114    17.127655    57.487397    40.102157 
159220000    263.03892    320.82212    276.11206   -17.017598    16.883135    44.710066     40.09959 
159224000    262.10685    304.66961    296.23308   -15.597053    16.076106    8.4365332    40.097159 
159228000    267.15913    317.47604    302.44526   -15.611788    15.739801    15.030782     40.09963 
159232000    254.36232    308.26074    281.48412   -15.827081    17.740154    26.776618    40.098304 
159236000    265.29868    315.23648    284.83132   -15.957032    16.392478    30.405157    40.100867 
159240000    266.11829    326.51986    301.51471   -16.582279     16.02277    25.005146    40.101396 
159244000    270.20625     325.9176    288.13282   -16.569851    17.022824    37.784788    40.103524 
159248000    263.22763     325.5763    290.32639   -15.870105    16.103267    35.249917     40.10509 
159252000    260.59528    300.89465    286.47921    -15.83452     17.63174    14.415441    40.109236 
159256000    263.42436    338.60754    281.57915   -16.962971    17.432917     57.02839    40.107501 
159260000    265.52435      317.193    278.91146   -16.297589     16.39644    38.281534    40.108808 
159264000    261.06774    305.40269    283.85595   -16.573272    16.205345    21.546743    40.108736 
159268000    261.63618    337.50205    260.77424   -18.052319     16.59174     76.72781     40.10948 
159272000    262.88273    335.10745    281.34724   -16.167297     16.01011    53.760212     40.11034 
159276000    255.77384    325.38169    272.27772   -16.345731    16.116291    53.103974    40.111086 
159280000    264.65598    324.61537    273.18996   -16.186987    17.363739    51.425411    40.113157 
159284000     268.8434    322.53953    285.22094   -16.709418    17.239827     37.31859    40.113833 
159288000     261.8897     320.6578    290.61108   -16.373444    16.422603    30.046723    40.112206 
159292000    267.78809    341.95166     267.6481   -17.509428    17.666731    74.303557    40.112859 
159296000    261.51234    314.52291    292.62379   -16.033787    16.769386    21.899113     40.11312 
159300000    268.82307    334.25603    269.19912   -17.556751    17.776488    65.056909    40.111841 
159304000     267.8529     316.5649    296.43858    -16.06396    16.346396    20.126328    40.114183 
159308000    274.78556    340.64342    285.99709   -16.693247    17.546732    54.646323    40.115107 
159312000    253.88795     299.3807     271.9287   -15.759043    16.921688    27.451997    40.116096 
159316000    259.30729    293.42192    293.04262   -16.208901    17.424665   0.37929422     40.11781 
159320000    261.70673    311.04898    277.91722   -16.529361    17.214751     33.13176     40.11816 
159324000    265.80785    328.23975    301.33738   -17.399038    16.274028     26.90237    40.117676 
159328000    272.47201    320.52193    289.80095   -17.188667    16.534033    30.720971    40.117366 
159332000    270.63934    336.68975    277.07355   -17.891577    17.542046      59.6162    40.118225 
159336000      258.912     302.8811    273.41933   -15.869423    17.066403    29.461766    40.119095 
159340000    271.34041    338.84798    290.39996   -18.448533    16.885363    48.448021    40.118693 
159344000    282.76675    360.08519    308.57185   -19.733417    16.423388    51.513338    40.119412 
159348000     261.8915    310.07179    269.66108   -18.063166    16.986459    40.410716    40.118884 
159352000    258.87442    298.29115     266.2022   -16.822126    16.734962    32.088955    40.117267 
159356000    276.29558    346.33763      288.545   -19.365288    16.023614    57.792626    40.116934 
159360000    252.68679     277.0229    284.53375    -15.28528    15.955554   -7.5108572    40.114979 
159364000     270.5277    327.73186    287.69124   -17.526718    15.989666    40.040627    40.113901 
159368000    279.94152    338.41739    309.44552   -17.934294     14.73126    28.971864    40.113572 
159372000    275.27261    335.46372    304.61334   -17.791335    15.279086    30.850387    40.115711 
159376000    271.57032    312.71209    298.79781   -16.032362    15.934746    13.914282    40.114815 
159380000     257.2126    321.83564    271.83972   -15.802154    17.484682    49.995922    40.114647 
159384000    259.32145    325.87885    272.44584   -16.920761    16.757446    53.433012    40.112895 
159388000    272.94705    336.72632    310.52926   -17.804089    15.851659    26.197059    40.113855 
159392000    251.16052    327.82041    248.91387   -17.101947    17.935811    78.906541    40.114999 
159396000    274.44047    322.44931    297.56329   -16.995066    16.494445    24.886017    40.112781 
159400000    267.34329    308.12416    315.92341   -15.235204    16.530386   -7.7992455    40.114752 
159404000    264.32802    333.03061    267.45597   -16.629042    17.915989     65.57464    40.113619 
159408000    270.84187    329.35992    292.38354   -16.862404    16.930365    36.976379    40.111517 
159412000    280.60832    355.07376    291.80028   -18.997487    16.873187    63.273482    40.113816 
159416000    265.10925    317.31031    290.59877   -16.030797    17.085434    26.711548    40.114325 
159420000    270.57564    316.46559    302.84063   -15.729811    16.731293    13.624957    40.113578 
159424000    268.79229    334.88681    295.77858   -15.656568    16.602135    39.108232    40.113596 
159428000    269.18851     355.0696     276.3131   -17.000607    17.244695      78.7565    40.114978 
159432000    261.35859     288.1631    294.13023   -14.661023    15.168228   -5.9671348    40.113307 
159436000    250.54447    307.94287    280.92312   -16.171327    18.178808    27.019744    40.112287 
159440000    257.69166     326.6143    271.21685   -17.072305      17.4908    55.397451    40.116579 
159444000    256.32547     308.7975    272.71739   -16.272426    18.455345    36.080104    40.118836 
159448000    258.11994    312.60921    279.16332   -16.262621    18.207863    33.445894    40.116209 
159452000    263.71722    310.36834    266.10577     -15.4518    18.305621    44.262564    40.116029 
159456000    265.09839    310.06976     282.0543   -15.639453    16.890741     28.01546    40.116412 
159460000    265.18081    332.20183    290.57512   -16.964272    16.703327    41.626706    40.116673 
159464000    250.75247    328.91574    246.35243   -16.788721    19.314351    82.563309    40.118415 
159468000    254.62689    289.51235    278.66735   -14.762333    17.047233    10.844999    40.114989 
159472000    261.77537    327.41092    285.12605   -16.754333    17.800515    42.284876    40.116377 
159476000    255.26845    310.30745    282.80105   -15.395045    17.466315    27.506405    40.114813 
159480000    262.31637    327.53967    276.58362   -17.088905    17.085681     50.95605    40.113497 
159484000    247.98011    299.47089    261.27259   -15.702658    17.910374    38.198304    40.111423 
159488000    269.52304    365.50263    266.68736   -18.395374     18.30833    98.815275    40.113588 
159492000    257.02417    289.60873     278.1626     -16.8924    17.350063    11.446133    40.112669 
159496000    272.12491    317.45507    293.06749   -15.952062    16.085574     24.38758    40.110971 
159500000    270.70441    309.70829    301.09076   -15.261134    15.367892    8.6175293     40.11021 
159504000    260.64917      320.347    268.17849   -16.483628    16.650876    52.168503    40.110516 
159508000    259.68583    312.38406     269.1116   -15.491892    17.435679    43.272462    40.109149 
159512000    272.67908    356.20645    265.39533   -18.192015    17.696849    90.811124    40.109332 
159516000    274.59982    352.70544    284.05486   -18.415294    16.480294    68.650575    40.110943 
159520000     259.5759    325.71795    264.49137   -16.082567     17.33232    61.226574    40.111946 
159524000    265.49407    318.26991    269.66136   -15.438399     17.37107    48.608549    40.110225 
159528000    261.07066    300.58306    273.30143    -15.24731    17.763591    27.281633    40.110298 
159532000    276.37347    325.35966    307.80665    -17.16584    15.973128    17.553012    40.109143 
159536000    263.90941     296.7614    294.55779    -15.00602    16.344448    2.2036102    40.110096 
159540000    259.88443    300.07286    270.51857   -15.382686    17.115669    29.554286    40.109907 
159544000      264.214    319.10043    273.88226   -16.965916    18.275744    45.218168    40.112429 
159548000    259.13177    305.60001    267.10626   -15.411811     18.15381    38.493748    40.110906 
159552000    270.49882    332.50044    301.49569   -16.890807    17.731524    31.004749    40.110762 
159556000     264.7256    325.37835    284.48542   -16.714324    18.422065    40.892927    40.109897 
159560000    263.67231    312.88217    286.10513   -17.135353     17.38053    26.777039    40.108824 
159564000    270.51689    349.71076    269.13588   -18.070417    18.522543    80.574878    40.110185 
159568000    255.11407     307.6768    260.19369   -15.796469    18.341198    47.483107    40.112638 
159572000     259.3093    323.48179    285.37821   -16.473739     17.58964    38.103582    40.110413 
159576000    264.89648    323.46238    288.80261    -16.24803    17.833386    34.659774    40.112492 
159580000    265.20405    328.36611    268.40038   -17.556774    19.267425    59.965725     40.11117 
159584000    264.20825    324.77623    251.35019   -16.734154    18.874247    73.426037    40.110859 
159588000    268.90372     340.2858    292.21893    -16.46575    17.436779    48.066866    40.113137 
159592000    272.90691    337.86016    285.46358   -19.063647    18.245509    52.396577    40.113573 
159596000    277.35079    328.61794    314.13227   -17.879621    17.273629    14.485669    40.111476 
159600000    254.59845    300.92716    284.78267   -16.829499    17.593563    16.144488    40.109419 
159604000    274.75957    324.99885    298.22462   -17.586848    17.656996    26.774228    40.107064 
159608000    265.94895    324.47933    281.39827    -17.22733    16.925482    43.081067    40.106175 
159612000    258.12692    293.22567    295.35646   -14.602544    16.755743   -2.1307935    40.107457 
159616000    258.11785    310.80585    269.99339   -15.001492    18.231439    40.812468    40.108296 
159620000    257.08062     304.2744    281.42835   -14.597445    17.516059    22.846051    40.107391 
159624000    263.51293    324.18099    278.29882   -15.536972     18.10794    45.882169    40.110149 
159628000    258.51373    300.06773    265.53399   -15.993158    18.665201    34.533743    40.111617 
159632000    266.56094    322.66736    274.26508   -17.464896    17.717874    48.402285    40.111166 
159636000    254.87902    295.00866    272.89266   -15.290926    18.221217    22.116003    40.109723 
159640000    263.81734    322.10496    267.25011   -16.824815    17.849988    54.854853    40.110994 
159644000    272.83695    334.61462    286.41912   -18.014638    17.948622    48.195498    40.111313 
159648000    264.97159    304.95072    275.89516   -18.007023    18.251626    29.055555    40.109937 
159652000    263.00379    322.23427      283.611    -18.61117    17.724397    38.623278    40.110585 
159656000    259.11401    311.69699    267.55696    -18.23763    19.140706    44.140034     40.10763 
159660000    267.86849    308.76987    300.13022   -17.938113    16.886231    8.6396578    40.107337 
159664000    272.81755    303.58641    294.79944   -18.093199    17.350774    8.7869657    40.108112 
159668000      263.044     318.4942    278.92012   -17.237362    17.572152    39.574084    40.107306 
159672000    268.07942    335.32873    260.59747   -18.357734    18.283288    74.731261    40.110514 
159676000    264.24101    301.25517    264.55034   -17.590988    18.839495     36.70483    40.109057 
159680000    266.17881    335.64242    275.48114   -18.329139    18.261029    60.161285    40.109574 
159684000    269.68233    337.84965    276.74681   -17.796628    17.985548    61.102845    40.111681 
159688000    272.02437    314.10596    300.14549   -16.579619    17.814267    13.960473    40.112899 
159692000    265.80113    341.57999    284.36868   -17.935591     18.49502    57.211306    40.112841 
159696000    266.79595    318.24206    290.77172   -17.132415    18.983448    27.470336    40.112327 
159700000    268.31478    323.73623    278.35504    -19.44882    19.626086    45.381191    40.112151 
159704000    271.92721    328.00622    283.74807   -19.657144    18.377287    44.258144    40.113921 
159708000    267.71054    307.65785     296.4641   -17.997802    18.364259    11.193752    40.114739 
159712000    262.79075    299.83624    290.30495   -17.697931    18.353814    9.5312896    40.115002 
159716000    267.14678    311.73708    293.62288   -18.317884    17.175533    18.114196    40.114263 
159720000    257.03102    316.11262    270.50621   -17.121558    18.897302     45.60642    40.113354 
159724000    264.94031    330.53765    278.11037   -17.266072    19.055172    52.427285    40.116593 
159728000    262.82396    335.74653     289.9318    -18.71882    18.831231    45.814728    40.116223 
159732000    276.42196    371.98818    300.76866   -19.098446    18.568751    71.219527    40.116824 
159736000    262.56624     318.0972    278.27666   -17.632954    19.423858    39.820537    40.115745 
159740000    266.49591    334.65062    298.92302   -17.071794    17.894242    35.727607    40.113274 
159744000    256.70955    332.73449    254.71778   -17.637213    19.063604    78.016714    40.111652 
159748000    268.93588    335.84034    301.60956   -17.573621    17.435282    34.230787    40.109972 
159752000    265.67561     334.7732    283.74411   -16.820838    17.740444    51.029094    40.107913 
159756000    258.69537    302.63508    289.91163    -15.35721    17.570289    12.723447    40.108543 
159760000    260.74645    337.28535    273.49767   -18.357378    18.884924    63.787673    40.110132 
159764000    265.58101    341.80238    286.49643   -17.610981    18.711034    55.305948    40.112312 
159768000    258.23258    302.30522     283.1608   -16.320403    18.282922    19.144417    40.112762 
159772000    259.62592    332.42453    279.61236   -17.400709    18.826349    52.812169    40.111967 
159776000    269.46249    311.97347    308.19616   -17.585232    17.688657    3.7773077    40.112408 
159780000    258.69359    314.28996    283.60793   -16.919062    19.006486    30.682031    40.110077 
159784000     258.8093    317.02306    279.52589   -16.794278    18.753321    37.497177    40.106596 
159788000     257.4479    324.25979    261.54707   -17.322121    19.349486    62.712726    40.104594 
159792000    257.55577    306.59654    271.51322    -16.39134     18.23249    35.083317    40.102896 
159796000    267.24284    308.86104    292.98966   -16.949428    18.173955    15.871379     40.10463 
159800000    264.20965    312.97016     284.7493   -17.263006    18.283835    28.220856    40.105244 
159804000    268.15342    337.55652    267.79595   -17.772055    19.229797    69.760569    40.102766 
159808000    266.16311    333.03565    268.61807   -17.372189    19.091948    64.417577    40.104133 
159812000    261.20561    313.92896     285.2329   -16.491945    17.265783    28.696064    40.104545 
159816000    258.46911    311.26991    277.04475   -15.978246    18.213985    34.225161    40.102669 
159820000    267.43432    317.81502    288.76891   -18.888753    17.922857    29.046106    40.104276 
159824000    275.91836    358.95888    287.49065   -18.985157    17.596267    71.468237    40.104484 
159828000    269.47858    315.88615    289.73993   -17.169418    17.651017    26.146218    40.105947 
159832000    255.78202    299.61372    282.97805   -15.838128    17.825216    16.635678    40.105902 
159836000    260.16831    325.39282    288.65158   -17.428618     16.95666    36.741247     40.10555 
159840000    256.48909    321.03959    261.76982   -17.050979    17.421721    59.269766     40.10651 
159844000    261.88929    298.92529    292.87014   -15.910126    17.120638    6.0551493    40.102495 
159848000    263.06479    324.29769    274.02977    -17.55492    17.610296    50.267917    40.102265 
159852000    258.65443    282.81862    288.34913   -15.526759    17.829205   -5.5305172    40.101255 
159856000    264.22063    331.10973    300.03468   -17.921656    17.194057    31.075051    40.100608 
159860000    253.59226    294.45605    265.52785   -16.789314    17.824535    28.928202    40.102226 
159864000    280.24864    331.75494    308.53048   -17.266923    16.846958    23.224459    40.100796 
159868000    258.55333    321.32614    274.17745   -17.111978    18.521301    47.148693    40.101372 
159872000    264.37964    309.67267    294.15853   -16.064242    17.329219    15.514136    40.098567 
159876000    251.58605    301.33476    259.80712   -17.551856    19.928214    41.527646    40.098386 
159880000      261.588    316.29677    284.16106   -16.286015     18.94644    32.135714    40.099475 
159884000     268.6708    339.77834    299.71149    -17.95171     18.53286    40.066855    40.096208 
159888000    257.60367    295.88005    279.70526   -16.424485    18.244076    16.174791    40.096133 
159892000    257.15197    328.20038    260.50177   -18.284237    19.318463    67.698606    40.097399 
159896000    266.61759    314.95153    292.66302   -17.610611    16.647396    22.288515    40.096978 
159900000    259.11148    305.07646    292.15388   -17.492471    17.701011    12.922578    40.098425 
159904000    262.99948    334.92496    263.87334   -17.420472    18.219928    71.051618    40.100125 
159908000    256.35748     330.4654    278.72952    -17.85284    16.677381    51.735879    40.102625 
159912000     258.5179     314.1845    275.41977   -16.673866    18.033407    38.764729    40.098719 
159916000     253.2274    312.21302    259.70402   -16.621039    17.820554    52.509005    40.096516 
159920000    258.55108    299.04508    273.43116   -16.463534    17.319597    25.613924    40.096565 
159924000    273.19643    327.92122    300.54268   -17.084872    16.706142    27.378536    40.094182 
159928000    268.02513    325.70484      286.167   -18.323036    16.462169    39.537836    40.094809 
159932000    266.09785    334.56869    272.47113   -18.847065    17.035147    62.097559    40.094913 
159936000      270.287    285.79763    317.09906   -17.444688    15.128918   -31.301433    40.091352 
159940000    251.90451    302.37947    258.67231   -16.418366    17.806884    43.707164    40.091256 
159944000    255.26993    319.95564    250.95488   -16.748674    18.035767    69.000763    40.089422 
159948000    261.98812    313.27538    287.52942   -16.910135    17.222096    25.745961    40.088155 
159952000    260.16718    309.95813     276.6702   -17.449324    18.641844    33.287933    40.086935 
159956000    264.09618    330.46246    268.93808    -19.01608    17.999843    61.524376    40.087347 
159960000    268.50358    340.01584    281.17129   -19.218824    18.229588    58.844557     40.08735 
159964000    271.57339    326.88692     300.4603   -18.266233    16.858062    26.426624    40.085616 
159968000    258.83419    295.56099    297.40911   -16.764424    16.659189   -1.8481204    40.086109 
159972000    267.41123    328.47998    279.47451   -18.659069    17.433437    49.005468    40.083213 
159976000    268.48296    335.91797    276.69991   -19.391746    17.251217    59.218056    40.082761 
159980000    267.12497     321.0655    287.72882   -17.264345    16.028092    33.336688    40.080287 
159984000    263.19841    308.19174    271.67599   -17.589684    17.544987    36.515749    40.079494 
159988000    252.84706    295.32353    272.19987   -17.940927    17.166481     23.12366    40.078775 
159992000    261.52059    313.19485    286.75254   -17.320792     16.46461    26.442311    40.078206 
159996000    270.66146    343.36877    284.55546    -18.55246    17.547002    58.813309    40.076491 
160000000    265.03739    330.35352    276.35166   -18.061661    18.055785    54.001852    40.073923 
160004000    262.39946    315.85332    282.93632   -17.199563    17.943899    32.917002    40.072741 
160008000     266.5424    320.50875    283.59369    -17.24223    17.377392    36.915063    40.073044 
160012000    272.71765    360.57349    265.37216   -19.703673    18.804163    95.201334    40.073187 
160016000    271.46571     372.3898    280.03501   -19.006351    17.958199    92.354795    40.075985 
160020000    264.59034    318.24279    295.57446   -17.257794    17.505951    22.668333    40.077808 
160024000    258.87341    306.05701    277.88845   -16.247056    16.896318    28.168563    40.075515 
160028000    271.40478    311.79398    295.57094   -17.100231    17.167847     16.22304    40.077469 
160032000    268.12786    338.37661    272.53145   -17.312067    17.307479    65.845157    40.077338 
160036000    270.05109    318.60259    265.18908   -17.193321     17.38001    53.413511    40.078227 
160040000    264.25296    324.53283    278.66427    -17.65811    17.207398    45.868557    40.076863 
160044000     261.5669     298.2878     287.5147   -16.016439    15.859476    10.773106    40.077625 
160048000    262.07568     318.6315    282.11607   -16.616447    16.846582    36.515427      40.0758 
160052000    268.76717    313.08341     281.0191   -17.321101    16.106447    32.064314    40.076097 
160056000    270.28365    340.63566    273.39575   -19.682866    16.991106    67.239908     40.07526 
160060000    255.41622    326.06736     253.2373   -17.971888    17.413322    72.830065    40.075098 
160064000    266.47927    313.45573    281.27796   -17.738578    16.386989    32.177771    40.074422 
160068000    267.19574    308.28486     296.5962    -17.63172    16.679758    11.688656    40.074857 
160072000    271.85396    355.17162     261.5653   -17.766399    17.033784    93.606316    40.074065 
160076000    267.60933    321.92849    275.90649   -16.991032    16.818295    46.022003    40.074568 
160080000    262.99969    325.00721    266.03211   -17.137454    17.753465    58.975101    40.075773 
160084000    266.49186    320.15131    278.26305   -16.785255    16.999348    41.888266    40.073945 
160088000    274.80332    324.57115    278.27334    -17.11716    16.442173    46.297814    40.075877 
160092000    268.07695     345.2153    268.65657   -18.610991    16.260296    76.558737    40.076565 
160096000     276.9304    354.88412    268.00695    -19.38549    17.484272    86.877173    40.078048 
160100000    265.33711    313.53761    281.39758    -18.34228    17.763889     32.14003    40.077014 
160104000    263.15126    338.74401    270.40963   -17.612411    17.682734    68.334377    40.078462 
160108000      258.497    311.66726    282.32199   -17.888847    16.341399    29.345269    40.078644 
160112000    269.35286    341.68923     284.5952   -18.923696    17.335924     57.09403    40.078903 
160116000    272.23277    334.70322     266.6438    -19.30316    17.766166    68.059419    40.080626 
160120000    264.15956    323.01338     277.4763   -17.951821    17.165508    45.537081    40.079509 
160124000     273.0427    331.79368    282.55877   -18.466466    16.859651    49.234911     40.07883 
160128000    260.45301    306.25958    280.46933   -17.525908    18.411777    25.790254    40.075543 
160132000    270.39183    343.22957    262.65282   -18.953861       17.784    80.576749    40.077644 
160136000    258.10611    301.84091    259.88988    -17.78904    18.159107    41.951032    40.076151 
160140000    271.22258    333.76731    262.45067   -19.753845    17.248116    71.316643    40.075248 
160144000    279.41799    323.45168    290.62634   -18.608048    16.270565    32.825341    40.073635 
160148000    275.09965    323.89135    288.91795   -17.964689    16.625183    34.973409    40.071999 
160152000    266.47629    313.93938    278.99628   -17.824575     17.24847    34.943099    40.072258 
160156000    270.66742    337.42534    272.67587   -18.061534    17.846213    64.749462    40.072683 
160160000    264.60822    306.62756    287.65724    -17.38732    17.285503     18.97032    40.072338 
160164000    262.28896    328.92395     262.1538     -18.6162    18.865232    66.770157    40.073401 
160168000    282.04358    361.81392    296.40213   -19.895761    16.595039    65.411789    40.072642 
160172000    259.00366      331.954    262.77193   -18.245722    17.728297    69.182071    40.073174 
160176000    271.92509    339.22091    278.52424   -19.059888    18.677044    60.696672    40.073869 
160180000    255.56864    293.45282    265.14566   -16.190723    18.093967    28.307161    40.073485 
160184000    278.54339    331.28391    307.59025   -17.193998    16.191763    23.693654    40.075119 
160188000    268.21527    331.84566    290.50781   -17.849488    16.562421    41.337849    40.076338 
160192000    260.07335     315.5977    268.22935    -16.91781     18.49768     47.36835    40.077254 
160196000    278.02461    345.15578    300.96167    -19.49206    16.115666    44.194112    40.078295 
160200000    263.58708    316.12607    272.61176    -17.56926    18.143146    43.514311    40.079726 
160204000    259.85414    321.86636    281.43441   -18.086377    18.620978    40.431956    40.080249 
160208000    260.81097    314.02677    285.87459   -17.809653      18.6276    28.152184    40.083051 
160212000    262.71896    337.87041    267.44128   -18.951632    19.511432    70.429128    40.081242 
160216000    280.46147     338.1709    278.77238   -18.315166     18.35743    59.398513    40.083764 
160220000     268.2869    319.39858    277.33645   -18.372055    17.651593    42.062125    40.081659 
160224000    264.26313    310.91651    290.04276   -18.260297    17.860265    20.873748    40.081978 
160228000    273.77723    309.14632    292.83489   -17.697255    17.326163    16.311425    40.082052 
160232000    266.13676    315.76181    278.63409   -18.353648    17.515333    37.127725    40.082563 
160236000    276.61033    336.89221    294.46173   -18.638552    17.013754    42.430476    40.082846 
160240000     276.2462    343.93505    279.30116   -19.025553    16.981521    64.633891    40.083575 
160244000    275.30898    318.63802    295.97693   -17.902768    16.767348    22.661094    40.084921 
160248000    264.69332    299.85161    274.01718   -16.691729    17.171393    25.834425    40.082759 
160252000    268.93668    324.98333    280.11611     -17.4735    17.126656    44.867216    40.084763 
160256000    254.33135    305.10834    256.47897   -16.220045    18.834626    48.629369    40.087281 
160260000    261.06878    312.44125    274.78204   -17.410802    17.528417    37.659208    40.087713 
160264000    259.98424    302.50507    285.61469   -17.175518    18.156659    16.890387    40.087406 
160268000    273.53934    321.79439    306.55432   -18.024879    18.105612    15.240071    40.088623 
160272000    259.78963    323.10534    257.28712    -19.28957    18.910968    65.818222    40.088035 
160276000    263.64847    317.87285    278.59819   -18.740629    17.225583    39.274662    40.088657 
160280000    278.15722    346.26912    280.21975   -19.673602    18.893599    66.049376    40.087771 
160284000     277.7115    351.74368    276.98119   -20.047492    18.557692    74.762493    40.088758 
160288000    265.86311    305.14119    284.49171   -18.939856    18.333902    20.649481    40.091082 
160292000    266.27827    336.31511    276.93569   -19.721901    19.060044    59.379427    40.091229 
160296000    270.45503    328.85936    266.27192    -19.39542    20.682818     62.58744    40.090175 
160300000    268.96436    317.08084    266.03419   -18.953761    19.858067     51.04665    40.089508 
160304000    274.32738    333.41081    300.10045   -19.902717    17.926482    33.310351    40.091773 
160308000    270.64615    321.19888    286.78878   -20.027501    18.950738    34.410108    40.090576 
160312000     277.0633    331.09785    293.63408    -19.22118    18.694613    37.463767    40.092026 
160316000    265.07284    322.40692    278.20733    -19.36068    19.207946    44.199588    40.094471 
160320000    267.65994    318.51407    286.85602   -19.518862    18.625767    31.658056    40.094828 
160324000    257.62534     307.7021    267.40818   -19.361341    18.754497    40.293919    40.095677 
160328000    274.74299    338.55642    290.30666    -20.79009    18.307693    48.249763    40.097565 
160332000    266.29686      312.372    272.60398   -19.447818    19.464719    39.768023    40.100207 
160336000    270.57132    302.67342    311.79826    -17.59993    18.207865   -9.1248462    40.103101 
160340000    252.92813    311.04156    274.58813    -18.84962    19.990773    36.453426    40.102741 
160344000     256.2228    320.08406    264.05661   -19.739876    20.148652    56.027444    40.101611 
160348000      265.791    311.37608     279.9219   -18.597041     19.27662    31.454184    40.101204 
160352000    264.27995    327.84033    277.18092   -18.806554    19.234728    50.659417    40.102114 
160356000    269.81449    326.27269    271.90049   -20.595487    19.156885    54.372198    40.102825 
160360000    276.56281    336.09255    304.07685   -19.934873    17.513885    32.015704    40.104965 
160364000    268.10061    340.46716    276.60478   -19.749021    18.598483    63.862383    40.104229 
160368000     271.2292    322.57824     295.4305    -19.45457    18.663455    27.147734    40.103456 
160372000    270.00334    307.63185    301.84715   -18.820711    17.698181    5.7846934    40.101515 
160376000    266.88879    304.02843    276.77994   -17.598299    19.178457    27.248494    40.102107 
160380000    279.72159    329.84296    307.32087   -19.643259    17.347347    22.522084    40.099963 
160384000    265.40655    320.04783    263.00988   -19.004551    19.286485    57.037958    40.101218 
160388000     277.3822     337.4667    281.34214   -19.188042    18.024306    56.124554     40.10247 
160392000     282.8906    340.04154     302.2686   -20.130706    17.135296    37.772938    40.100394 
160396000    280.22424    310.32389    305.40177   -19.630322    17.268996    4.9221159    40.095422 
160400000    277.32319    330.11692     277.5511   -19.756757    17.494193    52.565818    40.097771 
160404000    273.48387    323.66644    285.13792   -19.235191    17.164388    38.528519    40.096496 
160408000     279.0268    315.13925    295.33147   -18.859628    17.070193    19.807779    40.095288 
160412000    273.34908    326.08583    284.37007   -19.052125    17.726312    41.715758    40.093442 
160416000    272.16543    324.89476     271.8547   -18.685704    18.140919    53.040062    40.091593 
160420000    266.96385    306.54601    269.04519   -17.781474    17.434867    37.500815    40.091597 
160424000     263.6999     318.7527    262.81186   -18.609783    17.329435    55.940838    40.092718 
160428000    258.07034     310.2272      255.613   -17.086236    18.644922    54.614195    40.094128 
160432000     270.1605    299.65807    301.47955   -17.273797    16.267598   -1.8214767    40.093574 
160436000    283.90955     339.8233    301.46037   -19.773323    15.983914    38.362929    40.094512 
160440000     270.8823    303.40017    288.31981   -17.727494    16.800898    15.080354    40.093921 
160444000    281.77953    346.97185    298.56327   -19.279167    17.175133    48.408579    40.093495 
160448000     269.1251    309.85813    281.27024    -18.08155    17.087791    28.587891    40.090819 
160452000    276.31667    321.96312    301.28761   -19.596084    16.333781    20.675514    40.088152 
160456000    274.77814    311.97444    298.40706   -18.872757    16.647052    13.567382    40.088042 
160460000    264.01135    317.40638    265.61845   -19.053171     18.28462    51.787937    40.089563 
160464000    263.91559    324.75377    263.00813   -18.448614    18.962692    61.745635    40.088217 
160468000    278.94482    324.36677    292.27585   -18.660939    16.833656    32.090922    40.087983 
160472000    266.22355    301.46884    268.22146   -18.005055    17.700493    33.247373    40.087674 
160476000    276.46532     345.1563    277.66025   -20.871662    17.149203    67.496048    40.088471 
160480000    272.01866    323.46335    291.52695   -18.930397    17.302496    31.936405    40.086373 
160484000    275.10242    326.65021    284.92719     -19.1306    17.364353    41.723019    40.085183 
160488000    276.92129    316.96393    285.26426   -18.181589    17.514491    31.699671    40.084471 
160492000    278.08635    341.39272    272.66786   -19.699623    17.125928     68.72486     40.08445 
160496000    276.91859    320.72508    286.13845   -19.153364    17.507889    34.586625    40.085988 
160500000     277.6594    337.74945    291.45438   -19.756266    17.085532    46.295072    40.088471 
160504000    265.75817    282.40832    298.39811   -18.952986    17.245757   -15.989791    40.085993 
160508000    280.16193    337.13664    305.36961   -19.901372    16.954506    31.767033    40.086508 
160512000    270.34803    321.76777    304.85419   -19.609294    17.494411    16.913584    40.085131 
160516000    265.07148    315.16264    279.41672   -19.396167    18.809441    35.745914     40.08657 
160520000    265.40945    321.14969    273.10545   -19.773177    19.472164    48.044239    40.085856 
160524000     264.5184    288.18052    296.49952   -18.953935    18.178487   -8.3190087    40.082962 
160528000    267.79753     317.5684    267.06144   -20.173385    19.437938    50.506952    40.083887 
160532000    268.81671    321.11376    288.10691   -19.554746    19.558213    33.006847    40.083703 
160536000    265.55824    287.97164    283.37216   -19.598081    19.457292    4.5994741    40.081648 
160540000    277.68059    316.27306    301.33336   -20.056135    19.064975    14.939704    40.083199 
160544000     258.4913    291.56459    270.17258    -18.26132    20.290036     21.39201    40.081743 
160548000    264.81136     332.0996    268.76478   -19.924465    20.073441    63.334822    40.082851 
160552000    262.97555    321.15801    281.93795   -18.210578    19.491135    39.220059    40.083238 
160556000    258.29443    314.69016    264.36532   -18.089612     20.03374    50.324841     40.08341 
160560000    271.69444    369.46306     279.7269   -20.383962    19.569509    89.736161    40.080712 
160564000    273.56902    344.38755    281.37366   -19.776996    19.986354    63.013891    40.082933 
160568000    264.22017    305.66203    290.07802   -18.355654    19.187965    15.584009     40.08433 
160572000    261.63809    323.76074    284.56183   -19.607948    18.678521    39.198909       40.086 
160576000    258.95234     316.8433    268.59337   -18.342887    19.488148    48.249931    40.086782 
160580000    259.86064    331.88513    274.00569   -18.377437    19.565027    57.879442    40.085979 
160584000    268.14243    343.38198    273.03837   -19.357992    19.299696    70.343609    40.086517 
160588000    262.33101    323.86975    278.49162   -19.007412    18.909289    45.378124    40.086764 
160592000     254.5229    320.14271    255.27582   -19.195883    20.579395    64.866886    40.087988 
160596000    267.81271    330.73045    290.95773   -18.936422     18.40169    39.772717    40.084592 
160600000    257.39707     307.8379    282.34546   -18.172098    19.296441    25.492433     40.08774 
160604000    258.01315    324.27831    277.19411   -17.984478    18.629825    47.084199    40.085445 
160608000    270.68351    308.48689    303.72755   -18.763646    18.133392    4.7593354     40.08466 
160612000    260.78475    322.62457     254.6694   -19.475645    19.541404    67.955171    40.085178 
160616000    271.26255    323.72317    296.88224   -20.013096    18.511732    26.840934    40.086713 
160620000    269.40924    310.91098    278.02637   -19.281736    19.008291    32.884612    40.088027 
160624000    265.87832    314.86415    286.44666   -19.324014    18.916781    28.417495    40.086471 
160628000    276.93026    327.77749    301.34245    -19.94979    17.745032    26.435037    40.089915 
160632000    259.20226    299.29141    267.45688   -20.238601    18.779394     31.83453    40.088001 
160636000    271.01589    335.50644    297.63697   -19.576169    18.946815    37.869462    40.087711 
160640000    267.19205     324.4678    256.26613    -19.78118    19.670184    68.201674    40.089386 
160644000    262.01629    288.63554    268.50511   -18.557285    20.783111    20.130428    40.089534 
160648000    274.94021    337.33433    274.52735   -20.267565    20.297476    62.806977    40.087684 
160652000    270.11944    347.31496    282.99151   -21.916632    18.756516     64.32345    40.086312 
160656000    267.97714    315.80843    287.87037   -18.858513    18.366163    27.938064    40.086148 
160660000     271.5735    327.21325    271.95712   -19.621677    19.948518    55.256129    40.085144 
160664000    267.38476    330.97586    263.03597    -20.61706    19.999241    67.939891    40.083932 
160668000    257.97788    306.12091    265.82879   -18.065418    18.647732    40.292126    40.087478 
160672000    268.61565    323.20719     276.7181    -19.36058    19.184302    46.489082    40.088427 
160676000    269.25336    338.62721    293.41402    -20.27664    18.686613    45.213193    40.088267 
160680000    272.53051    311.42567    292.37221   -19.065892    19.638201    19.053468    40.088138 
160684000    263.36375    330.67996    272.03011   -18.092314    19.403534    58.649841    40.086749 
160688000    280.58707    353.20454    303.68843   -19.121459    19.155389    49.516105    40.084077 
160692000    263.47555     339.7447    272.23291   -18.686128    20.669128    67.511786     40.08294 
160696000    263.38007    324.17273    287.34465   -17.742572    19.675659    36.828085    40.083167 
160700000    268.36538    339.59021    294.20559   -17.746244    20.340925    45.384622    40.083015 
160704000    254.11201    315.32901    260.08485   -18.013911    19.546359    55.244166     40.08466 
160708000    256.95356    326.33943    270.22831   -18.680616     20.57806    56.111124    40.081435 
160712000    255.16922    313.40612    263.94347   -18.146725    21.096243    49.462651    40.082823 
160716000    261.17975    308.56976    302.21292   -17.783119    20.626939    6.3568417    40.081903 
160720000    256.83171    309.36711    259.96501   -18.757502    21.729081    49.402102    40.081032 
160724000    265.05152    303.29674    304.86609   -18.657486     19.01325   -1.5693466    40.080627 
160728000     272.4865    330.90754    286.24449   -19.660151    19.370026    44.663049    40.081776 
160732000    255.12529     307.5872    264.65586   -17.776155    20.121135    42.931332    40.081213 
160736000    263.37775     325.0452    286.44465   -19.262398    19.074766    38.600557    40.079379 
160740000    261.54309    316.31373    259.00316   -19.423001    19.639025    57.310572    40.080461 
160744000    265.53259    325.20914    292.57297   -17.868732     18.94331    32.636176    40.082461 
160748000    268.71156    337.32678    286.28535   -19.688415    19.418656    51.041435    40.082908 
160752000    265.47361    319.73803     281.8265   -19.417657     19.77179    37.911531     40.08343 
160756000    260.71172    307.16857    287.14402   -19.300513    19.591572    20.024542    40.085869 
160760000    256.70619     317.2307    275.41628   -18.417241    20.366429    41.814416    40.087559 
160764000    257.99578    298.79051    277.44744    -17.36326    19.951135    21.343074    40.086087 
160768000    254.97121    307.64778    262.80736   -17.331341     20.85435    44.840417    40.083981 
160772000    261.45067    306.71572     288.9071   -17.724468    18.755411    17.808616    40.081747 
160776000    254.95709    314.89828    276.20088   -18.051361    19.332854    38.697408    40.081837 
160780000    267.19996    341.68441    268.30143   -19.120467    20.165255    73.382981    40.082569 
160784000    262.12122    315.97699     281.5059   -18.524658    20.661915    34.471092     40.08704 
160788000    257.57074    311.09336    277.66744   -17.992792    20.379314    33.425925    40.087062 
160792000    260.55056    311.69703    300.04078   -17.553989    17.717922     11.65625    40.086874 
160796000    276.70293    330.31561    304.69381    -19.50396     18.70177    25.621793    40.086217 
160800000    260.94939    326.38743    278.66333   -20.688036    19.086951      47.7241    40.084841 
160804000    261.91045    312.93449    282.36922   -19.866357    19.521699    30.565275    40.082461 
160808000    276.13515    368.87174    278.10346   -20.547408    19.763053     90.76828    40.082683 
160812000    267.26727     302.6418    287.59413    -18.51094    18.682212     15.04767    40.084692 
160816000    260.49309     328.7918    273.40058    -19.06942    19.999252    55.391223    40.083463 
160820000    269.96832    326.44114    291.82563   -18.804926    19.020587    34.615517    40.081819 
160824000    267.42693    336.45852    289.32378   -18.825967    19.336482    47.134733    40.079895 
160828000    268.06643    324.92319    270.18824   -18.496933    19.995412    54.734947    40.080652 
160832000     264.5986    325.95976     284.1301    -17.89506    19.357127    41.829658    40.079949 
160836000    262.28573    342.22066    261.06233   -19.589687    20.818909    81.158323    40.079804 
160840000    265.93688    335.52626     280.5854   -18.706433    20.475302    54.940866    40.079301 
160844000    263.77563    314.75237      306.559   -17.578126    17.952844    8.1933732     40.07766 
160848000    254.80167    295.24289    287.14939   -18.092857    19.782181    8.0935042    40.078075 
160852000    267.82302    330.67887    288.96294   -18.937455    19.407027    41.715931    40.078467 
160856000    259.94128    314.04344    275.18619   -18.313027    20.164674    38.857254     40.07715 
160860000    263.92219    337.54367    274.34806   -18.338989    19.710401    63.195615    40.077214 
160864000    267.94212    339.09282    294.93552   -18.511294     19.07722    44.157298    40.080276 
160868000    268.48925    318.95414    302.23551   -18.291851    18.769436    16.718621    40.080972 
160872000    266.44625      323.004    303.50435   -19.950154     18.71614    19.499646    40.081886 
160876000    273.23424    359.99884    274.90865   -20.328116    20.745858    85.090195    40.083177 
160880000    252.91011    307.47078    265.03898   -17.726945    20.656752    42.431798    40.082208 
160884000    256.34713    302.13911    272.61333   -17.587143    19.391098     29.52578    40.083833 
160888000    266.77523    330.77952    286.14304   -18.338625     19.19538    44.636485    40.086404 
160892000    263.28155    319.62752    273.54409   -20.241812     18.92657     46.08343    40.085794 
160896000    259.68678    305.70864    280.85714   -19.683555    19.817852    24.851508    40.084117 
160900000    275.08379    341.86586     279.8716   -21.112373     19.64798    61.994259    40.087833 
160904000    261.30117    321.10484     268.6201   -19.650912    19.574631    52.484737    40.086889 
160908000    258.60387    304.28126    278.42684   -17.918687    19.274525    25.854416     40.08845 
160912000    265.30668     337.4285    283.24709   -19.929617    19.276427    54.181414    40.090035 
160916000      261.146    317.05769     272.0481   -19.427893    18.724333    45.009584    40.089564 
160920000    263.94172    332.32032    272.76468   -20.845708    17.954755    59.555647    40.088796 
160924000    270.71476     324.8171    281.70543   -20.626125    19.100201    43.111668    40.089413 
160928000    275.22703    339.60952    299.33561   -19.638202    19.579987    40.273908    40.088962 
160932000    275.21679    345.58826    298.48778   -19.762097    18.364711    47.100472    40.087936 
160936000    271.92839    315.21999     290.0376   -19.370712    18.046633    25.182383    40.086217 
160940000    265.64787    337.47334    277.48496   -18.869595    18.129252    59.988385    40.086894 
160944000    265.46535    321.69858    273.73241   -19.217311    19.534385    47.966173    40.087779 
160948000    269.78712    314.24551    285.01943   -19.312215    19.235047    29.226079    40.088571 
160952000    252.50093    296.88162    248.54409    -18.72565    19.805886    48.337534     40.08888 
160956000     276.7328     328.8646    278.64181   -19.333805    18.996999    50.222789    40.087662 
160960000    270.60127    332.25115    279.45908   -18.735662    19.254192    52.792062    40.085799 
160964000    270.36988    324.86347    282.31743   -19.492406    19.363507    42.546039    40.085959 
160968000    273.44747    342.00435    272.09839   -20.042235    19.544577    69.905961     40.08714 
160972000    276.49602    332.45752    289.72607   -21.479087    18.137775    42.731454     40.08824 
160976000    272.39144    338.98124    266.20445   -20.680613    19.099081    72.776784    40.085198 
160980000    264.77557    329.64437     255.8286   -19.793133    19.908196    73.815766     40.08527 
160984000    265.42458     318.9129    269.89687   -18.676777    19.160325    49.016029    40.083925 
160988000    267.23702    305.91031    288.92623   -18.811056    18.407302    16.984079    40.082679 
160992000     269.0451    314.86463    290.25181   -18.660752    18.353384    24.612813    40.080577 
160996000    262.56881    295.54496     266.6821   -19.027198    18.903231    28.862862    40.082111 
161000000    268.99713    290.65949    307.08633   -18.398742    17.210596    -16.42684    40.082818 
161004000    273.73574    318.40168    298.26865   -21.152323    17.135092    20.133028    40.082452 
161008000    275.71587    323.95761    292.78378   -21.636511    16.853518     31.17383    40.085373 
161012000    262.81298    322.04145    270.51665   -21.250568    19.269013    51.524799     40.08747 
161016000     269.7903    315.87679    293.85683   -19.961586    18.590212    22.019958    40.086933 
161020000    267.41748    341.34688     278.2258   -20.519642    19.397586    63.121072    40.088158 
161024000    268.47182    311.73024    298.88485    -18.72423    18.859776    12.845391    40.087775 
161028000    258.11037    311.70671      274.446    -18.36595    18.333267    37.260702     40.08738 
161032000    257.49296    300.36675    280.30841   -19.057571    19.862465    20.058342    40.086372 
161036000    259.93178    321.91428    259.46403   -20.285365    20.737388    62.450251    40.085865 
161040000     272.3047     347.2635    283.47388   -20.461874    20.095215    63.789629     40.08557 
161044000    255.20818    302.56635    264.22165   -19.017902    20.304721    38.344698    40.088404 
161048000    272.41424    312.88905    295.39579   -18.683447    19.152568    17.493261    40.087402 
161052000    262.01125    321.61713     271.9604   -19.102932    19.404475    49.656724     40.08739 
161056000    264.34938    339.51855    272.60531   -19.895137    19.848073    66.913235    40.086926 
161060000    267.44112    328.62125    280.91104   -19.735988    19.536018    47.710204    40.085035 
161064000    258.59481    308.68966    269.34875   -18.119351    20.078843    39.340909    40.085883 
161068000     266.4553    326.67709    289.34759   -19.328842    19.243813    37.329495    40.086395 
161072000    267.15629    341.68554    276.65821   -20.093163    20.021659    65.027334    40.086827 
161076000    254.28426    290.36577    259.15227   -19.091121    20.826549    31.213503    40.086006 
161080000    256.88693    311.92324    267.89846   -19.838507    19.563305    44.024777    40.086287 
161084000    268.32661    327.59138    282.54192   -20.166458    19.263985    45.049456    40.086613 
161088000    264.87908    327.91239     269.5627   -21.069583    20.802367    58.349684      40.0883 
161092000     264.0689    306.06922    284.00351   -19.930816    19.042373    22.065712    40.088828 
161096000     262.6491    313.88495    266.58928   -20.311519    20.470782    47.295676    40.088498 
161100000    266.44145    315.72057    296.25095   -19.121323    18.341578     19.46962    40.086945 
161104000    267.15823    337.75068     274.9164   -19.848487    20.191001     62.83428    40.088182 
161108000     262.7632    321.01669     289.0476   -17.941964    19.917096    31.969094    40.090087 
161112000    270.55991    332.79274    282.27371   -19.546081    18.824741    50.519036    40.088993 
161116000    248.90163    305.27441    260.52186   -19.295393    20.909246     44.75255    40.089777 
161120000    267.74126    319.32445    288.69529   -19.399384    19.142688    30.629161    40.091262 
161124000    267.56247    338.49982    295.82416   -19.538827    19.373899    42.675653    40.091908 
161128000    261.00015    305.84912    272.64035   -18.855461    20.010802    33.208764    40.089351 
161132000    262.69865    341.42839    266.57384      -21.207    21.030267    74.854554    40.090047 
161136000    259.24757    324.88465    271.27868   -18.958651    20.707919    53.605968    40.091175 
161140000    256.31909    317.44513    269.03407   -20.001642    20.374709    48.411065    40.089946 
161144000    256.14562    313.60098    282.72603   -18.837348    19.849374    30.874947    40.089275 
161148000    268.37425    345.61026    277.08672   -20.286505    20.401554    68.523541    40.088445 
161152000    269.95989    325.22084    283.70825    -19.06668    19.374729    41.512593    40.088111 
161156000     258.7052    308.48257    272.54505   -18.634262    20.013819    35.937527    40.088654 
161160000    270.20698    342.43188    291.57303   -19.313943     19.21573    50.858848    40.087318 
161164000    275.94426    341.15489    296.24293    -19.54569    19.158922    44.911963    40.087993 
161168000    264.94198     327.8889    296.38108   -18.657513    19.212813    31.507822    40.088979 
161172000    276.03411    353.34385     301.5359   -19.581397     19.16377    51.807955      40.0886 
161176000    263.82139    324.41014    270.38174   -21.167637    21.595658    54.028402    40.087756 
161180000    256.94162    312.58713    264.45035   -20.170764    21.322802     48.13678    40.085226 
161184000    270.23504    328.53937    288.06782   -20.839152    20.101351    40.471546    40.086273 
161188000    258.60601    306.68456    253.24771   -20.111278    20.727395    53.436855    40.087468 
161192000    261.80814    335.92276    269.20768   -20.874629    20.578754    66.715078    40.089708 
161196000    259.43202     313.1774    267.04246   -19.051712    21.691684    46.134942    40.091667 
161200000    264.64355    329.06374    273.06143   -20.159091    21.665786    56.002316    40.093309 
161204000    271.32221    354.96448    272.51931   -21.790471    21.047226    82.445169    40.091825 
161208000    259.12337    332.07205    260.55541   -20.205545    20.227572    71.516642    40.093714 
161212000    264.13354    316.31079    262.11185   -19.378111    20.697848    54.198941     40.09651 
161216000    258.91072    311.35607    278.82777   -19.716775    20.973476    32.528304    40.094401 
161220000    279.33866    321.56516    301.20417   -20.748094    19.194488     20.36099    40.092861 
161224000    259.72148    295.31482    279.87624   -18.290971    20.211972    15.438581    40.093622 
161228000    267.76042    343.18636    291.93798   -21.606077    20.705062    51.248383    40.093998 
161232000    262.84293    314.64694     276.5336   -21.137512    20.648178    38.113347    40.094844 
161236000    263.53725    315.56519    286.51775   -20.290194    21.241599    29.047448    40.094669 
161240000    269.59658    340.37149    278.92188   -20.563001    20.723596    61.449603    40.093742 
161244000    261.64743    336.92359    258.27158   -20.687789    21.032013    78.652015    40.094903 
161248000    259.20942    321.22626    285.57485   -18.742645    20.360884    35.651415    40.096414 
161252000    259.65707    317.68016    275.89456   -20.433423    21.612608    41.785606    40.097194 
161256000    255.31959    320.76765    285.79086    -19.11481    21.894627     34.97679    40.096058 
161260000    254.18469    310.90611    258.07795   -19.428249    22.183979    52.828151    40.096951 
161264000    257.48891    321.42155    258.70818   -20.303706    21.440563    62.713377    40.098041 
161268000    263.58882     324.5815    288.18468   -20.456443    20.699645    36.396824    40.097064 
161272000    263.95728    317.29349    288.65591   -20.907354    21.248707    28.637578     40.09935 
161276000     262.9866     321.4098    268.84994   -20.739293    21.622166    52.559865    40.099443 
161280000    260.24926    310.34854    289.34102    -19.94888    20.231602     21.00752    40.100663 
161284000    265.00555    332.67079    280.55876   -20.509215    21.368364     52.11203    40.101211 
161288000    270.02435     328.3557    291.97293   -20.398759     19.69622    36.382764    40.100769 
161292000     267.7439    326.35929    293.98857   -21.942757    20.001438    32.370719    40.100989 
161296000    277.26038    347.87663    307.52895   -20.867268    20.635823    40.347681     40.10116 
161300000    261.83212    311.18438    287.25621   -18.798735     22.05159     23.92817    40.104462 
161304000    257.45621    313.76655    273.29159   -19.196845    22.913396    40.474968    40.104122 
161308000    265.16393    341.85097    269.53958   -21.008464    22.599381     72.31139    40.102453 
161312000    258.20581    314.18705    281.37729   -19.829647    21.448624    32.809763    40.102382 
161316000    258.48003     316.2842    267.81451   -19.078504    21.997865    48.469684    40.102298 
161320000    252.83237    285.77921    302.67751   -17.173491    20.545594   -16.898294    40.102151 
161324000    261.24118    307.54833    275.46703   -19.551583    21.177779    32.081296    40.103017 
161328000    266.23022    323.25518    277.97101   -20.107057    20.962349    45.284164    40.102166 
161332000    270.97236    343.71062    298.08523   -20.181892     20.03315    45.625389    40.104028 
161336000    267.67724    300.12994    299.35656    -18.92363    19.309066   0.77338345    40.105576 
161340000    283.90378    352.36915    293.69318   -20.615257    19.884474    58.675969    40.104284 
161344000    264.28834    324.06656     264.8586   -21.297286     21.08706    59.207964     40.10535 
161348000    261.18223    312.08287    267.30452   -20.287096    20.463726    44.778351    40.103881 
161352000    272.45627    343.22349     278.6865   -20.530086     20.31485    64.536992    40.104015 
161356000    267.74578    350.87905    283.22158   -22.633859    20.290507    67.657478    40.104591 
161360000    265.32028    314.24786     294.7924   -20.710848    20.299857    19.455453    40.102056 
161364000    264.12713    338.64894    272.40234    -21.92992    21.456566    66.246606    40.102495 
161368000    268.28285    316.48201    289.35207   -20.661567    20.253867    27.129932    40.103108 
161372000    274.25944    318.82554     326.4691   -20.216224    19.841523   -7.6435511     40.10473 
161376000    271.93267    349.89973    271.20284   -21.924165    21.181099    78.696886    40.105078 
161380000    263.97991    319.72531    286.24922   -20.083932    20.718222    33.476093    40.107013 
161384000    260.29357    299.48184    290.57476   -19.637386    19.348004    8.9070806    40.106246 
161388000    268.94995    342.00294      271.511   -22.094042     22.05906    70.491946    40.104824 
161392000    264.48055    338.31271    278.35691    -21.24275    21.510265    59.955795    40.102434 
161396000    253.76469    292.71353    296.87458   -19.307569    20.790101   -4.1610506    40.101198 
161400000    260.69975    319.47708    279.22214   -20.203018    21.195735    40.254933    40.101486 
161404000    275.17885    320.61347    286.83279   -21.412608    20.974685    33.780673    40.101694 
161408000    273.18859    324.56704    310.65794     -21.5747    19.784198      13.9091    40.100311 
161412000    271.22816    322.15051    299.55633   -20.131408       19.797    22.594176    40.102869 
161416000    270.96268    334.02955    285.31603   -21.622563    19.985082    48.713522    40.102213 
161420000    262.54653    325.71048    284.34811   -20.406409     21.15706    41.362366    40.103331 
161424000    270.16668    334.26355    296.14717    -21.14348    20.427913    38.116377    40.102696 
161428000    252.59192    312.50988    269.18359   -19.978865     21.83324    43.326287    40.101743 
161432000     259.9675    313.23499    275.86455   -20.183589     21.79146    37.370436    40.103235 
161436000    260.86594    329.61494    276.05079   -20.565386    21.244389    53.564149    40.104109 
161440000    259.08589    322.65886    285.06425   -21.253384     21.38081     37.59461    40.103443 
161444000    257.92498    310.16736    276.97585   -21.606219    21.426507    33.191513    40.103948 
161448000    271.15312    345.87214    283.02494   -21.846531    22.014172    62.847201    40.106434 
161452000    250.38951    312.77101    276.06106   -20.418365    21.969631    36.709949    40.103304 
161456000    268.72285    331.56645    284.62242   -21.031183    22.272057    46.944035    40.102271 
161460000    270.53163    330.14857     291.6949   -20.610634    21.888893     38.45367    40.102955 
161464000    263.76277    314.33873    304.62574   -20.369822    21.669333    9.7129852    40.100151 
161468000    273.48838    342.24873    289.47449    -21.41971    21.266375     52.77424     40.09948 
161472000    270.97758    334.38347    289.44769   -22.141439    21.020007     44.93578    40.098355 
161476000    269.38717    334.08073    285.34885   -21.306428     21.22957    48.731883    40.099282 
161480000    261.90812     301.0105    279.95915   -21.098969    20.926575    21.051353    40.097124 
161484000    270.74497     329.2497    278.77987   -20.773061    20.612158    50.469833    40.097027 
161488000    261.81518     313.5065    266.76681   -21.031783    21.207082    46.739688    40.100484 
161492000    261.29586    300.38179    284.07895   -20.124151    20.173488    16.302844    40.100848 
161496000    268.77294    322.35389    282.05133   -20.793922    21.931816    40.302556    40.101129 
161500000    259.85791     327.8168    260.24618   -20.564341    22.758651     67.57062    40.103747 
161504000    273.10478    328.69328    297.36888   -21.117828     20.86037    31.324394    40.102895 
161508000    268.55807    345.97146    282.66197   -21.375178    21.420901    63.309484    40.102614 
161512000    265.35639    309.10668    273.76483   -21.420054    22.763768    35.341851    40.101497 
161516000    267.64999    334.41314    283.93538   -21.629779    21.846122    50.477762    40.100914 
161520000    263.51459    317.21339    263.99979   -20.077654    22.666198    53.213595    40.098802 
161524000    259.75943    318.95415    275.89779   -20.180807    21.981493    43.056361    40.099418 
161528000    266.25597    322.17172    299.38661   -20.567591    20.616837    22.785116     40.09787 
161532000    262.33778    311.51824    276.09188   -20.428372    22.445722    35.426361    40.097842 
161536000    276.95696    347.31936    287.04465    -21.76346      21.5083    60.274704    40.098179 
161540000    258.84448    294.92649    295.83933   -20.098925    20.384332  -0.91283942    40.097156 
161544000    266.47559    325.24465    296.03701   -21.065471    21.705011    29.207644    40.096178 
161548000    270.22192    355.27786    269.93393   -22.346199    22.025091    85.343933    40.096978 
161552000    260.01637    316.55075    267.40668   -19.932814    22.473643    49.144074    40.096481 
161556000    261.46963    308.43157    284.89921   -20.660235    21.476881    23.532359    40.095508 
161560000    263.72719    326.68723    269.52396   -20.993274    22.220089    57.163271    40.096482 
161564000    259.96026    301.51567    280.14324   -20.248552    22.162604    21.372433    40.099107 
161568000    262.20074    331.71858    258.97568   -21.988528    22.546762    72.742902    40.099598 
161572000    265.37864     316.8452    277.30589   -21.812399    21.068727    39.539314      40.0987 
161576000    280.46401    359.71911    286.96121    -22.61389    21.363854    72.757895    40.098399 
161580000    264.68507    331.46585     282.6996    -21.04565    21.607872    48.766248    40.097066 
161584000    271.89388    329.35874     291.2134   -20.779826    20.438273    38.145346    40.098045 
161588000     259.8394    307.66065     278.5538   -19.883794    21.576663    29.106853    40.097925 
161592000    262.79248    312.34523    272.54796   -19.262607    21.626852    39.797274    40.100013 
161596000    265.32243    318.60042    293.61984   -20.837178    20.366829    24.980584    40.099141 
161600000    264.25715     316.0494    279.68066   -20.125814    22.873412    36.368747    40.100914 
161604000    262.51313    312.50572    268.92696   -21.850187    22.044311    43.578755     40.10015 
161608000     262.6025    314.29877    284.69012   -21.704334    22.364373    29.608648    40.100362 
161612000     263.2565    299.97357    285.03591    -19.58668    21.705048    14.937665    40.100784 
161616000    267.76122    323.67263    280.53276   -20.813016    22.730225    43.139868    40.100109 
161620000    266.39894    335.88707    286.43395   -22.352824    21.481166    49.453118    40.100215 
161624000    259.58129    323.25927    268.96484   -20.562315    22.555706    54.294431    40.098439 
161628000    260.02964    308.09174    286.50581   -20.970416    21.845053    21.585932    40.099382 
161632000    269.57545    319.86501    314.67767   -22.005945    20.763291    5.1873411    40.100504 
161636000    256.21265    306.67526     288.4143   -21.272059    21.746439    18.260953    40.102156 
161640000    270.95523    328.01754    281.32645   -21.479115    22.118726    46.691089    40.102362 
161644000    268.34854    319.78141    293.32952   -21.485475    22.048371     26.45189    40.101676 
161648000    262.03891    326.56209    270.87444    -21.55847    22.343591     55.68765    40.100511 
161652000    249.68785    296.39978    263.17304   -20.904486    22.317157    33.226746    40.099697 
161656000    268.02371    319.65629    276.55832   -21.197055    22.367993    43.097973    40.101191 
161660000      266.679    316.85362    283.97616   -21.050505    21.926652    32.877467    40.103007 
161664000     271.4659    334.69418    276.46181   -23.239571    22.073174    58.232376    40.103332 
161668000    269.18549    335.96624    286.68712   -22.985728    21.185217    49.279117     40.10164 
161672000     261.0671    310.04945    273.95957   -21.424693    22.199042    36.089886    40.100529 
161676000    266.53225    344.65279    284.39573   -22.770385    21.683319    60.257057    40.100622 
161680000    264.28338    322.16275    277.87662    -21.94893    21.465319    44.286122    40.101975 
161684000     260.0457    317.06148    271.99574   -21.923496    21.964833    45.065736    40.101836 
161688000    265.40219    347.54834    266.35576   -22.249064    21.852352    81.192588    40.103466 
161692000    256.83165    309.32258    279.31247   -21.415065    21.043684    30.010109    40.102947 
161696000     268.7283    334.66391    285.43664   -21.330923    21.755731    49.227268    40.104794 
161700000    252.83145    291.09588    268.35114   -19.067896    22.234462    22.744742    40.106427 
161704000    267.26089    327.04896    295.71536   -20.879135    21.087991    31.333599    40.107055 
161708000    264.27225    312.47407    292.11289   -20.787885    21.762124    20.361172    40.104574 
161712000    262.28892    313.63086    280.16137   -21.581778    21.385294     33.46949    40.102088 
161716000    263.80033    325.49942    265.77647    -22.04249    23.179617    59.722947    40.103145 
161720000    267.48095    335.32116     271.6005   -23.193308    23.354318    63.720656    40.103743 
161724000    255.60319    290.75989    270.47761    -21.04672    22.640662    20.282273    40.103182 
161728000    261.33325    321.64179     269.8021   -22.357162    21.880462    51.839697    40.103464 
161732000    260.13195    309.55087    273.89616   -21.392611    21.862517    35.654705    40.103443 
161736000    253.37331    310.12181    268.41787   -20.890769    23.305139    41.703941    40.102019 
161740000    266.26793    322.66892    287.28116   -22.082895    21.405416    35.387756    40.099258 
161744000    266.11413     330.5692    271.90254   -22.869293    23.157444    58.666665    40.101363 
161748000    273.55902    336.02244    286.28787   -23.391331    21.411197    49.734562    40.101883 
161752000    276.85797    346.11223    294.60771   -23.329291    20.988462    51.504514    40.102968 
161756000    262.57367    307.08417    270.71266    -21.42184    22.057501    36.371508    40.103223 
161760000    266.74643    330.11334    263.00435   -22.545031    22.989181    67.108995    40.104067 
161764000     265.2733    325.59423    282.58881   -22.928651    22.361938    43.005421    40.104877 
161768000    271.01049    319.78988    275.24373   -22.417801    21.837753    44.546149    40.103652 
161772000     269.7797    316.41301    280.77722   -22.517288    21.763781    35.635792    40.107234 
161776000    271.63892    336.61461    278.96828   -23.346444     22.95874    57.646338    40.108734 
161780000    271.31071    307.05995    287.50075   -21.606903    22.654108    19.559199    40.107448 
161784000    277.82344    329.13678    296.37503   -21.044343    21.181427    32.761755    40.107599 
161788000    267.71939    320.80885    295.20653    -22.59454    22.633168    25.602313    40.108447 
161792000     271.2188    317.90429     286.1987   -22.457983    22.682473    31.705584    40.106043 
161796000    275.64574     349.2644    288.15601   -25.481685    21.029958    61.108391    40.107811 
161800000    268.16532    322.48145    285.10525   -22.954904    20.821879      37.3762    40.108412 
161804000     285.8373    345.40918    286.85659   -24.441736    21.599243    58.552588    40.108055 
161808000    271.35976    341.27768    261.41979   -23.734886    22.190425     79.85789    40.108206 
161812000    274.73623    308.40697    290.20234    -23.98006    21.714602    18.204633    40.107909 
161816000    262.34691    327.88148    257.78831   -22.662803    23.097011    70.093165    40.107794 
161820000    264.99818     305.1677    257.91591   -22.374585    22.772572    47.251787    40.108073 
161824000    272.16985    320.40534    293.82211   -21.484364    22.400064    26.583229    40.108703 
161828000    264.77006    307.39554    291.96473   -21.939268    22.834597    15.430808    40.110544 
161832000    268.75614    344.42796    276.57384   -22.891341    23.286431    67.854124    40.109936 
161836000    276.71035    341.65866    289.85237   -22.424527    23.230675    51.806289    40.110972 
161840000    265.94687    303.99257    305.06451   -21.650336         22.1   -1.0719428    40.109544 
161844000    263.27079    321.26774    287.99572   -22.566465    23.107376    33.272014     40.10843 
161848000    263.98334    332.08481    257.32513   -24.272864    24.330762    74.759682    40.110362 
161852000    262.33709     317.6189    276.45567   -22.768977     23.69311    41.163229    40.110025 
161856000    264.25756    327.67569    265.57848   -22.797855    23.440589    62.097213    40.108178 
161860000    259.61232    290.70386    308.54896   -21.308292    21.357717   -17.845109    40.107718 
161864000    266.73635    311.35332    286.24938    -22.39387    21.204307    25.103944    40.107336 
161868000    260.43747    315.15272    271.96972   -22.523262    23.120249    43.182995    40.108373 
161872000    262.58197    312.01563    281.05956    -23.25204    22.825055    30.956066    40.109653 
161876000    265.13394    316.62226    295.31767   -22.983628    22.764035    21.304591     40.11093 
161880000    274.38589    328.18842     288.9514   -22.913207     21.95232    39.237029    40.109183 
161884000    270.22677    322.45773    286.16674   -22.013662    23.174934    36.290994    40.108782 
161888000    261.45049    312.58755    272.25477   -22.440936    23.211207    40.332772    40.108357 
161892000    263.32406     338.1073    271.21246   -22.749067    22.512696    66.894839     40.10757 
161896000    254.90583    322.72774    271.96422   -22.449553    23.628287    50.763516    40.109424 
161900000    271.39685    345.20672    278.52573   -22.232371    23.269163    66.680994    40.109737 
161904000    259.10974    312.83479    268.28682   -21.993365    23.115197    44.547964    40.110562 
161908000    256.39875    299.85685    259.39275   -21.195342    23.369057    40.464092    40.108829 
161912000    264.28381    339.26455    257.53642   -22.059819    23.687597    81.728128    40.108162 
161916000    259.25803    305.71428      286.266   -20.440386    22.829532    19.448282    40.106154 
161920000    266.35508    311.35232    292.78293   -21.370144    22.444245    18.569384    40.106853 
161924000      263.562    316.66092    268.19636    -22.39288    22.945607    48.464553     40.10612 
161928000    278.73194    354.68094    285.32603   -23.927568     21.67987    69.354913     40.10694 
161932000    266.44973    315.89003    285.78768   -21.325894    22.020391    30.102352    40.107603 
161936000    260.91606    321.55058    257.00244     -21.4583    23.030196    64.548145    40.107772 
161940000    261.25797    304.79422    284.76013   -20.746977     22.16316    20.034091    40.105458 
161944000    263.60702    321.85231    270.41414    -21.42294    22.352887    51.438171    40.105048 
161948000    257.93562    306.78854     272.0279   -22.220436    21.710654    34.760642    40.103502 
161952000     265.3249     337.0224    278.43843   -22.901845    21.964314    58.583968    40.105911 
161956000     269.3361    311.55404     272.3855   -21.900466    22.194663    39.168532    40.105462 
161960000    270.13471    328.07939    289.31305   -22.750098    21.277156    38.766342    40.106464 
161964000    267.01695    299.95129    291.76853   -21.454844    20.854264    8.1827579    40.105228 
161968000    267.08556    335.73153     267.8873   -22.292877    21.919697    67.844229    40.107499 
161972000    266.06422    311.24073    299.27146   -22.741887    21.267007    11.969274    40.105966 
161976000    262.19642    301.88543    275.02412   -22.729122    21.707036    26.861305    40.106957 
161980000    262.99496    303.75572    274.59414   -22.459773    22.202981    29.161575    40.105944 
161984000    261.60537    322.86974    273.73968   -23.447614     22.64083    49.130061     40.10671 
161988000    262.25942     321.8886    273.97178   -23.232959    23.256607    47.916823    40.106167 
161992000    275.00286    317.82078    308.51893   -23.341276    21.472333    9.3018521    40.106232 
161996000    259.37479    294.15691     272.0003   -21.657065    22.336849     22.15661    40.105145 
162000000    268.49606    320.10005    279.73404   -23.807467    21.627326    40.366012    40.106684 
162004000     275.0231    334.70722    280.11013   -24.071213    21.389758    54.597091    40.105171 
162008000    268.39635    321.20828    275.97508   -23.148537    22.334693    45.233205    40.106348 
162012000    265.90206    322.56363    262.15826   -22.921041    22.960614    60.405369    40.108253 
162016000    268.49915    310.23195    290.57758   -22.883104    22.038435    19.654377    40.110092 
162020000    265.27276    301.34954    286.68934   -22.354198    21.360311    14.660204    40.110073 
162024000     279.0671    336.87226    303.51057   -23.881981    21.385612    33.361682    40.109959 
162028000    263.12303    330.91702    266.85811   -22.076015    23.084194    64.058907    40.109641 
162032000    262.70068    298.70425    307.38031   -21.036567    21.934326   -8.6760619    40.109751 
162036000    260.42951    319.06592    268.92075   -20.781062     22.81439    50.145169    40.111096 
162040000    253.34521    285.69167    282.02234   -20.069212    21.918045    3.6693326    40.108131 
162044000     263.5438    320.61602    286.62226   -20.602133     21.42675    33.993756    40.108836 
162048000    250.59635    311.29481    258.37063   -21.135393    23.703586    52.924177    40.109071 
162052000    263.81565    320.43647    289.70996    -22.53253    21.879857    30.726502     40.10826 
162056000    261.20212    328.84888    263.90188   -21.759967    23.211531    64.946999    40.108711 
162060000    271.49881    352.10254    284.87975    -22.60656     21.65229     67.22279    40.108863 
162064000    261.55658    303.41818    297.44946   -21.367633    21.410232    5.9687139    40.109297 
162068000    263.64021    305.63533    284.67874   -19.964239    22.651351    20.956587    40.109859 
162072000    259.39945    322.53402    280.83709   -20.877169    22.358698    41.696929    40.106398 
162076000     254.9417    294.60197    280.10425   -19.766231    22.669734    14.497725    40.107145 
162080000    266.49468    322.18114    296.53106   -20.797756     22.09495    25.650079    40.108164 
162084000     265.4936    335.68035    268.62874   -22.044034    22.430561    67.051607     40.10869 
162088000     256.5048    316.97505    272.43502   -21.861745    22.802314    44.540038     40.10677 
162092000    268.31242    346.35423    274.56412   -22.600854    22.957035    71.790111    40.108635 
162096000    250.71968    275.76031    265.28518   -20.579696    22.811212    10.475129    40.106541 
162100000    267.25427    317.04884    298.18773   -21.381088    22.152586    18.861116    40.106291 
162104000    264.45764    318.62135    280.25323   -22.413622    22.450648    38.368126    40.107497 
162108000    258.02386    291.56707    294.47901   -19.838651    22.015675   -2.9119388    40.107152 
162112000    262.54778    327.58848    287.17938   -20.494553    23.051981    40.409107    40.108783 
162116000    261.93517     318.2021    281.71427   -21.571312    22.827988     36.48783    40.110206 
162120000    259.31464    308.16615    268.53816   -21.249688    22.557115    39.627997    40.109321 
162124000    261.77254     316.2317    291.88509   -21.278769     23.35074    24.346607     40.10888 
162128000    261.92967    314.52948    281.95162   -21.402209    23.165271    32.577863    40.109302 
162132000    263.28763    314.88315    286.70178   -20.987469    22.844813    28.181371    40.107338 
162136000     265.3657    322.78717    278.18852    -21.67324    23.161102    44.598646    40.108938 
162140000    262.69833    323.55488    277.78757   -21.915611    23.060883    45.767306    40.109066 
162144000    263.93013    320.81723    292.22148   -23.017176    22.735949    28.595753    40.109517 
162148000    270.21368    320.74952    297.27631   -23.552649    22.195468    23.473211    40.110194 
162152000    255.12774    301.83201    271.06721   -20.955362    22.250406    30.764794    40.110322 
162156000    268.41312    325.54842    283.75415   -22.043857     22.37105    41.794265    40.109711 
162160000    272.51248    322.12433    301.61597   -22.074204     22.76353    20.508353    40.107908 
162164000    262.17692    306.83772    282.76363    -20.48379    22.103633    24.074096     40.10925 
162168000    265.99446    325.26319    279.21789   -21.888619    22.632542    46.045299    40.110399 
162172000    255.64498    306.03605    277.34966   -21.979588    22.501039    28.686393    40.111589 
162176000    274.66833     348.5597    282.07313    -23.10499    22.399472    66.486568    40.110886 
162180000     257.8104     312.0083    267.65513   -22.156809    22.880363    44.353173    40.110913 
162184000    264.94042    320.31835    286.02415   -22.150632    21.152566    34.294194    40.109971 
162188000    269.16961    317.13867    287.85381   -21.844932    21.917883    29.284858    40.109771 
162192000    289.89017    368.82492    301.79382   -24.465715     21.48237    67.031094    40.111328 
162196000     272.3261    343.30926    262.08796   -24.211666    22.726355    81.221299    40.110045 
162200000    275.92388    307.28201    293.65577   -22.491854    20.794098    13.626239    40.108402 
162204000    273.37748    349.47443    268.91597   -24.012805    22.653991    80.558462    40.107462 
162208000    263.02196    324.13275    267.37982   -23.350719    21.638627    56.752926    40.106112 
162212000    262.48575    309.82786    279.65028   -22.544233    21.094951    30.177584    40.107301 
162216000    260.71208    315.30807     269.5661   -21.716932    22.230556    45.741969    40.108595 
162220000    272.68958    315.72194     295.9021   -21.848635     20.72755    19.819841    40.109147 
162224000    265.65032    312.64099    283.26822    -21.36356    22.429943    29.372774    40.108626 
162228000    259.76853    303.38522    278.28286   -19.600596    22.650673     25.10236    40.111149 
162232000    260.82371    331.10706    256.60968   -20.549182    21.672565    74.497383    40.111857 
162236000    255.51997     322.7574    264.27471   -20.663212    21.295539    58.482689    40.110907 
162240000    252.84647    291.97374    284.11792   -19.854615    20.411826    7.8558162     40.11224 
162244000    269.94558    330.48973     279.8766   -21.143581    21.682083     50.61313    40.112492 
162248000    266.99586    332.01604     291.4023   -20.719808    21.268919    40.613738    40.111598 
162252000    263.03466    315.00992    272.69527   -20.645354    21.420379    42.314653    40.112948 
162256000     265.3922     324.3062    276.65099   -20.857473    21.452303    47.655211    40.112593 
162260000    257.77858    288.96091    269.26372   -20.845769    23.060095    19.697187    40.110291 
162264000    268.72432    321.18738    285.60667    -22.74965     21.94839    35.580711    40.109599 
162268000    272.98644    312.96487    278.37172   -20.943469    21.600061    34.593148    40.110522 
162272000    262.79808    316.51224    286.99012   -21.293755    21.860219     29.52212     40.10981 
162276000    266.98694    325.44754    287.19155   -22.351676    20.463437    38.255992    40.108804 
162280000    267.20097    333.23354    280.84382   -21.975273    21.229032    52.389727    40.107493 
162284000    270.19713    327.54334    293.30064   -22.298503    21.235717    34.242694    40.106817 
162288000    266.22564    310.50529    283.31176   -22.850985    21.811168    27.193537    40.104252 
162292000    267.05739    331.66088    282.70668   -22.649669    22.005063    48.954203    40.104322 
162296000    270.05093    336.45017    294.62412     -22.0688    21.731469    41.826046    40.102761 
162300000    271.94857    317.00958    292.54891   -22.867271    22.490523    24.460674    40.101594 
162304000    263.99598     302.1046    309.75917   -22.054486    20.636686   -7.6545752     40.10063 
162308000    266.44922    311.67598    297.16963   -22.448673    21.669626    14.506349     40.10102 
162312000    253.88288    315.18708    259.84306     -22.2849    21.318512    55.344022    40.100004 
162316000    266.27573    327.27995    291.74419   -22.267199    21.620472    35.535756    40.099495 
162320000    270.19543    344.21885    276.53548   -22.456175    22.354155    67.683377    40.098884 
162324000    260.36068    300.24702    288.17302   -20.852216    21.896406    12.073999    40.096762 
162328000    275.30545    324.72727    304.17973   -23.544622    21.671735    20.547544    40.097447 
162332000    263.15726    327.00464    269.52846   -22.397115    23.649997    57.476186    40.094412 
162336000    258.46628    295.36585    288.23729   -21.494371    22.000886    7.1285626    40.093315 
162340000    254.00894    294.32646    274.46564   -20.347643    23.452501    19.860817    40.092445 
162344000    265.91919    323.41016    285.15796   -22.519424    22.706614    38.252197    40.091182 
162348000    262.32722    329.88831     265.7283   -22.230702    23.707911    64.160011    40.091721 
162352000    259.83722    343.46688    263.58078     -21.9722    24.691275    79.886097    40.091483 
162356000    253.17586    306.68267    258.58805     -21.9013    23.956801    48.094621    40.092275 
162360000    257.89918    329.65696    278.93474   -22.906199    23.600766    50.722221    40.092957 
162364000    262.95411    300.71355    285.76032   -22.156028    23.726741    14.953231     40.09122 
162368000    258.87653    340.41898     259.8662   -23.277428    24.094586    80.552784    40.090232 
162372000    265.65271    328.58822     292.5611   -23.529736    22.924013    36.027115    40.090428 
162376000     256.2592    309.54176    282.78327   -22.339544    22.544274    26.758493    40.090313 
162380000    266.87468    327.14008      279.616   -23.797227    22.258151    47.524084    40.089941 
162384000    272.50996    339.16088    285.48578   -23.599535    22.850673    53.675099    40.090336 
162388000    259.98333    328.22912    256.27582   -22.686971    23.163208      71.9533    40.090356 
162392000    263.06431    303.77158    276.69466   -23.076133    22.197587    27.076924    40.089373 
162396000    275.26384    332.85107    293.57576   -23.368017    21.974097    39.275309    40.090309 
162400000    265.22996    320.63828    292.76057     -23.0346    21.678711    27.877707    40.090478 
162404000    264.71162    315.56232    298.98417   -23.455949    21.093278    16.578146    40.093069 
162408000    272.52834    351.25845    288.03352   -23.511412    21.382069    63.224929    40.093316 
162412000    271.22383    326.13557    295.85831   -22.867519    21.717327    30.277266    40.092188 
162416000    261.64766    306.60429    275.47986   -23.104462    22.387206     31.12443    40.093425 
162420000    265.75243     339.9359    268.88423   -24.485516    22.694261    71.051669    40.093614 
162424000    267.16391    323.17231    298.73989   -22.344882    22.422556    24.432411    40.093972 
162428000    259.32458    309.68644    259.75637   -22.326357    23.607491     49.93007    40.095882 
162432000    274.92608    326.13289     298.3105   -23.306537    21.699783    27.822386    40.094241 
162436000    270.01515    331.23148    298.58301   -23.760873    21.182464    32.648466    40.094531 
162440000     259.1091    315.60476    262.07113   -21.504057    22.891918     53.53363    40.095188 
162444000    259.23041    320.39819    264.95247   -22.282512    23.032612    55.445713    40.094873 
162448000    278.66927    336.90455    295.97746   -23.485587    22.715486    40.927087    40.095733 
162452000    266.98325    311.96054    275.08538   -23.624035    23.173764    36.875158    40.095161 
162456000    271.04874    302.18874    284.74133   -22.727959     22.31732    17.447404     40.09438 
162460000    258.22948    312.94886    265.79939   -22.186368    23.001269    47.149466    40.094795 
162464000    255.89115    314.17659    254.55128   -21.678933    22.382894    59.625312    40.095751 
162468000    265.24666    329.42686    263.94698    -23.22744    23.278943     65.47988    40.096256 
162472000    271.23917    329.55246    279.03118   -22.826404    23.565238     50.52128    40.095218 
162476000    266.56881    314.51448    282.20512   -22.473001    22.327348    32.309358    40.094414 
162480000    275.83032    341.45793    269.91664    -24.39166    23.388085    71.541289    40.094305 
162484000    266.53058    336.42614    259.39753   -23.749644     23.79764    77.028605    40.093253 
162488000    271.55399    337.90576     295.6326   -23.237577    22.380786    42.273163    40.093569 
162492000    274.12514    351.85713    267.22415   -24.701521    23.675498    84.632986    40.094094 
162496000    270.31691    312.95599    288.30817    -22.76589    22.354052    24.647826    40.093448 
162500000    270.76718    345.03073    278.57683   -23.650292    22.708422    66.453901    40.093059 
162504000    262.93137     326.7793    272.09883    -22.88864    23.842341    54.680478    40.093048 
162508000    263.85753    318.13119    274.66901   -23.247405     23.56762    43.462178    40.095383 
162512000    256.48204    302.32763    255.54552   -21.342384     24.47821    46.782103    40.094773 
162516000     277.3594     343.5145    287.83226   -24.151736     23.53794    55.682245    40.094381 
162520000    258.24603    340.92571    258.11567    -23.26517     23.88495    82.810041     40.09616 
162524000      258.594    320.06618    265.18844    -22.91232    23.948355     54.87774     40.09526 
162528000     263.8251    322.36249    277.16836   -23.002721    23.612021    45.194135    40.097602 
162532000    274.05849    355.11101    286.15967   -24.115073    22.938419     68.95134    40.097698 
162536000    267.07404    301.13356    299.97429   -23.122815    22.435582    1.1592628    40.097744 
162540000    274.78951    337.15894    286.59625   -24.177541    22.617756    50.562696    40.100214 
162544000    265.83128    311.19221     287.1995   -22.836398    22.982104     23.99271    40.099518 
162548000    277.47061    322.27992    294.10889   -23.138793    21.715539    28.171031    40.097588 
162552000    266.05885     319.6874    278.24712   -22.745803    22.516272    41.440282     40.09838 
162556000    276.49652    320.13194    288.80671   -23.425388    22.622993    31.325228    40.097626 
162560000    271.56198    310.32397    291.50606   -22.292019    22.414455    18.817914    40.098189 
162564000    271.88492    326.58116    255.56474   -23.447334    23.922765    71.016426    40.097143 
162568000    258.91979    296.15916    266.45918   -23.062467    23.265242     29.69998    40.097736 
162572000     264.6615    321.50863    267.71438   -23.226165    23.104901    53.794247    40.097101 
162576000    263.50116    300.57958    280.21753   -21.972419    22.573847     20.36205    40.096205 
162580000    265.84653    317.57496     292.2913   -22.139757    22.066938    25.283661    40.095835 
162584000    269.94814    328.73961    277.46582   -23.510473    22.720717    51.273785    40.095407 
162588000    271.81034    308.76728    289.78088   -23.185422    21.890918    18.986402    40.096471 
162592000    264.23288    337.14532    261.87696   -24.196129    22.458109    75.268351    40.098257 
162596000    275.82651    335.27154    285.15874   -22.930669    21.812221    50.112806    40.100615 
162600000    284.78086    352.23212    302.33935   -24.975348     20.96386    49.892774    40.100775 
162604000     266.6484    325.41865    285.19913   -22.989096    22.955955    40.219516    40.099461 
162608000     266.7493    325.16364    277.97276   -23.083205    24.022307    47.190875     40.10089 
162612000    263.13309    328.10313    273.70581   -22.928457    23.400827    54.397318    40.101001 
162616000    272.06652    313.59182    291.27478   -22.154567    22.296636    22.317042    40.099884 
162620000     266.7552    318.55322    277.08354   -23.780414    22.532524    41.469677    40.100033 
162624000    271.71987    319.27472    289.75357   -23.117633    21.587455    29.521154    40.101099 
162628000     265.2009    302.85262    269.27507   -23.496204    23.167343    33.577541    40.102588 
162632000     271.8089     341.6535    271.39408   -23.905935    23.334385    70.259421    40.103495 
162636000    268.08548    307.83455    282.98656   -22.780354    22.792605    24.847985    40.103446 
162640000    262.95324    316.00886    289.06475   -22.430524    22.750267    26.944105    40.103207 
162644000    266.63551    322.62501    277.54984   -22.811758    22.930825    45.075165    40.103564 
162648000    272.85789    334.63269     275.9575    -24.20408    23.001352     58.67519     40.10397 
162652000    268.16824    320.83402    298.09762   -23.229497     20.74204      22.7364    40.104543 
162656000    271.07255    331.68231    265.72483   -24.680122    23.170558    65.957483    40.104355 
162660000     263.4351    303.70635    297.57606   -22.419803    23.246796    6.1302996    40.104502 
162664000    265.83257    334.91281    262.88766   -22.455339    23.446795    72.025148     40.10512 
162668000    261.42924    299.51169    267.21957   -22.564748    23.414805    32.292117    40.104656 
162672000    270.31173    311.91969    297.92941   -24.120807    21.780202    13.990284    40.103381 
162676000    273.27015    331.25635    284.38637   -23.466104    21.849335    46.869973    40.102097 
162680000    263.50953    326.36823    264.00696   -23.573415    23.738985     62.36127    40.100768 
162684000    274.52836    321.78862    285.03528   -23.271362    22.646597    36.753345    40.100196 
162688000    264.99208    293.43399    306.19771   -21.150934    21.497222   -12.763724    40.100936 
162692000    262.23835     311.2171     258.2783   -20.891513    23.664837    52.938796    40.100795 
162696000    272.88283    334.99716    293.37858   -23.201026    22.612864    41.618573    40.099519 
162700000    271.94966    323.37256    296.24895   -24.117813    22.977048    27.123607    40.100365 
162704000    256.84912    288.70707    274.51541   -22.320566    23.304788    14.191652    40.100547 
162708000    262.34318    322.39902     264.2241   -22.441015     23.22153    58.174923    40.101149 
162712000    263.34922    302.77784    292.17388   -21.967187    22.463477    10.603957    40.099069 
162716000     270.6101    308.17482    295.49915   -23.410359    22.023976    12.675666    40.099319 
162720000    278.72477    333.87851    288.20337   -22.747828    22.026452    45.675137    40.099566 
162724000    265.63806    326.52819    260.56269    -24.31967    22.907837    65.965495    40.099451 
162728000    277.20398    331.82381    302.55097   -24.126245    21.726778    29.272838    40.100263 
162732000    271.36776     328.4757    275.86461   -23.879961    22.709603    52.611087    40.100344 
162736000    258.68934    290.63393    290.06266   -22.776988    22.580044   0.57126599    40.100405 
162740000    265.52517    297.82182    285.78019   -22.330411    21.930272    12.041626     40.09924 
162744000    265.28806    305.29304    280.09319   -22.993392    22.979287    25.199847    40.099039 
162748000    267.91122    328.54904     286.6536   -22.645683    22.363075    41.895433    40.097518 
162752000    266.12072    305.65123    289.98061   -22.678797    22.312453    15.670615     40.09621 
162756000    268.68074    324.76433    282.43374   -22.187918     22.76974    42.330588    40.096708 
162760000    279.91422    351.60654    275.40129   -23.845294    23.492015     76.20525    40.096922 
162764000    263.49708    319.34162    265.30128   -23.151314    23.671969    54.040336    40.097489 
162768000    258.40715    295.93144    272.42067   -22.335135    22.150067    23.510774    40.096212 
162772000    264.28525    308.84244    294.16532   -22.485553    22.175371     14.67712    40.094499 
162776000    264.87003    307.37341    276.91084   -23.246902    23.287739    30.462568    40.095016 
162780000    263.27988     331.3594    278.83152   -24.114186    22.280013    52.527885    40.094367 
162784000    269.83886    321.68856     295.3155   -22.919297    22.303558    26.373056    40.093294 
162788000    263.05855    319.62525    276.01849   -22.680767    23.369156    43.606753    40.094495 
162792000    276.11207    331.68236    293.95298   -23.996051    22.825772    37.729378    40.094083 
162796000    266.08369     339.7222    255.20095   -23.277906    24.358957    84.521255    40.095235 
162800000     266.6314    330.79538    268.80155   -23.235456    23.091017    61.993832    40.096341 
162804000    267.36596     346.2473    273.85857   -23.298352    22.422865    72.388733    40.095957 
162808000    270.04962    318.38446    306.06857   -21.500372    21.356285    12.315887    40.097233 
162812000    265.50852    324.27075    296.20224   -22.112927    22.250083    28.068516    40.097899 
162816000    260.81444    291.92613    290.63774   -20.766361    22.107911    1.2883873    40.096096 
162820000    261.29043    322.75521    264.43574   -22.570113    24.257085    58.319472    40.096883 
162824000    264.45606     288.1322    291.11311   -22.477743    22.448094   -2.9809124    40.096681 
162828000    272.63383    338.84229    297.79448   -25.053948    21.935121    41.047816    40.096862 
162832000    268.44821    323.70742    279.49883   -23.884915    23.082424    44.208588    40.097332 
162836000    267.78298    298.73278    296.78784   -21.759293    22.713339    1.9449387    40.097067 
162840000    261.79014    298.47828    284.98713   -21.465656    22.880547    13.491154    40.098782 
162844000     264.4829    329.81475    273.57141   -24.126938     24.10688    56.243336    40.099439 
162848000    263.39072    328.06371    270.89964   -22.181297    23.861422    57.164075    40.098654 
162852000    264.56827    328.00362    286.13935   -23.387018    23.353241    41.864261    40.097733 
162856000    261.35425    313.07663    268.89498   -22.615705    23.438396    44.181649    40.097515 
162860000    268.06997    321.78767    298.89424   -23.580958    21.566194     22.89343    40.096827 
162864000    266.32113    327.13705    271.70742   -23.049339    23.396002    55.429629     40.09535 
162868000    259.12214    319.50606    269.20615   -23.768529    23.939307    50.299915      40.0961 
162872000    265.15157    329.93988    278.50626   -22.588731    23.627078     51.43362    40.095547 
162876000    279.90556    365.16461    288.05121   -24.529716    23.960051    77.113408     40.09693 
162880000    263.07578    315.36323    280.29528   -22.913943    22.984794    35.067957    40.095588 
162884000    266.92341    334.59048    293.05721   -23.670948    22.415759    41.533267    40.095507 
162888000    268.08723    325.61062    272.57952   -23.586321    23.192986    53.031101    40.095224 
162892000    275.50234    344.34759    296.48702   -25.931514    21.794999    47.860566    40.094728 
162896000    268.17241    310.02833    294.14064   -23.301595    22.749727    15.887694    40.094017 
162900000    270.49719    306.62959    302.72646   -22.140313    22.489213    3.9031235    40.093714 
162904000    271.54725    332.48421     288.3639   -23.779639    24.003674    44.120311    40.093421 
162908000     271.2122    305.38884    290.92883   -23.575767     23.47346    14.460013    40.093473 
162912000     273.4774    347.48923    256.56295   -25.283743    25.405285     90.92628    40.092191 
162916000    265.29243    299.01167    283.74311   -23.048989    23.317036    15.268559    40.093103 
162920000    272.79553    328.68169    302.11021   -24.011735    23.314652    26.571484    40.092409 
162924000     261.2595     310.6199    269.82197   -24.334127    25.177061    40.797927    40.092073 
162928000    266.92636    315.34725    295.72114   -23.875435     23.90369    19.626108    40.091991 
162932000    270.75047    333.87348    287.24591   -23.874107    24.705774    46.627577    40.092869 
162936000    263.71214    318.93631    267.26376   -22.863041    24.030105    51.672552     40.09385 
162940000    258.97336    308.90462    290.52473   -22.467765    22.770516    18.379887    40.091943 
162944000      266.465    326.58813    304.15617   -23.653378     22.90193    22.431953    40.091511 
162948000    257.52453    320.82469    270.90806   -22.806667    24.038597    49.916626     40.08993 
162952000    260.55297    343.24092    262.11329   -23.243631    24.556124     81.12763    40.090629 
162956000    261.92067    318.25982    283.17952   -23.433096    23.903453    35.080302     40.08978 
162960000    263.00589    319.35035    294.33413   -22.917525    23.435941    25.016219    40.090828 
162964000    257.68592    323.23166    267.34253   -23.184229    23.873106    55.889133    40.088713 
162968000    264.40166    317.78494    269.43309   -22.927399    24.155576    48.351847    40.088554 
162972000    262.51418    334.43596    268.93921   -23.214577    24.830847    65.496755    40.086515 
162976000    263.68971    314.20373    277.91781   -22.795284    24.114156     36.28592    40.085618 
162980000    256.31026    307.21117     263.4023   -22.378377    25.161549    43.808861    40.084767 
162984000    251.27608    306.90426    243.42081   -22.475102    23.906064    63.483451    40.083716 
162988000     261.9884    317.24599    270.37125   -23.475883    24.394182    46.874738    40.083711 
162992000    271.10544    357.05895    256.52281   -23.899267    25.580774    100.53614    40.083876 
162996000     259.5752    302.71689    270.69744   -23.287845    25.033141     32.01945    40.084914 
163000000    255.18237    305.04888    268.67138   -21.820157    24.440346    36.377499    40.083807 
163004000    265.97696    320.96389    298.55335   -22.663282    23.988397    22.410538    40.082389 
163008000    262.25139    319.07429    288.82981   -21.726151    23.736335    30.244476    40.081748 
163012000    258.70919    308.57756     285.5109   -22.944393     24.27043    23.066665    40.079847 
163016000    261.86275    313.32857    273.15123   -22.399085    25.224203     40.17734    40.079677 
163020000    261.99939    310.76928    278.06463    -22.96066    23.555509    32.704657    40.079198 
163024000    268.59434     317.3609    283.46374   -22.773856    23.780835    33.897162    40.077849 
163028000    269.26716    333.83214    286.37908     -23.8232    24.314891    47.453058    40.079245 
163032000    267.21846    324.77672    288.36576   -22.329382    24.361566    36.410954    40.079161 
163036000    266.21202    327.26552    273.94173     -23.5818    24.540979    53.323787    40.078603 
163040000    271.63778    321.03224    297.14228   -23.335657    22.941037     23.88996    40.078044 
163044000    282.22876    331.32952    311.28793     -23.5289    22.176545    20.041586    40.076956 
163048000    265.29559    336.38237    267.76683   -23.865124    23.804992    68.615545    40.075348 
163052000    270.09501    344.52866    276.63615   -25.053015     24.03245    67.892509    40.076113 
163056000     265.9297    322.15593    275.25902   -23.403181    23.310224     46.89691    40.073186 
163060000    272.47061    314.48963    302.24296   -23.512859    21.885098    12.246674    40.071704 
163064000    261.21705    322.46347    243.44621   -23.222292    24.326579    79.017257    40.071075 
163068000    265.69805    323.81613     263.1854   -23.580979    23.073958     60.63073     40.07184 
163072000    271.32243    318.75157    289.88459   -25.022327    22.326391    28.866987    40.071587 
163076000    263.34233    308.48679    269.60031   -24.575652    22.999634    38.886478    40.072956 
163080000    269.25602     318.2576    266.27505   -23.566819     22.83676    51.982554     40.07227 
163084000     273.9015    366.58923    270.25199   -26.603959    22.465317    96.337241    40.073014 
163088000    271.44137    297.28508    287.72518   -23.207627    21.181053     9.559899    40.072827 
163092000    262.61431    321.27965    274.11675   -24.131992    22.358274    47.162899    40.071622 
163096000    266.31578      325.901    268.11337   -23.968144    23.465223     57.78763     40.07349 
163100000    263.78793    308.18871     280.2421   -22.464388    23.597944    27.946606    40.074333 
163104000    264.33053    316.20252    271.17213   -23.468029     23.94231    45.030397    40.075983 
163108000    268.43124    329.11273    261.87458   -23.647217    24.126697    67.238151    40.077876 
163112000    267.14945    327.22989     275.2928    -23.57078     23.88949    51.937087    40.077208 
163116000    264.15627    319.03185    285.47033   -22.924258    23.228009    33.561524    40.076672 
163120000    259.54436     320.6097    260.87112   -22.100718    24.896944     59.73858    40.076763 
163124000    267.89606    307.40576    277.66938   -23.701299    24.249766    29.736373    40.075101 
163128000    262.35328    324.50104    276.35415    -22.23211    24.031784    48.146892    40.074131 
163132000     261.7924    318.93837    271.31791   -22.954905    23.641118    47.620459    40.074645 
163136000    260.29166    315.89272    266.20488   -21.741868    24.328951    49.687837     40.07526 
163140000    256.34691    298.34721    283.59049   -20.983049    23.521996    14.756717    40.075726 
163144000    271.64735    345.64343    289.36541   -22.330311    23.959702    56.278015    40.075959 
163148000    267.82387    346.67377    267.72227    -23.55038    24.048869    78.951505    40.077285 
163152000    251.66785    309.86224    256.63486   -22.490528    24.670038    53.227382    40.078168 
163156000    260.33706    317.70979    272.44059   -22.236671    24.474648    45.269205    40.080324 
163160000    258.25016    316.76291    267.65869   -23.166457    25.398615    49.104213    40.079549 
163164000    260.79032     324.7785    274.06801   -24.608151    25.398274    50.710483    40.078942 
163168000    270.64877     348.4742    260.10849   -23.269915    24.167903    88.365708    40.079178 
163172000    264.84083    304.86866    296.98138    -22.95047    25.084846    7.8872735    40.080746 
163176000    267.12095     319.1957    299.67367   -23.725139     24.19261    19.522034    40.078663 
163180000    265.09946     316.2481     268.5136   -23.971141    25.429656      47.7345    40.078346 
163184000    268.19849    311.57654    286.31128   -23.684483    25.003029    25.265267    40.079577 
163188000    264.82854    320.31758    291.99729   -23.554487    23.782816    28.320283    40.080087 
163192000    251.04886    321.75407    270.37223   -24.209986     24.75216    51.381844    40.080396 
163196000    258.08585    333.10521    253.01101   -24.124064    26.009082    80.094201    40.080815 
163200000     261.6915    317.05101     272.2286   -23.261145    25.747233     44.82241    40.081596 
163204000    259.19633    301.90276    278.43101   -23.226359    25.122208    23.471748    40.079319 
163208000    267.35042     349.4864    280.27818   -23.473804    25.520772    69.208211    40.079669 
163212000    255.62532    320.30995    275.34516   -22.068486    25.225387    44.964786    40.081055 
163216000     262.9983    331.23382    273.19867   -23.188485     23.78498    58.035149    40.083027 
163220000    261.05316    322.90804    272.51776     -23.1415     24.80206    50.390286    40.084502 
163224000    258.58892    311.13186    273.66519   -22.719198    24.363895    37.466675    40.084806 
163228000    263.54256    320.67447    284.92292   -23.422445     24.66897    35.751552    40.084218 
163232000    268.77633    327.32886    311.75968   -23.923499    23.024629    15.569179    40.083674 
163236000    263.56612    326.27161     274.5353   -22.181634    25.038972    51.736311     40.08369 
163240000    265.37681    325.07224    290.16728   -22.813078    24.534672    34.904965    40.083492 
163244000    269.06697    327.75328    282.11376   -24.713098    25.436468    45.639521    40.083325 
163248000    266.99685     323.6431     308.6585    -23.55433    23.977618      14.9846    40.083707 
163252000      259.355    345.59142    282.76598   -23.761543    24.879286    62.825435    40.084055 
163256000    269.94256    358.68171    279.11413   -24.801203    26.356295    79.567578    40.084176 
163260000    252.32839    301.71127    268.66084   -23.013188    25.144411     33.05043    40.083573 
163264000    269.27033     324.2282    298.34538   -24.028619    23.132046     25.88282     40.08377 
163268000    258.51869    312.30638    285.49676   -22.318955    23.161564    26.809623    40.083449 
163272000     262.2611    304.65539    284.75225   -22.487723    23.729094    19.903141    40.083864 
163276000    263.21214    317.99982    272.36021   -23.743131    24.623279    45.639613    40.082961 
163280000    265.97164    316.30367    286.71588    -22.31067    23.844804    29.587795    40.082264 
163284000    263.86057    317.84419    289.31494   -23.368689    25.390354    28.529252    40.080955 
163288000    264.32098    303.39869    285.15925     -24.2758    23.941204    18.239439    40.081302 
163292000    260.27355    304.37315    277.29702   -22.802958    24.888354    27.076131    40.080816 
163296000    263.11072    314.17618    280.50042   -24.370796    24.349793    33.675765    40.082146 
163300000    272.27607    311.41337    315.78278   -23.042769    22.514001   -4.3694098    40.082653 
163304000    272.42813    340.43113     287.8931   -24.452523    23.773292    52.538024    40.083776 
163308000    254.28087    313.17065    279.19067   -22.355378    24.110187    33.979979    40.084296 
163312000    268.13555    323.53912    284.09002   -22.951774    24.836777    39.449099    40.084024 
163316000    263.89415    313.27676    285.90232   -23.152213    23.907005    27.374443     40.08327 
163320000    264.02254    326.83866    270.77903   -23.418965    24.680661    56.059634    40.083151 
163324000    261.25397     321.9109    267.19061   -23.193666    25.058235    54.720296    40.083426 
163328000    262.61257    335.34733    270.61328   -23.807877    25.596237    64.734051    40.083105 
163332000    280.50323    341.37123    330.62204   -23.747151    22.373397     10.74919    40.083909 
163336000    255.95366    343.76569     255.8356   -24.429334    25.300361    87.930092    40.082144 
163340000    255.54012    294.51286    275.16997   -22.769029    24.537186    19.342889    40.081632 
163344000    271.49711    346.29014    281.78776   -25.184322    24.086411    64.502383    40.083085 
163348000    272.55788    342.30844    289.37455   -25.408264    24.034134    52.933893    40.083133 
163352000     263.2839    317.01852    266.70964   -24.815731    24.786109    50.308884    40.084366 
163356000     266.1745    313.75819    278.45327   -23.752534    23.562745    35.304917    40.085335 
163360000    268.19725    321.06075    289.81528   -24.390533    23.315171    31.245472    40.086597 
163364000    260.75817    312.21562    282.07874   -24.354977    24.365626    30.136887    40.087501 
163368000    258.97452    300.91755    278.05071   -23.298738    24.041762    22.866835    40.087986 
163372000    269.69453    324.60051    286.01496    -23.29635    24.135229    38.585553     40.08809 
163376000     275.5009    305.22351    298.86316   -22.741901    23.408766    6.3603469     40.08551 
163380000    254.73113    308.54794    263.84831   -21.638246    24.936996    44.699636    40.085017 
163384000    254.25405    314.15884    271.41382   -22.780185    24.167538    42.745023    40.085933 
163388000    255.61285    280.03952    269.71085   -21.501222    24.937066    10.328672    40.084222 
163392000     260.4431    314.85322    280.39411   -24.193035    24.492673    34.459109    40.083805 
163396000    271.43036    327.56197     284.1363   -24.578644    24.781902    43.425671    40.084025 
163400000    258.12233     303.3177    266.92635   -22.941516    24.320176     36.39135    40.084142 
163404000     268.8135    336.02613    287.51983   -23.217645    22.800983    48.506299    40.084536 
163408000    260.43834    317.99901    273.97335   -23.074177     23.08228    44.025665    40.084683 
163412000    266.18978    327.02513    276.15726   -22.349704    23.841807    50.867871    40.084693 
163416000    266.81025    316.35069    271.69446   -21.403431    24.203097     44.65623     40.08415 
163420000    257.65164    311.83927    276.39501   -21.553604    24.003635     35.44426    40.085387 
163424000    258.93309    319.69931    273.04725   -23.463049     24.41075    46.652061    40.086598 
163428000    263.36368    325.20356    274.47677   -22.434011    25.041798    50.726792     40.08857 
163432000    266.98234    337.53771    272.56252   -23.256814    24.967285    64.975192    40.091083 
163436000    265.30051    314.41696    296.37708   -22.124852    23.195498    18.039889    40.089811 
163440000    269.57523    332.78186    304.54056   -23.823652    23.858689    28.241299    40.088973 
163444000     261.5886    328.56991    278.35467   -24.148317    23.914644    50.215244    40.091252 
163448000    254.15486    313.07321    256.34527   -23.037925     24.75474    56.727936     40.09011 
163452000    272.08288    318.03594    297.55999   -23.053607    23.552024    20.475955    40.089325 
163456000    264.29328    335.86485    259.83527   -24.516589    25.058727    76.029586     40.08918 
163460000    269.16474    306.01812    279.19991   -22.899571    23.304062    26.818207    40.088845 
163464000     259.8981    311.42862    261.31373   -22.560079    25.367167    50.114888    40.089337 
163468000    266.60949    329.13167    274.67623   -24.236543    24.337483    54.455448    40.090195 
163472000    264.98263    307.48124    269.73399   -22.798982    23.892393    37.747251    40.090497 
163476000    262.40066    320.65687    273.11497   -23.394997     24.34464    47.541905    40.091036 
163480000    272.55649    316.97731    316.53515   -23.162103    22.488567   0.44216175    40.089151 
163484000    261.17669      317.095    278.90538   -24.282248     24.07692    38.189621    40.088301 
163488000    264.00972    321.91666    274.38108   -24.701867    24.704918    47.535581    40.089169 
163492000    269.59534     322.6065    288.76806   -24.208618    24.946285    33.838441    40.089321 
163496000    273.79768    329.83637    282.07028   -24.576174    24.471338    47.766091    40.090286 
163500000    265.70126     309.2668    295.67378   -23.789294    24.133839     13.59302    40.090277 
163504000    262.40494    323.22085    285.68378   -24.413926    24.917207    37.537074    40.091595 
163508000    255.59503    295.96441    272.40491   -22.954149    25.004076    23.559503    40.089605 
163512000    266.08338    330.91271    276.23795   -24.834781    24.997791    54.674763    40.089356 
163516000    268.26572    331.70493    290.65217   -23.839875     25.08642     41.05276    40.088495 
163520000    263.22395    293.51422    290.21252   -22.954741    23.820507    3.3017051    40.088096 
163524000    268.12015    332.19764    289.39227   -25.259623     23.98795     42.80537    40.086862 
163528000    271.19182    321.71435    281.58589   -23.805087    25.010057    40.128462     40.08861 
163532000    260.29286    288.10687      256.957   -22.804702    25.217922    31.149867    40.087372 
163536000    270.02766    320.94046    309.93385   -23.218281    22.513263    11.006608    40.084979 
163540000    255.83359    302.27036    274.95005   -23.020268    23.982979    27.320312    40.083258 
163544000    256.59273    331.75594     243.8336   -25.274681    25.334441     87.92234     40.08328 
163548000    273.06359    347.37374    282.78114   -24.085748    23.661018    64.592596    40.084178 
163552000    271.55907    323.00926    287.10369   -23.897079    23.170738    35.905567    40.083701 
163556000    264.14451    280.06561    291.19878   -22.457825    23.597712   -11.133169    40.084043 
163560000    265.19657    320.12107    264.47572   -25.419203    25.051584    55.645351    40.084552 
163564000    271.40226    320.98127     280.5738   -24.449965    23.768117    40.407473    40.082484 
163568000     278.4124    339.48659    287.93357   -25.377513    23.551366    51.553029    40.082339 
163572000    281.51193    337.45449    286.30283   -25.458763    23.614652    51.151654     40.08275 
163576000    277.84008    322.74131    312.64773   -25.034347    23.085745    10.093578    40.082318 
163580000    272.43762    303.10273     291.1326   -24.741689    22.612957    11.970122    40.080698 
163584000     271.1354    324.36575    274.71928   -24.185182    23.810282    49.646466      40.0787 
163588000    272.75151    336.32877    276.06168    -24.93548    23.459539    60.267091    40.078619 
163592000    267.58779    317.03121    269.69892   -24.575704    24.399294    47.332284    40.079456 
163596000     270.0168    331.46535    286.31278   -24.296793    23.236853    45.152576    40.079729 
163600000    270.49157    305.47173    288.71836   -23.301455    22.869404    16.753366    40.080584 
163604000    256.88831    285.79012    269.78176   -22.460654    23.921293    16.008361      40.0796 
163608000    285.25351    339.64346     296.4408   -24.791802    22.632814    43.202659    40.079056 
163612000    260.53074    306.03351     258.2171    -24.89184    23.414392    47.816403    40.077552 
163616000    259.42425    311.63699    265.61245   -24.182213    23.474435    46.024542    40.076381 
163620000    263.08828    312.67664     265.8425   -24.468145    24.367989    46.834134    40.076007 
163624000    268.78936    343.18917    276.74535   -26.421555    23.946685     66.44382    40.075821 
163628000    265.96161    325.86613    280.37912   -24.196852    23.220577    45.487007    40.075371 
163632000    265.80255    328.25644    274.75719   -23.995302    23.371567    53.499245    40.076108 
163636000     264.7475    312.96826    277.30376    -22.89832    22.453744    35.664505    40.076557 
163640000    271.32001    317.73268    279.13392    -24.22251     23.50597    38.598761    40.076081 
163644000    267.57544    315.16466    293.24495   -23.174592    23.359507    21.919712    40.077267 
163648000    260.23983    298.35607    271.23671   -22.809459    24.002294    27.119362    40.077351 
163652000    274.24626    355.63003    257.91631   -25.963413    24.620286    97.713719    40.077146 
163656000    262.90854    323.53149      272.591   -23.917189    23.828925    50.940487    40.076351 
163660000    268.76272    326.20424    272.93568    -24.61224     23.16811    53.268569    40.075928 
163664000    268.61349    321.72002    301.92939   -24.310902    22.034098    19.790627    40.076011 
163668000    267.96586    322.32177    291.51702    -24.94851    23.327661    30.804748    40.073642 
163672000    268.10661    314.75446    277.85102   -24.091556    23.686823    36.903446    40.071227 
163676000    273.84368      318.608    291.75871   -25.150731    22.649564    26.849295    40.069488 
163680000    267.28681    303.46291    282.98302   -24.562128    22.916551    20.479893    40.069341 
163684000    271.63998    331.72118    277.55878   -26.612784    22.968197    54.162406    40.067394 
163688000    269.27753    315.47308    287.82714   -25.808096    22.619624    27.645941    40.066638 
163692000     271.7068    335.33407    281.13309   -25.919305    24.154667    54.200981    40.066914 
163696000    265.34152     306.2848    280.10716   -23.675085    23.201888    26.177636    40.067811 
163700000    269.13492    319.39757    293.82621   -25.018634    22.962766     25.57136    40.067416 
163704000    269.15224    317.21345    279.23898   -25.716869    23.190445    37.974474    40.065649 
163708000    273.74175    335.27595    281.64746    -25.54118    23.620272    53.628493    40.065959 
163712000    272.99685    331.07734    272.37306   -25.427186    24.244955    58.704285    40.065746 
163716000    281.68453    326.79348    295.18898   -25.360295    22.708432    31.604502    40.063731 
163720000    274.21837    310.52301    300.92994   -25.554654    23.483414    9.5930726     40.06341 
163724000    268.75048    328.42702    289.57866   -25.238884    22.940585     38.84836    40.063611 
163728000    273.72377    310.12873    283.04104   -25.465142    22.610747    27.087693    40.064498 
163732000    263.77662     301.4129    268.24984   -24.655657     23.52543    33.163062     40.06496 
163736000    280.14008    356.15375    288.47279   -25.540774    23.160125    67.680951    40.064626 
163740000    276.05742    306.22141    294.01068   -24.358898    23.993321    12.210735    40.065511 
163744000    264.97021    326.79668    265.64293   -25.744413    24.265556    61.153752    40.065883 
163748000     267.2645    302.88874    279.26285   -24.590723    23.145829    23.625888    40.064678 
163752000    272.46555    327.03988    276.48913   -25.574725    24.434126    50.550746    40.063361 
163756000    277.89776    339.82017    283.81848   -25.662835    24.408033    56.001692    40.063265 
163760000    283.59364    336.65184     314.5237   -26.550065    23.489575     22.12814    40.064958 
163764000    268.25438    315.89096    269.22088   -25.819946    24.918053     46.67008    40.066015 
163768000    279.61113    332.31741    314.84099   -27.144696    22.725383    17.476416    40.065653 
163772000    272.76076    303.54449    284.41905    -25.47562    23.882371    19.125436    40.064957 
163776000    276.60551    337.54771    293.69681   -27.327946    23.946107    43.850898    40.064681 
163780000    270.31771    309.74763    276.88671    -24.89335    24.567242     32.86092    40.063249 
163784000    279.66924    314.42982    285.81098   -25.179171    24.359602    28.618847    40.063552 
163788000    282.60657    329.31339    292.35434   -25.841044    24.721812    36.959048    40.063414 
163792000    272.25686    328.26024    272.83829     -26.4718    24.278356    55.421952    40.064826 
163796000    278.98864    327.25718    282.95032   -25.891963    24.270014    44.306854    40.066132 
163800000    274.73458    315.90365    290.77533   -25.424688    24.110131    25.128319    40.066022 
163804000    265.64521    325.83348    274.27964   -25.749342    24.647419    51.553834    40.065597 
163808000    270.47257    328.80788    272.42619   -25.405327    23.562908    56.381693    40.064082 
163812000    267.79882    294.92908    286.94151   -24.129111    23.371884    7.9875725     40.06288 
163816000    272.82235    322.66828    276.53757   -25.793692    24.389674     46.13071    40.064177 
163820000    274.42543    319.92426    278.72561   -26.615457    23.921241    41.198647    40.064408 
163824000    270.14004    312.08548    283.44398   -27.054879    23.580681    28.641496    40.063305 
163828000    274.99333    329.76952    275.44242   -28.376785    24.357753    54.327099    40.062351 
163832000    274.34085    330.73459    264.08109    -26.82757    25.133016    66.653504    40.063177 
163836000    286.60681    345.35092    289.32051     -28.1181    23.629277    56.030411    40.064547 
163840000    285.82671    313.88691    297.15087   -25.991156      22.6577    16.736044    40.065276 
163844000     285.0855    334.42651    304.01824   -26.199333    22.880539     30.40827    40.063326 
163848000    268.62607    311.44379    284.70448   -24.691817    23.282603    26.739305    40.062596 
163852000    272.14864    315.51046    291.62412    -25.29272    23.107978     23.88634     40.06216 
163856000    274.88455    327.88499    284.39863   -27.230873    23.002638     43.48636    40.061162 
163860000    278.50593    337.41251    285.37915   -26.330931    23.621308    52.033356    40.061377 
163864000    276.34439    325.24565    290.52794   -25.424592    23.470164    34.717712    40.061208 
163868000    274.20252    316.88267    294.65733   -25.922655    23.794748    22.225349    40.061797 
163872000    275.40738     321.8766    303.53039   -25.348903    23.711288    18.346214    40.061087 
163876000    270.28377    323.13987    262.30839   -24.908241     25.04274    60.831485     40.06011 
163880000    270.28888     335.9089    275.38561   -26.096797    24.344362    60.523282    40.058499 
163884000    269.94249    295.35131    313.33359   -24.947204    23.492821   -17.982277    40.057044 
163888000    277.50959    337.65777     282.5334   -26.315474    24.207231    55.124367    40.058267 
163892000    272.25085    315.99056    283.20739   -25.711317     24.74339    32.783165    40.060112 
163896000     275.1993    311.51797    298.53463   -26.291363    24.492987    12.983337    40.058911 
163900000    260.16349    313.68088    267.60051   -25.845435     25.45494    46.080376    40.061726 
163904000    266.70542    332.71159    261.00165   -26.713747    25.856282    71.709937    40.062219 
163908000    280.15778    335.28777    296.03216   -26.393666    24.767722    39.255609    40.062648 
163912000    270.58685    323.02622    285.40374   -25.577527    25.310021    37.622485    40.061673 
163916000    274.97743    345.00471    286.05405   -26.578138    24.852144    58.950665    40.060842 
163920000    262.99695    312.47936     265.9024   -25.401613    26.145978    46.576963     40.06377 
163924000    269.21692    311.46028    287.51079   -24.596717    24.976076    23.949489    40.061032 
163928000    262.75047    294.62432    273.27871   -25.133124    24.634951    21.345615    40.061339 
163932000     267.8006     310.4109    304.73858   -24.689019    23.265006    5.6723243    40.060902 
163936000    275.16748     353.2427    278.18521   -25.434438    25.255833    75.057487    40.061693 
163940000    266.93055    323.37796    270.94599   -25.244676    24.415008    52.431964    40.063052 
163944000    273.92279    333.81139    274.24478   -25.891108    25.938215    59.566607    40.065134 
163948000    269.38983    332.84739    291.46701    -24.48491    24.558948    41.380378     40.06573 
163952000    266.88384    332.99125    281.69142   -25.478786     25.44144    51.299832    40.067614 
163956000     266.7996     307.9536    285.29666   -24.976161    25.097491    22.656932    40.068228 
163960000    260.44532    309.76577    300.79089     -23.9794    24.986327    8.9748786    40.067017 
163964000    267.15461    306.18839    287.50356    -25.11045    25.681346    18.684823    40.064983 
163968000     273.1048    326.02716    301.45779   -25.845736    25.053984    24.569367    40.066108 
163972000    265.67763    327.54398    286.33659   -26.230511    25.249747    41.207396    40.065624 
163976000    272.95274    341.51975    277.43087   -25.850966    26.183601    64.088882    40.068769 
163980000    260.55561    324.07157    269.92153   -25.309358    26.117912    54.150042    40.067785 
163984000    271.75413    349.88493    278.11567   -26.130963    26.501979    71.769264    40.067099 
163988000    262.56362     293.2273    308.09652   -25.061861    24.889501   -14.869224    40.066265 
163992000    262.78638    322.46784     251.9475   -26.367473    26.814954    70.520335    40.068373 
163996000    269.70633    339.52822    265.21501    -25.68934    25.925421    74.313212    40.068297 
164000000    265.01541    320.27552    300.33824   -24.972688    25.300059    19.937281    40.069801 
164004000    266.22076    327.96704    287.26065   -24.442698    25.486665    40.706388    40.070665 
164008000    266.75191    330.60435    273.35319   -25.661439    27.010774    57.251156    40.070473 
164012000    262.87424    317.62144    273.75082   -26.277731    27.349458    43.870622    40.070896 
164016000     251.3734    314.29758    257.84975   -26.906824    27.505966    56.447829    40.069647 
164020000    261.14152    287.76707    296.80409   -25.654622    25.809132   -9.0370207    40.069023 
164024000    265.30637    298.40898    288.73387   -24.670729    26.371163    9.6751065    40.067533 
164028000    265.60365    308.24293    286.37348   -25.117025    25.663483    21.869456    40.066622 
164032000    272.69035    312.13207    297.27701   -26.255417    25.200648    14.855055    40.066391 
164036000     267.6703    327.73574    253.15659   -28.411641    26.416405    74.579153    40.067751 
164040000    265.67814    315.42497    284.99921   -26.891282    25.141073    30.425759    40.068258 
164044000    271.16938    302.32206    295.10977   -26.557865    24.646155    7.2122832    40.070378 
164048000    267.01371    317.09437    272.66505   -26.179705    25.959677    44.429321     40.07034 
164052000    260.76036    309.18473    276.16819   -27.114819    25.759206    33.016542    40.070718 
164056000    267.91854    325.41342    261.62544   -27.637613    26.405437    63.787978    40.072081 
164060000    274.12567    328.54882     267.4868   -26.135397    26.880928    61.062022    40.072582 
164064000    274.08291    318.88248    306.45657   -26.175797    24.694439    12.425905    40.073812 
164068000     270.7575    337.76606    273.27104   -27.398214    26.057684    64.495021    40.075186 
164072000    265.20165    317.07062     275.0948   -26.447452    26.004878     41.97582     40.07589 
164076000    270.84197    300.11854    300.29217     -26.6149    25.443866  -0.17363003    40.074519 
164080000    271.91487    331.43785    273.20828   -27.777854    26.251474    58.229575     40.07567 
164084000      262.174    293.42018     292.4471    -25.39116    25.319405   0.97307944    40.077212 
164088000    260.05669    304.02044    266.91675   -25.797089    26.158817    37.103686    40.077832 
164092000    271.87046     331.6995    282.63137   -27.092718     24.99883    49.068131    40.077479 
164096000    262.75207    301.65354    281.96859   -26.311231     26.53482    19.684949    40.079637 
164100000    272.97151    324.72848    285.16692   -27.147936    26.164224    39.561559    40.077629 
164104000     261.7327    315.10605    253.35645   -26.955361    26.942023    61.749604     40.07775 
164108000    270.51965    329.43677    280.03741   -26.692444    25.198793     49.39936    40.075046 
164112000    277.80661      313.959    285.14757   -26.983828    26.641439    28.811437    40.073203 
164116000    265.94995    297.56836     276.5487   -26.163903    25.935142     21.01966    40.072738 
164120000    271.74684    331.17394    280.66958    -26.80642    25.323967    50.504358      40.0729 
164124000    266.46151    307.83636    271.31536   -26.246153    25.717076    36.520999    40.071922 
164128000    263.66772    294.19975    295.99692   -25.103773    25.717588    -1.797168    40.071505 
164132000    275.88682    330.60624    298.66617   -25.716002    23.989435    31.940065    40.072011 
164136000    264.06604     307.0685    281.88745   -25.720172    26.279138    25.181047    40.071197 
164140000    265.25308      313.382    290.69072   -26.364232     25.78162    22.691283    40.070104 
164144000    264.40096    321.52664    269.80394   -26.375231    25.637252    51.722692    40.068964 
164148000    264.49195    289.43932    305.69566   -24.654021    24.819834    -16.25634    40.068875 
164152000    267.99691    339.66368    264.63397   -26.426241    27.019814    75.029708     40.06941 
164156000    264.00118     330.9817    254.46882   -28.090396    27.344074    76.512881    40.070427 
164160000    270.53652    318.64122    274.53702   -26.254765    26.797548    44.104198    40.070889 
164164000    270.36544    326.66179    290.22642   -25.873486     25.47098    36.435371     40.07203 
164168000    279.43001    337.37399    277.17168   -26.650183    25.750081    60.202315     40.07322 
164172000     270.7469    331.69725    284.93054   -26.404199    25.246332    46.766711    40.073741 
164176000    262.07292     328.9147    274.74446   -25.298205    26.668046    54.170233    40.074695 
164180000    263.55344     329.7996    266.40982   -26.508894     26.18471    63.389782    40.075497 
164184000    261.42142    320.72019    273.17058   -26.162165    25.319018    47.549612    40.075657 
164188000    268.03661    329.19103    266.46873   -26.574251    26.690322      62.7223     40.07553 
164192000    271.94441    347.17768    283.42777   -27.637345    26.678826    63.749909     40.07594 
164196000    271.17653    323.94945    274.83109   -25.725772    25.738661    49.118365    40.078366 
164200000    274.91896    306.09409    293.83907   -28.062447    25.562136    12.255016    40.077186 
164204000    265.28547    326.48709    255.72337   -28.017692    27.446809    70.763723    40.076764 
164208000    254.77924    311.31114    258.83079   -26.621157    28.078874    52.480348    40.076277 
164212000    261.70113    335.98044    266.14257   -27.303963    26.943319    69.837875    40.074718 
164216000    263.34593    310.93098    276.79803   -27.463819    26.151489    34.132953    40.073495 
164220000    270.18832    314.67387    270.82266   -26.961662     26.89403    43.851213    40.073406 
164224000    269.96671    310.28827    269.27263   -27.986706    25.807621     41.01564     40.07457 
164228000    268.37884    307.89574      285.956   -27.478273    26.374417    21.939746    40.075131 
164232000     271.4316     314.6814    291.42668   -27.849549    25.294458    23.254718    40.076123 
164236000    275.27881    341.18618    300.25992   -28.003333    26.243096    40.926265    40.077676 
164240000    273.03899    328.73413    283.66909   -28.525771    26.351201    45.065031    40.077926 
164244000    264.16353    297.32412     275.6115   -26.577292    26.541403    21.712615    40.077271 
164248000     267.9295    333.28209    273.64667   -27.283186    25.709527    59.635422    40.076973 
164252000    273.10706    313.40382    284.33852   -27.564619    25.551078    29.065301    40.074186 
164256000    270.96624    330.47205     275.8831   -27.058938    26.109467    54.588951    40.076443 
164260000    269.60792    308.29401    290.88918   -26.900877     26.45532    17.404836    40.075707 
164264000    270.88187    318.86876    311.43797   -26.906232    25.996905    7.4307948    40.074981 
164268000     275.3778    345.96616    288.27522   -28.284019    26.986881    57.690945     40.07634 
164272000    271.65206    321.35767    278.97708   -27.573733    27.306149    42.380588    40.075888 
164276000    266.68101    329.05489    271.73079    -27.70076    27.010381      57.3241    40.075153 
164280000    269.72495    295.18547    291.21837   -26.464505    25.493339    3.9671069    40.076786 
164284000     279.3018      348.198     291.3453   -28.628585    25.684589    56.852698    40.076491 
164288000    274.54032    318.26487     302.3179   -27.692971    26.692822     15.94697     40.07651 
164292000     268.6197    313.19521    284.13422   -28.297066    27.228025    29.060988    40.076505 
164296000    264.00222    309.69511    277.81172   -25.945064    26.461308    31.883389    40.073804 
164300000    275.47977    353.67135    284.95698    -27.36929    26.000611    68.714368    40.072745 
164304000    271.53459    306.63313    304.77095   -26.488721     25.19471    1.8621845    40.071379 
164308000    263.57006     312.6184    281.52133   -26.445344    26.616073    31.097077    40.071202 
164312000    266.18379    341.96502    275.42881   -26.923458    27.526534    66.536201    40.071142 
164316000    266.55799    337.31525    271.48006   -27.012129    26.980644    65.835191    40.072446 
164320000    271.56115    354.67456    271.63084   -29.035929    26.395161    83.043723    40.072359 
164324000    272.28047    327.00327    284.82613   -27.617477    26.114899    42.177135    40.072935 
164328000    271.48754    316.07319    281.82917   -27.098228    26.160808    34.244026    40.072765 
164332000    277.98969    341.00858    284.65316   -28.347079    26.368638    56.355418    40.071662 
164336000    256.52881    313.84138    255.73582    -26.55526     27.91275    58.105558    40.072034 
164340000    272.81596    342.84319    288.90864   -28.070579    26.397692     53.93455    40.071744 
164344000     262.1494    336.18217    272.89416   -27.581005    26.941735    63.288008    40.071655 
164348000     267.4529    302.44216    278.56541   -27.488179     26.68298    23.876748    40.070351 
164352000     253.0606    303.52111    275.18947   -27.745688    26.706529    28.331631    40.071179 
164356000    271.23749    310.31976      298.052   -28.837114    26.567593    12.267756    40.070585 
164360000    264.44285    287.23027    266.01825   -27.693492    27.135851    21.212023    40.069632 
164364000    269.33262    301.66073     288.2726   -27.398705    26.585733    13.388125    40.068704 
164368000    267.84364    310.88402     276.2024   -28.249266    27.120574    34.681618    40.067699 
164372000    258.99696    300.07126    265.47606   -28.282819    27.739657    34.595201    40.066202 
164376000    273.39425    326.67515    275.58103    -29.38691    27.172672    51.094119    40.065686 
164380000      271.993     322.9103    278.38804    -28.36682    27.439342    44.522258    40.066446 
164384000    276.04268    321.10921    285.06336   -29.255347     26.64174    36.045853    40.067424 
164388000    272.99145     336.2716     269.0923   -29.687016     27.16935    67.179296    40.067419 
164392000    277.15558    305.62803    277.86933   -28.684608    27.346019      27.7587    40.068346 
164396000    268.28184    287.39572     282.9563     -28.9407    27.301011    4.4394193    40.068385 
164400000    271.14371    309.84716    269.44846   -30.438423    26.954074    40.398699    40.069371 
164404000    276.74633    331.52285    284.32697   -31.586179    25.323342    47.195888    40.068681 
164408000    275.28882    337.10355    272.04803   -31.368925    25.728552    65.055521    40.069533 
164412000    275.32081    331.01674    278.95076   -31.632698    27.789675    52.065978      40.0693 
164416000    279.54146    320.36932    280.52917   -30.968173    27.327533    39.840143     40.07016 
164420000    275.78445    318.95603    274.11512   -29.902146    27.796279    44.840914    40.071038 
164424000     277.8054    345.79502    272.36671   -30.120622    27.450384    73.428318    40.073549 
164428000    277.13424    326.53236    276.50365   -28.993827    27.813106    50.028709    40.075101 
164432000    276.41932    328.07452    278.94891   -29.629466     26.86967    49.125612    40.074649 
164436000    270.47444    330.57935    276.09734   -27.606461    27.365809     54.48201     40.07514 
164440000    266.98772    322.35798    256.28545   -29.011095    27.379807    66.072522    40.075105 
164444000    266.41299    322.73996    266.35047   -28.837092    26.566806    56.389488    40.075397 
164448000    269.42035    311.25337    262.47471   -28.113791    29.394627    48.778661    40.074895 
164452000    265.85387    324.86199    274.13443   -28.831258    28.839879    50.727556    40.074522 
164456000    274.41703    336.30878    287.51974   -30.143791    27.267712    48.789035    40.076105 
164460000    281.16826    342.96201    289.20593   -30.801464    26.763509    53.756081    40.076697 
164464000    270.60686    315.09736    263.66602    -27.94559      27.2121    51.431335    40.077754 
164468000    268.33493    308.83477     281.8239   -28.685838    27.869899    27.010869      40.0774 
164472000       281.54    305.95514    300.78747   -28.300724    26.924127    5.1676689    40.077921 
164476000    272.33047     318.6562    285.52612   -29.439219     26.94664    33.130081    40.077563 
164480000    271.58658    337.15311    271.86231   -30.287419    27.531547    65.290797     40.07764 
164484000    282.01702    350.95455     284.8671   -30.411031    26.566392     66.08745    40.077441 
164488000    270.14625    310.38206     294.4648   -28.595964    26.661805    15.917256    40.077825 
164492000    264.06953    318.37421    275.57961   -28.791677    27.390951    42.794603    40.078409 
164496000      266.208    316.78579    285.39988    -28.76201    27.418042    31.385904    40.079512 
164500000    272.38975    334.03056    287.74923   -30.136067    27.367283    46.281334    40.081018 
164504000    268.76284    322.28817    292.81518   -28.740766    28.568221    29.472994    40.080427 
164508000    260.84131    292.67085    280.46032   -27.965713    28.136142    12.210528    40.081669 
164512000    267.73303      332.594    284.53209   -29.776172    28.262893    48.061906    40.083113 
164516000    274.74079     331.1589    292.15626   -29.415352    27.254288    39.002638    40.084206 
164520000    263.97337    319.61232    287.12271   -26.744924    27.616019    32.489608    40.084378 
164524000    264.97748    318.83045    294.61371   -28.227474     27.89084     24.21674    40.084954 
164528000    268.40344    329.70989    261.15959   -28.923309    28.357173    68.550307     40.08461 
164532000    274.60989    332.05247     291.6717   -29.021165    28.114462    40.380769    40.084129 
164536000    264.57389    331.06082     289.9911   -28.037314     28.26697    41.069724    40.083998 
164540000    268.71499    300.00723    287.21544   -28.210092    27.921129    12.791787    40.082749 
164544000    268.41652    301.79594    288.28655   -27.548124    28.057587    13.509396    40.083899 
164548000    264.44126    324.45671    272.42549   -28.695947    29.109461    52.031217    40.082937 
164552000     264.2911    322.27238    276.65297   -29.047245    28.606094    45.619413    40.081899 
164556000     255.8716    300.38927    269.26627   -27.154103    29.804419    31.123003    40.082236 
164560000    258.68956     307.1512     254.3008   -28.344422    29.191684    52.850401    40.081112 
164564000    262.70579    305.73673    283.22797   -27.347701    28.412578    22.508751    40.081264 
164568000    267.63361    327.18189    276.38854   -29.041703    28.175729    50.793354    40.082834 
164572000    262.57589    308.85472    274.00499   -27.716136    28.012487    34.849732    40.082848 
164576000    262.95284    324.77865    293.71444   -26.831051    27.744358    31.064211    40.083292 
164580000    265.40328    313.51986    288.50492   -28.194002    27.595231    25.014941    40.082814 
164584000    264.33214    299.91459    282.41653   -27.833063    27.917295    17.498061    40.081974 
164588000    269.93133    319.17604    304.21534    -28.12146    26.775007      14.9607    40.082472 
164592000    274.26384    341.73241    273.03528   -28.866392    26.687872    68.697135    40.081426 
164596000    271.92498    337.98569    276.12907   -28.867298    26.979335    61.856617    40.082762 
164600000    272.68202    313.73827    282.25793   -27.633291    26.839803    31.480336    40.083528 
164604000    277.19055    318.99483    301.37233   -27.829748    24.970318      17.6225    40.081999 
164608000    281.97198    351.54563    275.12537   -30.079841    26.967429    76.420261    40.081533 
164612000    279.90781    319.43988    298.23015   -29.851514    26.474471    21.209732    40.080922 
164616000    261.58704    314.23765    254.23915   -28.295341    27.916841    59.998503    40.080963 
164620000    272.12119    325.23242    297.45494   -30.055859    27.517129    27.777479    40.080961 
164624000    281.79266    333.53197    294.85586   -30.919426    27.998851    38.676109    40.081228 
164628000    269.70619     310.7751    280.90186   -29.964054    28.045688    29.873236     40.08194 
164632000    268.67135    331.36456    284.48469   -30.410748    27.692156    46.879872    40.081362 
164636000    278.84469    327.44807    297.16685   -30.551836    27.692779    30.281229    40.080524 
164640000    263.35387    298.59828    263.67864    -28.73353    28.811113    34.919638    40.080227 
164644000    268.76344    291.48587    282.24068   -29.249543    27.683433    9.2451873    40.081097 
164648000    270.64113    335.80279    270.92631    -30.95482    26.833007    64.876473    40.080761 
164652000    264.87328    292.21034    258.61042   -28.571757    27.695237    33.599925    40.079575 
164656000    278.64878    322.07187     293.9362   -30.025899    26.365591    28.135671    40.079157 
164660000    267.78058     313.4944    274.78981   -30.097603    27.582512    38.704589    40.080473 
164664000    282.84696    342.05203     293.5542   -31.227871    26.763997    48.497827      40.0796 
164668000    273.06134    321.79319    292.04608   -30.659207     26.79023    29.747113    40.080173 
164672000    274.94017    333.83548      264.964   -30.955492    28.262954    68.871479    40.080085 
164676000    274.48707    305.80846    273.63939   -30.020686    27.710434     32.16907     40.08152 
164680000    273.47178    329.65521    270.39947   -30.610018    27.628819    59.255737    40.082411 
164684000    276.59553    342.06018    278.06958   -31.571499    27.847931    63.990598    40.082926 
164688000    277.85002    342.53579    293.06286   -30.365188    27.436298    49.472923    40.080921 
164692000    275.16797    317.24472     292.0026   -29.539167    27.588287    25.242115    40.080751 
164696000    268.36005    310.28305    292.69864   -30.389611     26.54934    17.584406    40.079948 
164700000    273.49009    329.01624    293.64213   -28.728926    27.267448    35.374115    40.079837 
164704000    271.47586    325.79193    285.64743   -28.031097    27.186397    40.144508    40.079329 
164708000    271.56732    321.19672    277.32723   -28.951927    26.768549    43.869483    40.079095 
164712000    262.74791    305.67031    284.16569   -28.764515    26.959793    21.504623    40.078944 
164716000    262.23339    320.42719    271.08373   -28.900762    28.580547    49.343468    40.079858 
164720000    270.03492    320.03248    274.41574    -29.65711     28.11999    45.616734    40.080348 
164724000    271.14034    328.50772    289.45838   -28.275935    27.933022    39.049341    40.079781 
164728000    267.30509    309.22835    293.23045   -28.625395    27.864074    15.997901    40.079454 
164732000    259.16506    316.54071    267.22393   -28.944205    29.307595    49.316776    40.079361 
164736000     260.6339    333.74306    270.11047   -28.982936    28.939531    63.632594    40.079066 
164740000     266.7684    316.77968    302.15626   -29.203047    27.563138     14.62342     40.07917 
164744000    265.15926    324.95011    267.18324   -28.983938    29.365581    57.766873    40.080827 
164748000    249.41451    277.57173    261.77548   -27.149355    29.304439    15.796248     40.08131 
164752000    260.15256    299.97272    269.52782   -28.107474    28.734868    30.444904    40.081046 
164756000    275.88409    345.20375    297.54186   -30.115188    26.298518    47.661888    40.081102 
164760000    274.15218    340.18724    291.41163   -29.310548     28.07121    48.775616    40.081597 
164764000    265.27677    324.28244    262.10382   -28.477043    28.720615     62.17862    40.081982 
164768000    255.42764    308.22842    262.53776   -26.714129    28.730684    45.690666    40.081536 
164772000    264.85365    327.75954    261.40604   -27.895948    28.880285      66.3535    40.081447 
164776000    266.86047    312.43887    265.15507   -28.293135    28.542838    47.283794    40.080632 
164780000    269.73679    306.54642    295.40386   -28.970808    27.737102    11.142555    40.080557 
164784000    276.33752     321.3512    286.70414   -30.018795     28.90758     34.64706    40.080411 
164788000    277.01983    315.01015    309.00706   -29.495915    27.330971    6.0030937    40.079952 
164792000     269.9557    315.77221    281.16619   -29.796408    28.118916    34.606017    40.081244 
164796000    271.09929    326.14893    275.58825   -30.604936    27.715329    50.560685    40.079413 
164800000    266.24517     318.2634    271.41323   -30.218438    29.580701    46.850172    40.077553 
164804000    286.83717    327.33053    305.31553   -30.168622    28.684793    22.014991      40.0779 
164808000    274.98543    333.17117    280.52192    -30.60106    28.340473    52.649247    40.077281 
164812000    269.49971    313.85435    283.24862   -30.130914    28.831482    30.605738    40.077409 
164816000    265.00939    308.89468     286.1636   -29.306158    28.282676    22.731075    40.078271 
164820000    265.55064    311.97063    274.39086   -29.764861    28.823694    37.579769    40.077693 
164824000    273.77996    337.05661    296.48124   -30.657271    28.119598    40.575364    40.078654 
164828000    262.21343    306.14628    280.25649   -29.768943    28.968151    25.889789    40.076444 
164832000    270.93968    323.19753    271.70833   -31.056701    29.597141    51.489206    40.075147 
164836000     265.4862    313.63759    277.19101   -29.431619    29.099946    36.446572    40.074498 
164840000    264.39684    325.85207    270.70611   -28.840157    29.384232    55.145958    40.074897 
164844000    278.32502    350.72688    294.36077   -30.604378    29.039568     56.36611    40.074506 
164848000    271.76324     333.1429     293.6349   -30.153362    29.025149    39.507993      40.0755 
164852000    269.41386    308.79215    296.69177   -29.147145     28.87094    12.100386    40.073594 
164856000    265.60507    302.80677    276.84853   -27.924733    29.996658    25.958243    40.072213 
164860000    274.03407    332.31122    273.41135   -29.229107    29.938763    58.899875    40.073031 
164864000    267.98495    329.11465    267.77667   -30.232684     30.15382    61.337973    40.073479 
164868000    265.49972    335.16284    265.54001   -30.187774    30.810595    69.622825     40.07279 
164872000    268.04264    354.60355    280.67852   -31.289229    31.165989    73.925027    40.072414 
164876000    275.99432    347.19323    301.30248   -30.613678    29.205242    45.890749    40.073046 
164880000    255.38994    317.54324    285.21542   -29.656531    30.931799    32.327815    40.074106 
164884000    257.93353    329.93123    268.05853   -30.488601    30.587547    61.872703    40.076275 
164888000    261.89352    312.11529    279.33204     -29.2716    30.734035    32.783254    40.075898 
164892000    262.96387     310.1341    282.99167   -28.780214    30.282494    27.142427    40.078022 
164896000    258.81275    313.59658    278.22655   -28.524308    30.200164    35.370025    40.078231 
164900000     268.6575    347.74616    266.77228   -30.325305    29.897744    80.973879      40.0812 
164904000    271.60144    330.72271    266.71421   -29.844826    29.625744      64.0085    40.080364 
164908000    266.96081    304.58486    293.22925   -27.934687    28.496765    11.355613    40.082081 
164912000      266.391    303.87627    294.60028   -29.277146     29.39939    9.2759935    40.080466 
164916000    261.48201     325.4522    268.48507   -29.949734    29.034971    56.967129    40.081404 
164920000    262.03291     310.0554    288.08241   -29.398936    29.251923    21.972991    40.082483 
164924000    261.55636    302.22552      280.102   -28.200093    29.741009    22.123519     40.08131 
164928000    273.47265    327.71974    304.22264   -30.186607    28.180125      23.4971     40.08077 
164932000    267.33205    327.19718    259.40533   -28.998579    29.510487    67.791848    40.079962 
164936000    255.33568    304.03418    268.01709    -28.75566    29.272816    36.017092    40.080753 
164940000    277.27347    332.00251    294.13674    -29.09217    28.646546    37.865764    40.079627 
164944000    268.56595    309.58982    293.65286   -29.143541    29.735672    15.936954    40.079655 
164948000    274.58962    333.09116    269.69973   -29.721818    30.116952    63.391432    40.079692 
164952000    268.16177    306.72114    284.65349   -29.790586    28.682637    22.067657    40.080721 
164956000    269.45091    330.16011    274.29657   -30.648159    30.135887    55.863538    40.081005 
164960000     268.6416     314.1114    281.86968    -29.17618    30.262442    32.241725    40.080718 
164964000    275.63765    322.02401    281.72178   -29.470307     29.48809    40.302223    40.081052 
164968000    271.42323    330.91797    272.99724   -30.911909     29.67795    57.920728    40.081316 
164972000     272.3668     344.1805    265.21546    -30.71602    29.748099    78.965036    40.081191 
164976000    263.93426     306.6853    280.94499   -30.656557    29.580801     25.74031    40.082351 
164980000    279.67526    355.27747    283.36665   -31.697211    29.359633    71.910822    40.083255 
164984000    279.50044    339.90029    299.74128   -29.836108     28.70149    40.159013    40.082297 
164988000    273.90297     325.6787    307.17451   -29.548315    28.602762    18.504189    40.081901 
164992000    266.67123    308.73224    285.68254   -29.131558     29.23593    23.049697    40.081669 
164996000    268.97599    316.38889    295.69312   -28.684587    28.528793     20.69577    40.081096 
165000000    267.90535    329.43394    285.35768    -29.42701    29.107978     44.07626    40.082555 
165004000    269.64497    315.80281    299.19887   -28.741129    28.779599     16.60394    40.081889 
165008000    270.44055    343.10854     268.8691   -29.656584    30.225685    74.239435    40.082622 
165012000     277.3387    336.44284    296.94412   -29.756817    28.665764    39.498726    40.082441 
165016000    265.52128    317.79177     287.9287    -28.97088    29.854144    29.863068    40.081766 
165020000    257.65231    311.56346    286.63522   -29.102474    29.324755    24.928242    40.081656 
165024000    260.83121    327.02386     252.6374   -29.395155    30.705032    74.386462    40.081929 
165028000     263.3002    302.72384    275.37801   -28.584105    30.493266    27.345826     40.08164 
165032000    266.44279    351.97652    257.44491   -30.040397    30.959705    94.531604    40.081372 
165036000    247.28092    283.39135    251.86374   -29.387932    31.182313    31.527607    40.080613 
165040000    265.79307    303.02873    279.68003   -30.238888    29.410755    23.348699    40.078629 
165044000    267.04683    330.47075     279.4122   -30.184557    29.858035    51.058552    40.080536 
165048000    261.33452    323.79725    266.93174   -30.623043    29.976143    56.865509    40.081176 
165052000    260.27568      302.831     281.0357   -29.349419    29.994744    21.795298    40.079984 
165056000    270.58802    320.19417    286.60072   -31.098465    28.672358     33.59345    40.079291 
165060000    274.37051    332.79697    306.51758   -30.628553    27.611993    26.279388    40.080089 
165064000    268.52982    343.88227    260.29076   -30.709674     31.19587    83.591504    40.080542 
165068000    265.38055    323.67229    265.09729    -29.92882    30.986414    58.574993    40.082329 
165072000    269.45539     353.9906    280.57577   -30.863142    30.664822    73.414821    40.082504 
165076000    267.07431    320.63396     291.0414   -29.286863    29.019913    29.592559    40.081814 
165080000    278.40022    346.61139    299.15409   -30.300313    27.843488    47.457296    40.080599 
165084000    271.74536    329.94064    293.94598   -30.800566     28.32015    35.994653    40.080695 
165088000    273.86247    353.08813    272.44927    -30.83003    29.077542    80.638857    40.081315 
165092000    268.46552    356.14482    257.04835   -30.147923     29.08237    99.096465    40.080872 
165096000    266.04785    326.48108    290.23088     -29.4841    28.763861      36.2502    40.080018 
165100000    266.36305    313.53946    275.35853   -29.080427     28.69888    38.180927    40.080742 
165104000    257.34696    296.71048    292.74624   -27.482995    29.177264     3.964248    40.079878 
165108000    259.42542     323.8153    264.11868   -28.667736    29.748279    59.696615    40.080615 
165112000     256.8246    333.98695    259.03488   -27.988401    31.434839    74.952065     40.08229 
165116000    264.18374    327.16775    275.92994   -28.656236    30.034146     51.23781    40.083303 
165120000    262.21399    321.51491    262.85314   -28.733138    31.274079    58.661764    40.082145 
165124000    261.43496    326.03695    282.00012   -27.915756    30.146009    44.036828    40.082854 
165128000    251.18313    311.53677    256.41964   -29.526747    31.534694    55.117136    40.081978 
165132000    275.21294     334.7321     291.7606   -29.162305     29.99981    42.971505    40.081807 
165136000    268.34904     315.8879    288.33562   -28.005928    30.194276    27.552276    40.081365 
165140000    269.24649    335.18543    295.47591   -29.509445    28.614471    39.709521    40.081042 
165144000    264.44236    331.28791    293.69609    -29.90567    29.417109    37.591817    40.083874 
165148000    261.38416    311.03691     305.0725   -28.311334    31.017304    5.9644046    40.083634 
165152000    269.07523    327.23707    285.51441   -29.059497    30.072241    41.722657     40.08281 
165156000     261.2334    299.27093    290.33223   -28.139088    30.341808    8.9387029    40.082196 
165160000    266.97233    340.48036    282.51248    -29.45491    30.516927    57.967885    40.083128 
165164000    265.50513    324.60734    280.19469   -29.444679    30.242259    44.412649    40.083771 
165168000    265.97557     326.9255    283.63993    -29.15724    30.166449    43.285565    40.082521 
165172000    256.67831    305.57468     262.9361   -28.851036    30.257845    42.638574    40.081814 
165176000    263.51297    292.69791    294.92152   -28.556656    28.809748    -2.223605    40.081821 
165180000    270.14222    323.76191    302.85586   -29.641629    29.519383    20.906051    40.081922 
165184000    259.76381    318.07618    259.81735   -28.845849    31.235381    58.258836    40.081408 
165188000    264.55437    306.65032    294.33471   -29.162802    29.568305    12.315612    40.081775 
165192000    271.97886    333.16002    286.21407   -29.811252    30.707523    46.945943    40.082237 
165196000    263.75935    304.10186    284.27605    -29.51165    29.916304    19.825816    40.081491 
165200000      264.088    320.27374    277.14901   -29.300924    31.012768    43.124732     40.08153 
165204000    264.75657     336.1688    263.50619   -29.742675    31.558648    72.662612    40.082482 
165208000    264.97357     308.8045     280.3534   -28.838249    31.211021    28.451103    40.082788 
165212000    272.09077     324.2175    289.18113    -30.78526    28.923883     35.03637    40.083348 
165216000    257.68755    310.79148     259.1079   -30.188782    30.864668    51.683576    40.084003 
165220000    266.50352    343.52448    281.31158   -30.694968    29.273862    62.212894    40.084096 
165224000    263.23053    323.63485    273.29034   -29.642163    30.117613    50.344507    40.083856 
165228000    271.19193    327.41029    300.85778   -29.790765    29.637543    26.552513     40.08344 
165232000     255.0355    329.37974    270.50536   -28.759486    29.911897    58.874375    40.083137 
165236000    275.78635    347.27644    282.70647   -30.374235     30.08732    64.569968    40.084386 
165240000     255.3459     307.7275    293.01345   -28.121728    29.595369    14.714053    40.086509 
165244000    265.97219    346.16541    288.13999   -29.673912    29.451032     58.02542    40.086478 
165248000    260.08345    317.31592    273.88083   -28.834797    30.730715    43.435096    40.085862 
165252000    264.53598    347.13844    260.06587    -29.92603    30.653745    87.072569    40.086076 
165256000    258.36393    322.83921     268.2133   -28.394273    30.308873    54.625913    40.086177 
165260000    261.03441    326.13015    273.09391   -29.310575    30.341808    53.036249    40.087474 
165264000    268.59632     324.5603    297.69686   -28.712763    28.572924    26.863436    40.088063 
165268000    250.63282    292.00688    270.87212   -27.670833    30.662279    21.134762    40.088819 
165272000    260.44741    317.46449    274.32278   -28.309384    29.565671    43.141705    40.087368 
165276000    268.85776    343.43735    277.57759   -30.089759    29.036224    65.859757    40.086219 
165280000    265.30377    346.98635    259.10521   -30.175407    29.780503     87.88114    40.087892 
165284000    267.10723    330.78453    298.43002   -28.634615    28.362175    32.354513    40.088817 
165288000    253.77191    304.00958    272.64523   -27.093697    30.013525    31.364348    40.088256 
165292000    257.92101    306.31463    296.00606   -27.245537     30.07719    10.308576    40.087647 
165296000    255.42043    307.88041    280.71011   -28.297795    30.339946    27.170301    40.087421 
165300000    258.24465    324.79526    274.72857   -29.400392    30.032532    50.066683    40.088491 
165304000     261.2419    321.96027    268.66289   -28.874888    30.774888    53.297385    40.088241 
165308000     261.7271    311.70453    285.76208   -27.846347    29.741891    25.942449    40.087413 
165312000    259.76976    302.03403    309.32165    -27.73949    28.170415   -7.2876153    40.086525 
165316000    255.68694    295.64282    279.78931    -27.43458    28.943096    15.853514    40.086267 
165320000    263.02811    333.27604    284.39696   -29.061681     28.72958    48.879085    40.086745 
165324000    269.32682    332.82061    275.33526   -30.338898    28.724965    57.485349     40.08642 
165328000     258.4983     318.1411    268.28575   -28.523147    29.972517    49.855358     40.08741 
165332000    265.09098    317.93448    304.56363   -28.887846    30.096671    13.370846    40.087253 
165336000    264.18409    333.86364    272.90904   -30.149779    30.104221    60.954599    40.086929 
165340000     249.9994    304.63158    269.42255   -27.991621    30.258674    35.209031    40.087223 
165344000    263.69627    326.67729    276.30411   -29.265733    30.328022    50.373185    40.086718 
165348000    265.70548    300.55626    285.71078   -29.571809    28.821559    14.845479    40.087473 
165352000    267.84759    340.59159    267.65184   -29.808367     30.06345    72.939748    40.087455 
165356000    267.28834    345.17703     262.8127   -31.116753     30.17289    82.364325    40.088498 
165360000    273.34556    345.72057    281.88832    -32.04748    31.187789    63.832243    40.087574 
165364000    273.44208    322.75649    308.70869   -31.318422    30.031976    14.047802      40.0863 
165368000    271.67911    342.48467    276.46935   -32.253678    30.919221    66.015318    40.087719 
165372000    266.94821    310.51631    269.87057   -31.104548    31.217842    40.645741     40.08799 
165376000    270.41303    324.45632    264.05704   -31.305297    31.689628     60.39928    40.087949 
165380000    264.93438    312.67455    275.82314   -30.693601    29.864349    36.851414    40.087594 
165384000    282.13813    349.10264    277.84444   -32.999444    30.867731    71.258202    40.085666 
165388000    273.08091    305.91048    295.39872   -29.358521    29.875632    10.511764    40.084953 
165392000    268.17195    305.81821    289.18443   -30.250198    30.011826     16.63378    40.085315 
165396000    266.16665    330.73082    278.16531   -30.826486    30.515627    52.565506    40.086534 
165400000    272.72768    322.99989    284.33057   -31.026347    30.713846     38.66932    40.086735 
165404000    268.13541    316.79866    258.72921   -30.650159    31.108637    58.069443    40.086037 
165408000    268.08526    315.49308    272.09253   -31.130319    30.651463    43.400552    40.086306 
165412000    266.38547    331.27648    264.02015   -31.100573    31.309206    67.256335    40.083884 
165416000     255.6756    297.00565    270.03893   -29.503336    30.968722    26.966718    40.082697 
165420000    267.27904    333.97149    275.82699   -30.379724    30.748845    58.144508    40.083383 
165424000    267.27475    324.92012     277.3083   -31.598463    30.658551    47.611817    40.084085 
165428000    265.18931    308.10922    287.22703   -30.704205    30.027996     20.88219    40.082804 
165432000    266.86848     335.0667    281.11927   -30.331689    31.198626    53.947435    40.081471 
165436000    264.12352    303.03791     282.1189   -29.635255    30.486072    20.919014    40.081131 
165440000    268.21538    340.00739    297.24999   -30.615449     29.57523    42.757398    40.080998 
165444000    268.71011    356.33158    272.74386    -31.43735    30.618488    83.587726    40.082083 
165448000    265.71759    326.34161    278.72004   -29.753198    31.141821    47.621569    40.081918 
165452000    260.58961     310.2678    292.62014    -30.43796    30.566524    17.647661     40.08219 
165456000    278.43063    324.02317    285.70264   -30.808961     30.36945    38.320533    40.082935 
165460000     277.3271    332.42518    292.12742   -31.732895    29.830393    40.297766    40.082718 
165464000    274.23797    345.06931    276.28937   -31.783228    31.167011    68.779937    40.083126 
165468000    274.21429    305.37268    304.17536   -31.919379    30.039274    1.1973233    40.082176 
165472000    279.31587    341.84499    294.64369   -32.628339    30.414852    47.201308    40.082156 
165476000      270.866    333.77071    282.36129   -31.634234    31.043776    51.409423    40.082449 
165480000    258.44873    322.89697    263.18725   -32.475327    31.389053    59.709722    40.083259 
165484000    277.09659    315.40258    302.02844   -31.599072    30.305172    13.374139    40.082681 
165488000     274.1882    344.54486    294.26311   -32.126305    30.557288    50.281751    40.082089 
165492000    280.74661    338.00157    298.53872   -30.820473    30.678785    39.462854    40.082151 
165496000    267.48258    335.23046    276.18446   -32.107305    30.934947    59.046002    40.081614 
165500000    266.68601    325.95194    262.45114   -31.576409    32.144179    63.500799    40.081761 
165504000    265.46686    314.54817    277.38262   -30.040121    30.876776    37.165553    40.082214 
165508000     253.9873    320.55404    269.22456   -30.035928     30.92181    51.329478      40.0811 
165512000    267.29522    330.41964    265.95305    -31.11065    31.937176    64.466595    40.080687 
165516000    259.42427    313.74031    259.49056   -30.937206    32.296938    54.249748     40.08045 
165520000     271.9886    349.28192    277.95103   -32.470644    31.520202    71.330884    40.078989 
165524000    264.93191    339.17223      276.628   -31.010385    31.255788    62.544227    40.080318 
165528000    264.13606    322.10763    293.60996   -30.143335    29.974333    28.497668    40.080465 
165532000    262.58057    327.95364    248.31773   -31.507011    31.385886    79.635914    40.081283 
165536000    263.23792    320.48398    277.65757   -30.569779    30.587934    42.826407    40.081639 
165540000    273.78606    332.42885    292.39747   -31.432783     30.11256    40.031386    40.082413 
165544000     260.2849    285.58302    292.37857   -29.069663    29.652488   -6.7955437    40.082833 
165548000     276.1464    345.30817     284.0638   -32.451208    29.882438    61.244374    40.082205 
165552000    268.69235    309.68898    292.98986   -31.792418    29.858211    16.699116    40.081175 
165556000    263.73908    323.44915    282.99932   -30.484294    31.061241    40.449829    40.082816 
165560000    264.23775    299.10307    278.20201    -31.17167    31.837724    20.901058    40.081799 
165564000    273.66847    339.45943    280.96662   -32.811217    31.068393    58.492818    40.082354 
165568000    265.04028    319.51344    271.27714    -30.02922    31.331351    48.236306    40.083566 
165572000    258.37104     291.5481    272.07436   -29.747081    30.250298    19.473734    40.083954 
165576000    268.38684    321.80151    297.02622   -31.035463    29.427801    24.775291    40.083656 
165580000     267.2739    313.77467    279.34915    -31.36568    30.946922    34.425526    40.082922 
165584000    275.30953    345.11275    289.38284   -31.580288     30.64344    55.729909     40.08388 
165588000    275.41523    323.69363    287.18451   -31.075164    30.561884    36.509125     40.08298 
165592000    272.13586    336.46763    280.02635   -32.285307    31.016877    56.441284    40.083213 
165596000     271.1249    316.83283    295.90619   -31.721878    31.146601    20.926647    40.084101 
165600000    273.04986    316.29053    281.02889   -30.488025    31.743539    35.261642    40.086377 
165604000     265.4582     310.2438    281.69072    -30.21651    31.475301    28.553077    40.086047 
165608000    265.41247    300.54223    294.66224   -28.872429    31.479795    5.8799869     40.08531 
165612000     257.8715     318.5987    255.66432   -31.192541    32.781396    62.934377    40.083141 
165616000    266.99382    342.72491    268.85699   -32.457024    31.812536    73.867922    40.082793 
165620000    265.16342     315.2153    276.80548    -31.92005    30.984265    38.409815    40.083912 
165624000    274.54021    335.60677    273.83228   -33.461148    31.467169    61.774489    40.084557 
165628000    268.59959    300.95018    285.83192   -31.688209    31.427677    15.118261     40.08458 
165632000     265.6152    303.46573    286.79694   -32.213004    31.116432    16.668795    40.083448 
165636000    280.75407    353.45393    289.12822   -34.672356    30.368833    64.325709    40.082604 
165640000    264.65052    307.44682    280.06736   -33.589943     30.48892    27.379465    40.082229 
165644000    263.54297    322.21597    256.43595   -32.149757    32.559708    65.780017    40.080709 
165648000    262.04458    319.91928     266.8877   -33.186303    32.500496    53.031582     40.08126 
165652000    276.65134      337.686    289.46091   -32.591666    31.136391    48.225091    40.081419 
165656000    267.81327    323.33953    293.62378   -31.639554    30.713537    29.715752    40.081449 
165660000    265.38578    312.94275    279.05439   -31.481046    31.059279    33.888365    40.082665 
165664000    260.96864    316.12259     267.4304   -29.761431    31.220182    48.692193    40.083851 
165668000    266.56301    330.48268    276.96333   -30.209533    31.434114    53.519355    40.084349 
165672000    274.21815    343.55509    284.84169   -31.347844    31.465899    58.713406    40.085801 
165676000    260.28478    316.47918    251.06958   -31.806435    31.895951    65.409597    40.087429 
165680000    266.61905    331.37931    275.08655   -31.935131    30.967731    56.292763    40.086544 
165684000    269.23061    310.77632    282.67228   -31.740647     30.85688     28.10404    40.085766 
165688000    267.64174    328.59508    290.87173   -31.577051    30.252176    37.723353    40.084638 
165692000    272.01653    341.51312    289.23665   -33.091021    30.677597    52.276473    40.086294 
165696000    274.44448    325.98837    295.96876   -31.430568    30.409334    30.019606    40.085742 
165700000    260.03336    330.14015    283.12041   -30.649456    31.029571    47.019733    40.086779 
165704000    259.61346    310.60492     274.6756    -30.09745    30.943113    35.929318    40.086544 
165708000    256.60808    305.12199    269.84032   -29.907556    32.449527    35.281666    40.085708 
165712000    262.40532    327.27728    286.37443   -31.176746    31.383386    40.902846    40.086332 
165716000    261.44577    298.58424    286.77681   -29.016316    31.485164    11.807437    40.086366 
165720000    275.54579    340.73961    265.12845   -31.881457    31.467055    75.611168    40.087674 
165724000    272.45226    315.71511    297.46265   -32.023482    28.390411    18.252461      40.0878 
165728000     266.1699    312.28741    277.88455   -32.754087    30.029004    34.402863    40.088558 
165732000    266.85827    308.58327    270.91515   -31.207009    30.428764    37.668118    40.088939 
165736000    270.62691    319.39103    267.96574   -33.102319    30.592257    51.425294    40.088551 
165740000    272.77758    302.45649    300.29193   -31.344129    29.652916    2.1645639    40.087815 
165744000    259.40308     287.0412    275.89362   -30.560687    30.350202    11.147579    40.087771 
165748000    283.62447    329.58654    299.44416   -31.463445    30.265987    30.142379    40.087519 
165752000    269.99648    340.21513    278.81503   -31.142043    30.962788    61.400093    40.086771 
165756000    262.74311    317.60635    274.29243   -30.583083    31.760856    43.313922    40.086589 
165760000    261.64464    315.85224    283.52192   -30.615613    32.100499    32.330323    40.085942 
165764000    255.60643    309.04552    269.99525   -30.164613    31.804572    39.050263    40.085764 
165768000    264.32814    345.59564    264.82732   -31.968632    32.011074    80.768318    40.085334 
165772000    262.71249    310.92035    279.97576   -30.922057    31.336674    30.944595    40.083909 
165776000    265.34658    296.76321    272.92492   -31.582845    32.001653    23.838289    40.083214 
165780000    276.35955    347.44052    285.51079     -33.8698    30.881192    61.929737    40.082022 
165784000    271.82835     332.4191    302.87851   -32.256684    30.261576    29.540588     40.08106 
165788000    266.07069    317.63485    280.34946   -31.647037    31.147104    37.285388    40.079697 
165792000    265.84967     308.8492    296.62273   -30.969152     31.09643    12.226472    40.081106 
165796000    268.37717    328.65918    282.80948    -31.39597       31.468    45.849699    40.080854 
165800000    272.37257    340.31875    291.69415   -32.198394     30.54528    48.624603    40.081367 
165804000    259.40191    298.26177     271.4366   -31.419049     31.23441    26.825172    40.081787 
165808000    266.39335    306.94012    286.96432   -31.582322    30.677043    19.975799    40.082303 
165812000    273.98218     328.4457    297.07465   -33.241761    30.328579    31.371052    40.084348 
165816000    262.00642    310.04925    263.03423   -31.121794    31.708947    47.015019    40.085599 
165820000    274.14862    337.59766    264.12512   -32.779418    31.643893    73.472539     40.08625 
165824000    268.16129    330.48767    267.39134   -32.632933    32.654021    63.096332    40.085565 
165828000    266.33266     327.6304    273.64745   -33.116253    31.563136     53.98295    40.085278 
165832000    271.72008    340.20452    275.27791   -32.919862     31.70367    64.926614    40.084912 
165836000    273.23634    325.38506    282.76632   -32.153531    31.293737    42.618738    40.085715 
165840000     273.5397    316.23845    301.76887   -30.346847    30.379566    14.469573    40.084535 
165844000    264.08775    322.56944    285.20916   -29.459798    30.346365    37.360273    40.084387 
165848000    262.50148    322.54689    265.46097   -30.669991    31.376178    57.085917    40.083816 
165852000    262.91961    334.09166    251.46653   -30.880898    31.635939    82.625131    40.086278 
165856000    256.08643    297.04913    280.79896    -28.99008    30.071411    16.250164    40.086221 
165860000     273.7131    341.06779    300.81273   -32.265426    29.801526    40.255058    40.087702 
165864000    257.22682    284.46865    269.44877   -30.105247    30.198792    15.019881    40.087423 
165868000    256.09748    314.24124    284.56246   -30.766662    30.228635     29.67878    40.086854 
165872000    267.87916    318.01784    278.96617    -29.89832    30.557107    39.051669     40.08729 
165876000     268.4192    308.80484    283.08349   -29.703796    28.351607    25.721347    40.088166 
165880000    263.50871    315.14766    249.99516   -30.171109    31.046045    65.152501    40.087149 
165884000    272.06054    313.84151    280.26758   -30.269046    31.064539    33.573923    40.087258 
165888000    267.94397    321.45615     271.4095   -31.419407    31.143566    50.046645      40.0887 
165892000    259.98066    326.46724     270.6935   -30.973863     31.51571     55.77374    40.088457 
165896000    265.27783    323.66013    258.24209   -30.323425    31.948422    65.418035    40.088609 
165900000    277.66643    339.33255    304.05329   -31.756214    30.074721    35.279252    40.089217 
165904000    264.26259    328.01614    290.81066   -31.202467    30.702746    37.205479    40.089488 
165908000    280.41965    328.66983    293.51266   -33.189463    30.388463    35.157165    40.088395 
165912000    265.63593    326.28611    247.15661   -32.092406    32.425055    79.129501    40.090397 
165916000    270.82233    327.30483    275.95437   -31.932827     30.78133    51.350452    40.092354 
165920000    262.05441    318.88114    267.72343   -31.732881    31.288589     51.15771    40.092135 
165924000    270.93144    335.13787    299.74018   -33.478035     31.06258    35.397694    40.092021 
165928000    268.11696    322.70519    289.54491   -31.704409    30.274355    33.160287    40.092415 
165932000    265.25311    308.95148    276.79055   -30.024392    31.047826    32.160928    40.092852 
165936000    263.76738    311.34114    275.43694    -30.80878    30.935519    35.904203    40.092794 
165940000    271.51472    317.60181    278.20895   -30.390193    32.167512     39.39286    40.093811 
165944000    266.33979    337.36388    272.13577   -29.447707    30.982545    65.228116     40.09478 
165948000    266.94761    325.26014    276.29996   -30.531166    32.107903    48.960179    40.094424 
165952000     274.6541     330.9679    286.99741   -30.858605    30.308625     43.97049    40.094897 
165956000    269.27878    310.95438    301.88764   -29.133478    31.075125    9.0667374    40.094755 
165960000    271.59538    340.66767    285.92775   -31.655147    30.954511    54.739911    40.095146 
165964000    255.94647    302.69212    278.92149   -30.118584    31.317003    23.770634    40.096049 
165968000    269.06036    344.59986    265.85666   -31.775864    31.177602    78.743199    40.095376 
165972000    272.72874    331.11742     301.8625   -32.279482    29.541374    29.254923    40.096111 
165976000    272.20966    319.75874    296.72162   -31.178217     30.21944    23.037124    40.095954 
165980000    264.64626    330.18139    285.38635   -31.014856    31.087109    44.795034    40.095877 
165984000    263.91874    304.06539    282.78016   -30.739561    30.946653    21.285232    40.095088 
165988000    268.79518    340.35284    283.66823   -33.420965    30.873097     56.68461    40.093888 
165992000    261.16443    320.56744    290.11276   -31.649122    31.400813    30.454679    40.093286 
165996000    270.16241    325.63584    288.56109   -31.084469    30.765947    37.074756    40.093968 
166000000     264.9313    320.42323    287.16333    -30.70795    30.520324    33.259903    40.095767 
166004000    253.70877    297.27729    259.67734   -30.145178    32.655757    37.599953    40.095367 
166008000    270.85427    313.13304     291.9583    -30.44114    30.602134    21.174742    40.093386 
166012000    266.90277    314.71521    285.96989   -30.607758    30.413315    28.745329    40.092996 
166016000     274.9923    328.24607    299.64151   -32.111611    30.896772    28.604553    40.092155 
166020000    265.33743    322.45352    275.63337   -31.510124    31.100477    46.820141    40.091749 
166024000    271.78268    339.13284    284.42924   -32.105593    31.206962    54.703593    40.092592 
166028000    269.92348    326.01243    282.73805   -31.559563    30.826032    43.274376    40.092896 
166032000    272.45464    334.89995    274.15973   -31.630887    31.688603    60.740219    40.092618 
166036000    265.41295      306.892    281.61169   -30.625769    31.306488    25.280311    40.092786 
166040000     279.4093    326.69094    311.98341   -31.484167    30.398611    14.707531    40.092941 
166044000    271.35324    326.07462    282.66848   -31.279254    30.659819    43.406139    40.092869 
166048000    268.92794    323.47691    281.51835   -32.200512    30.423801    41.958566    40.091166 
166052000     261.4807    299.28286    281.12867    -29.56639    31.773296     18.15419    40.091896 
166056000    262.85108    312.17635     285.6614   -31.601881    31.435836    26.514957    40.092285 
166060000    269.43756    312.22839    292.36437   -31.879682    31.061493     19.86402    40.092142 
166064000    268.98725    323.66595    279.72122   -32.254515    30.850337    43.944735    40.092569 
166068000    262.05243    309.95752    265.59086   -30.889647    31.217286    44.366654    40.092469 
166072000    262.29315     315.7342    286.00458   -30.928977    30.890263     29.72962    40.091644 
166076000    263.75791    304.60829    289.38261   -29.169904    31.057405    15.225673    40.090719 
166080000    259.55023    304.92254    288.84518   -29.584644    31.081881    16.077352     40.08921 
166084000    266.93721     335.9796    288.23051   -31.705031    30.681387    47.749087    40.089567 
166088000    257.12713    310.23235    258.60874   -30.531134    32.427276    51.623607    40.087281 
166092000     273.9696    361.64736    284.80299   -33.153911    30.667535    76.844369    40.088089 
166096000    262.41411    335.38095    264.29649   -32.491981    31.226803    71.084456    40.088573 
166100000     259.3972    327.50943    264.93186   -30.444081      31.4417    62.577571    40.087692 
166104000    269.39619    327.02667    287.39187   -32.002757    30.995221    39.634798    40.087961 
166108000    272.76699    326.04815    290.12291   -31.550991    31.063367    35.925248    40.088984 
166112000    262.55726    306.41617     274.3004   -30.710304    31.450843    32.115774    40.088646 
166116000    258.66305    293.26207    292.82543   -30.682718     30.04384   0.43663513    40.086644 
166120000    258.05057    314.10937    246.36079   -31.580521    31.874876    67.748575    40.086601 
166124000    270.01783      339.103    276.78631    -31.81944    30.388384    62.316693    40.085314 
166128000    258.17133    293.69605    286.76277   -30.165787    31.498944    6.9332836    40.084212 
166132000    278.27284    327.73232    295.18492   -30.870472    30.508536    32.547396    40.083111 
166136000     276.6412    331.48305    296.20646   -32.595006    30.097599    35.276595    40.082258 
166140000    272.78233    320.34032    286.82999   -31.651797    30.864952    33.510329    40.081017 
166144000    260.25233    302.93506    268.53134    -30.25394    31.824392    34.403715     40.08058 
166148000    264.60148    311.49328    274.98941    -31.52723    31.524025    36.503871    40.080655 
166152000    267.30161    327.37552    279.25222   -30.620613    30.200358    48.123298    40.080104 
166156000    278.30122    326.51401    285.99265   -31.675174    30.577885    40.521362    40.079422 
166160000     273.7761    324.55764    278.51282   -30.867206    30.546144    46.044827    40.078885 
166164000     266.1343    314.19701    280.43458   -30.976921    30.880377    33.762438    40.078593 
166168000     270.0987    322.25838    278.98878   -30.838359    30.530776    43.269598    40.079545 
166172000    263.80142    338.05169    265.23803   -33.952013    31.197058    72.813657    40.080328 
166176000    263.65803    320.93782    255.74862   -32.381645    32.219963    65.189196    40.079766 
166180000    265.29027     308.7646    285.69944   -30.875786    30.636062    23.065161     40.07845 
166184000    276.89254    342.92837    278.57372   -33.004213    31.089506    64.354654    40.077992 
166188000    265.88776    325.06074    288.69119   -31.933677    30.689201    36.369554    40.079237 
166192000    269.84682    323.58775    287.57924   -31.563323    30.309492    36.008513     40.07789 
166196000    272.36497    334.82477    273.53403   -33.666059      31.3792    61.290735    40.078197 
166200000    275.54138     339.9816    282.64141   -31.783892    31.770578    57.340183    40.078506 
166204000    266.57692    318.63262    279.89104   -31.414807    30.547431    38.741577    40.079533 
166208000    277.39085    340.32711    303.16183    -33.14679    30.043594    37.165285    40.080186 
166212000    275.69677    331.51011    272.83641   -32.894639    29.859613    58.673702    40.080949 
166216000    278.48228    326.29053    282.02773   -32.863008    29.732273    44.262806    40.081691 
166220000    269.56038      327.654    249.99555   -33.396131    30.562552    77.658446    40.082535 
166224000    277.97663    331.97958    300.66747   -33.392019    29.787832    31.312109    40.083082 
166228000    272.05429    341.31714    281.38733   -32.965488    30.407796    59.929805    40.082437 
166232000    274.35472    327.83543      278.255   -32.916291    31.030437    49.580433    40.080839 
166236000    265.37613    309.44102    281.90849    -31.51075    32.390361    27.532535    40.080887 
166240000     272.7361    321.94691    293.82438    -31.56255    30.639675    28.122536    40.082379 
166244000     264.1125    331.97007     268.1387   -32.845272    31.141152    63.831373    40.083348 
166248000    274.51514    325.34202     301.7132   -32.397347    30.089568    23.628829    40.083582 
166252000    274.49211    317.82543    287.08248   -31.477424    31.675399    30.742945    40.084904 
166256000    269.20465    310.12812    291.29367   -30.906926    31.491979    18.834448    40.084544 
166260000    280.36759    348.69921    289.63068   -33.057384    30.974807     59.06853    40.086478 
166264000    268.70917    313.23669    299.50402   -31.341909    30.714115    13.732668    40.086729 
166268000    259.04743    330.65292    253.02834   -31.145667    32.319684    77.624582    40.086199 
166272000    268.89403    324.30744    280.38386   -32.364962    30.106681    43.923578    40.085477 
166276000    271.83628    319.74215    287.28134   -32.144066     31.28264    32.460817     40.08682 
166280000    267.26967     315.7286    301.63916   -31.699252    31.764167    14.089442    40.085146 
166284000     266.4692    304.21131    284.37906   -32.158674    31.649924    19.832247    40.085807 
166288000    261.81393    294.35675    285.94205   -31.606827    31.619179    8.4147015    40.086634 
166292000    271.97458    319.44983    279.95936   -31.653075    30.840417    39.490469    40.086874 
166296000    269.47311    331.96332    274.74399   -31.832381     30.69969     57.21933    40.087343 
166300000    278.64963    361.72464     279.7014   -33.326874    30.998033     82.02324    40.086767 
166304000    267.22481    312.32749      290.178   -31.264698    31.012121    22.149492     40.08648 
166308000    273.52023    320.75898    286.24676   -32.701408    30.823482    34.512216    40.087641 
166312000    265.97032    329.73471    279.34949   -32.760689    30.498259    50.385225    40.087167 
166316000      283.259    339.77345     292.3616   -33.656116     30.09758     47.41185    40.087705 
166320000    275.14832    329.57022    292.60654   -33.101028    30.206445    36.963682    40.086524 
166324000    268.44784    309.30758    278.88612   -31.264547     30.94373    30.421461    40.086391 
166328000    269.55599    306.37092    276.16212   -30.498896    30.807577    30.208797    40.087134 
166332000    275.14383    311.42207    294.68475   -30.923299    29.583734    16.737324     40.08711 
166336000    263.91579    317.78369    273.08707   -31.131919    31.323336    44.696617    40.086936 
166340000    272.13406    329.51694    275.80562   -32.990983    30.577299    53.711325    40.086997 
166344000    274.97736     329.9566    278.36806   -32.586494    30.786478    51.588537     40.08559 
166348000    268.06616    316.72753    283.14631   -31.263716    31.254772    33.581217    40.085657 
166352000    265.00898    329.83984     269.1058   -31.858122    30.295736    60.734045    40.083574 
166356000    267.83843    313.21509    296.87891   -31.386044    29.742223     16.33618    40.081231 
166360000    266.27766    317.88497    272.98469   -31.468331    30.232122    44.900278    40.082015 
166364000    267.32688    310.42591    292.35521   -30.355482     30.34057    18.070696    40.080988 
166368000    272.62382    308.68136    281.85335   -31.137924    30.439405    26.828014    40.081443 
166372000    270.55531    317.35721    289.49987   -31.667366     29.76303    27.857346    40.080689 
166376000    258.74118    316.82887    266.13361   -30.432156    31.928667     50.69526    40.080624 
166380000    262.67316    307.66728    267.18177   -32.222562    31.114121    40.485516    40.080625 
166384000    264.29609    307.68982     288.3889   -31.633294    30.336099    19.300924     40.08103 
166388000    272.45966    325.82566    298.27072   -31.573119    30.456192    27.554947    40.079957 
166392000     261.5648    339.33454    259.06105   -31.912942    30.643314    80.273498    40.078863 
166396000    261.87817    312.31106    276.81565   -31.660847    30.338045    35.495413    40.079509 
166400000    272.89119    334.32197    296.61053    -31.52501    30.098566    37.711441    40.079176 
166404000    258.14417    314.01129    256.50212   -30.407672     31.12794    57.509169    40.078007 
166408000    263.96583    312.28641    266.08472   -29.879129    30.788292    46.201698    40.076752 
166412000    268.64069    329.59203    266.32303   -31.764829    31.029583    63.269004    40.077899 
166416000    274.79478     326.4492    281.43766   -32.760362    31.755336    45.011542    40.077869 
166420000    272.93654    345.61473    264.57287     -32.4649    31.493781    81.041854    40.078546 
166424000    285.40242    356.68647    287.72016   -33.532414    30.680504    68.966307    40.080569 
166428000    262.75076    315.48138    259.79568   -32.203339    32.177282    55.685701    40.081231 
166432000     267.8195    338.80403    274.02373   -33.133373    31.666974    64.780299    40.082036 
166436000    264.80134    318.10567    271.80022   -31.916002     32.37363    46.305449    40.081627 
166440000    262.86925    299.55697    274.45754   -32.401651    32.403454    25.099431    40.080754 
166444000    266.12812    307.55654    293.57546   -32.624405    31.831574    13.981079    40.080177 
166448000    280.69292    338.17141    301.97412   -34.974055    31.179058    36.197295    40.080367 
166452000    284.79113    346.92684    292.38164   -34.592519    31.119121    54.545195    40.080455 
166456000    270.88241    320.48958     275.3718   -33.003688    31.578286    45.117774    40.082162 
166460000    270.76903    338.40462    273.51358   -34.161779    32.048041    64.891039    40.081921 
166464000    278.02601     341.3491    280.85466   -33.812858    31.674087    60.494443    40.080597 
166468000    271.69228    328.20018    274.55034   -33.494053    31.816565    53.649842    40.080805 
166472000    265.80668    308.73577    285.84125   -32.455991    30.387134    22.894525    40.079686 
166476000    266.89485    310.13193    282.96959    -32.58185    31.858502    27.162337     40.07888 
166480000    269.88387    325.11643    268.11774   -32.760954    31.684965    56.998687      40.0786 
166484000    283.12052    332.23021      288.185   -34.718508    30.544629    44.045203    40.077742 
166488000    271.25301    327.82152    268.67962   -34.619898    31.404923      59.1419     40.07788 
166492000    270.77887    339.22264    260.62349   -33.150234    31.342946     78.59915      40.0781 
166496000    274.21515    308.53478    302.86507   -32.912253    29.888891    5.6697089    40.077796 
166500000    264.37298    293.36339    278.62772   -33.962695    32.054265    14.735674    40.078219 
166504000    269.70449    327.99152    270.81593   -33.488126     31.18885    57.175595    40.077973 
166508000    268.92261    338.91071    273.68537   -33.388769    30.474299    65.225339    40.078163 
166512000    272.84936    334.08214     264.0069   -33.655861    32.307965    70.075243    40.077799 
166516000    270.97891     318.5909    286.29463   -32.277384    29.867572    32.296272    40.076858 
166520000    279.42339    321.06496    302.36199   -32.092866    30.062595    18.702967    40.076574 
166524000    274.23575    336.94909    269.08154   -35.129521    32.130982    67.867551    40.075091 
166528000    273.77908    329.85208    283.54971   -32.668216    31.874255    46.302367    40.075352 
166532000     268.6589    323.02765    275.08157   -33.506938    32.231319    47.946072    40.076504 
166536000    264.70864    318.88849    289.72954   -32.854198    31.768603    29.158949    40.076108 
166540000    265.80587    330.89046    274.57483   -33.476606    31.660106    56.315631    40.076647 
166544000      287.711    355.04198     313.3826   -34.958742    31.380951    41.659379    40.076444 
166548000    265.12812    317.89378    273.84867   -33.032014    32.563015    44.045113    40.076048 
166552000    269.21695    328.31751    282.62755   -32.813718    31.881267    45.689951    40.077004 
166556000    277.76873    359.64101    285.20202    -34.31376    31.819771    74.438988    40.077707 
166560000    264.77973    329.26814    269.30905   -32.775144    32.845924    59.959093    40.077319 
166564000    260.57135     324.1718    281.65517   -31.557337    32.564962     42.51663    40.077626 
166568000    273.06323    348.98384    269.51795   -33.220397     32.85351    79.465897    40.077776 
166572000    274.04406    336.88304    313.99004   -32.508711    30.744414    22.892999    40.078257 
166576000    264.17404    305.89733      285.916   -32.679948    31.210387    19.981323    40.078756 
166580000    268.13978    320.33462    280.95399   -33.142279      32.3703    39.380631    40.077223 
166584000    270.87719    322.78973    303.65994   -32.460071    31.469012     19.12979    40.076321 
166588000    271.73653    309.52298    296.38182   -31.854109    31.884323    13.141154    40.075547 
166592000    277.17774    342.86055    282.06554     -33.5891    32.592385    60.795011    40.074964 
166596000    270.22112     314.0569    280.16336   -32.825771    31.479711    33.893544     40.07538 
166600000    269.29972    325.48547     273.4078   -32.505096    32.095724    52.077669     40.07648 
166604000     272.2296    326.64667    281.07148   -33.977774    31.594424    45.575189    40.075979 
166608000    270.61793    330.87423    268.52048   -34.393303    32.473609    62.353748    40.076811 
166612000    267.71259     326.5241     273.4504   -34.098512    32.034037    53.073699    40.078112 
166616000    269.55474     320.6587    277.37081   -35.254009     31.92517    43.287896    40.077229 
166620000     265.8538    300.76796    284.89615   -34.256601     32.64119    15.871815    40.076427 
166624000    272.71818    304.39942    280.41433   -33.608439    32.762559    23.985094    40.076482 
166628000    281.23907    342.69927     276.9674   -35.411845     32.00972    65.731871    40.077662 
166632000    265.17007    315.12915    259.93774   -34.232742    32.398404    55.191415    40.078676 
166636000    278.06219    329.74113     290.3128   -34.478684    32.107687    39.428326    40.078844 
166640000    270.72653    328.58143    294.74015   -34.092132    31.226081    33.841279    40.079423 
166644000    272.16745    316.24759    273.83103   -33.870079    31.879978    42.416553    40.077302 
166648000    282.12021    345.69793    283.77496   -34.363976    32.208854     61.92297    40.077736 
166652000    283.77651    343.44181    308.16345   -34.250985    30.297441    35.278365    40.078719 
166656000    275.02165    336.07798    283.46226   -34.112614    32.879504    52.615718    40.078637 
166660000    263.72215    323.21547    273.40414   -33.279983    32.719246    49.811338    40.078073 
166664000    273.05816    331.62678    288.33934   -33.846348    31.800289    43.287441    40.079151 
166668000    263.43266    316.60793     272.7957   -34.073313    32.354714    43.812227    40.080015 
166672000    261.23589     304.9757    256.58898   -31.715338    33.243764     48.38672    40.080948 
166676000    278.49207    325.89859    313.85589   -33.474074    31.667643    12.042702    40.082153 
166680000    266.33329    339.11537    269.03496   -33.590068     32.89376    70.080414    40.084335 
166684000    274.22599    317.26317    286.02826   -32.087482    32.909166    31.234911    40.083181 
166688000    261.33203    312.45876    280.63619   -31.909615    32.721087    31.822574    40.084028 
166692000    270.05612    311.51382     273.8045   -33.046607    33.191377     37.70932    40.084748 
166696000    258.51142     314.8127    253.82994   -32.434543    33.750778    60.982756    40.083011 
166700000    260.84765    314.03539    264.67824   -33.300788    33.104825    49.357149     40.08376 
166704000    275.51401    344.27686    272.51064   -34.063837    33.462325    71.766224    40.084179 
166708000    266.86412    329.48304    278.24081    -33.24369    32.832491    51.242223    40.084298 
166712000      266.365    313.43375     273.1994    -32.12044    32.923868    40.234351    40.084269 
166716000    262.51779     304.5739    283.09451   -32.893779    33.829813    21.479393    40.084698 
166720000    258.87302    320.96893    267.37418   -32.739733    33.539397     53.59475    40.084556 
166724000    266.81951    328.39443    270.24303   -33.550505    33.432611    58.151398    40.084563 
166728000    279.30148    352.36962    285.53962   -34.499372    33.378074    66.829996    40.085066 
166732000    273.29184    340.94295    272.53734   -35.655161    33.759229    68.405608    40.086391 
166736000    282.82365    334.91412     294.4386   -35.899692    32.164534    40.475514     40.08767 
166740000    268.07589    312.46977     295.0477   -33.933971     32.74308    17.422077      40.0885 
166744000     269.6794    318.98597    273.98546   -34.564385    32.974229    45.000508    40.088804 
166748000    276.63767    311.22887    299.97341   -33.107956    32.085915     11.25546    40.089049 
166752000    264.12185    335.33219    267.72533   -35.607668    33.222985    67.606855     40.08939 
166756000    265.88999    307.50727    252.92051   -33.524377    33.381021     54.58676    40.090239 
166760000    268.82091    321.39748    277.99938   -34.223877    33.152723      43.3981    40.091156 
166764000    275.91341    344.78687    295.33304   -35.740893      33.0265    49.453836    40.091181 
166768000    269.41286    322.77365    285.94149    -34.63405    31.955606    36.832164    40.090879 
166772000    277.11035    331.08431    300.15142   -35.673834     31.93767    30.932894    40.092005 
166776000    278.36373    336.61474    273.35324   -34.381788    32.630618    63.261495    40.093178 
166780000    277.47678    347.36906    285.01886    -35.25172    32.036208    62.350199    40.093894 
166784000    275.03248     329.2756     301.0157    -34.15984    30.226482    28.259897    40.095952 
166788000    255.06666    304.35001    254.14976   -32.827926    33.749314    50.200249    40.095957 
166792000    253.60949    284.67596    268.07091   -32.992768    33.242078    16.605058    40.095092 
166796000    270.02698    336.44238    272.51546   -34.652681    32.358811    63.926921    40.094399 
166800000    265.15598    309.18741    272.75469   -31.990871    33.085924    36.432729    40.093931 
166804000    267.15995    300.50809    289.97415   -32.323845    32.480691    10.533937     40.09253 
166808000    266.03373    329.86234      290.081   -34.027159    32.406223    39.781338    40.093072 
166812000    274.48528    327.99178    288.59636    -35.16001    31.976619    39.395424    40.091555 
166816000      269.727    319.93345    286.89699   -33.944112    32.959222    33.036462    40.090291 
166820000    278.65386    362.02909    284.53325   -34.892376    33.322869    77.495841    40.090337 
166824000    269.99609     311.6155    299.72638   -33.133713    32.629651    11.889124    40.089366 
166828000    252.96498    297.52773    255.33945   -33.381055    34.031499    42.188285    40.088285 
166832000    267.03416    289.41958    282.02418   -32.316503    32.503409     7.395399    40.089097 
166836000    272.49281    332.98503    296.37312   -33.313316    32.683195    36.611905    40.090005 
166840000    268.67068    317.82238    288.06078   -33.574136    33.552068    29.761594    40.090385 
166844000    269.44274    324.19717    258.72546   -34.729291    35.123668     65.47171    40.091004 
166848000    265.83366    333.58658    285.24515   -34.428908    33.441506    48.341431    40.091358 
166852000    267.00926    313.36901     302.0644   -33.551134    33.236663     11.30461    40.091949 
166856000    275.30334    333.65217      284.963   -34.082594    33.042093     48.68917    40.092631 
166860000    256.04022    289.53709     268.1406   -32.758996    34.320553    21.396494    40.091836 
166864000    273.62204    369.18531    264.47934   -35.837824    34.689188    104.70598     40.09187 
166868000    263.51752    314.26215    281.36411   -32.880581     34.27323    32.898037    40.091144 
166872000    268.24227     331.9347    284.85812   -34.424239    33.373458    47.076577    40.091978 
166876000     259.5645    316.70176    283.50165   -33.858601    33.633578    33.200108    40.090537 
166880000    268.09323      326.649    280.90442    -33.37535    34.195378    45.744574    40.090849 
166884000    270.23933    326.95024    291.55782   -34.941894    33.867213    35.392421    40.091675 
166888000    264.10355    328.04154    268.06114   -34.749031    34.932019    59.980406    40.091965 
166892000    264.46591    323.19728    269.12223   -35.144953    34.248289    54.075047    40.093226 
166896000    264.58618    299.68386    271.86839   -34.166418    33.690479    27.815465    40.091524 
166900000    280.91879    328.89338    296.66896   -36.491675    34.187169     32.22442    40.091883 
166904000    256.63665    298.06673    262.90879    -34.95479    34.201456    35.157933    40.092339 
166908000    269.70021     323.8801    306.46779   -34.733961    33.478392    17.412316    40.091707 
166912000    268.63611    335.32557    277.07524   -35.641418    33.866178    58.250325    40.092445 
166916000    274.12186    324.21134    300.23699   -35.107201    33.734774    23.974347    40.093091 
166920000    276.35792    335.64886    292.21155   -35.014896    33.715862    43.437316    40.093271 
166924000    273.46427    301.22073    322.10356   -33.139742     32.05144   -20.882837    40.092346 
166928000    264.44976    299.30108    291.92817   -33.553219    32.783427    7.3729062    40.092266 
166932000      270.945    332.53903    278.26801    -34.77806    34.275707    54.271022    40.091855 
166936000    262.72747    295.88497    280.70509    -32.94156    32.927677    15.179881     40.09028 
166940000    260.52457    320.53964    251.57008   -34.922595      34.8123    68.969567    40.090009 
166944000    270.68397    309.84827    295.44477   -34.566237     33.04002    14.403497    40.090535 
166948000    261.74244    291.41798    284.78984   -33.863813    34.474853    6.6281441    40.091563 
166952000    269.76023    352.56952    272.04825   -36.353778    34.607379    80.521263    40.091646 
166956000    262.69627    320.78843    277.64376   -34.134962    33.914318    43.144669    40.092122 
166960000    261.77413    299.11748    289.05237   -32.333737    34.814341    10.065106     40.09053 
166964000    265.39706     335.7949    269.77932   -33.884199    34.191906    66.015582    40.090127 
166968000    272.27455     311.4577    298.95224   -32.836936    32.719939     12.50546    40.088831 
166972000    266.75253    323.22663    289.13346   -32.990624    33.567293    34.093167    40.087256 
166976000     262.6405    320.21947     285.1568   -33.862025    32.514558    35.062668    40.086053 
166980000    271.46636    303.65263    300.60643   -32.393603    32.765585    3.0461941    40.086084 
166984000    266.52386    331.27092    283.71722    -33.49614    32.275037      47.5537    40.086008 
166988000    263.06339    332.74863    273.46551   -32.860898     33.31111    59.283118    40.085732 
166992000    261.71419    306.37522    280.30526   -32.763269     33.53267    26.069968    40.087317 
166996000    260.46865    325.15315    272.50984   -33.395089    34.147374    52.643303    40.086968 
167000000    263.60502    338.92252    282.36933   -34.741683    34.233478     56.55319    40.086965 
167004000    259.33343    324.18518    264.36371   -33.440307    34.152025    59.821471    40.085997 
167008000    268.42222    343.84222    266.33178   -34.401372    34.106676    77.510443    40.085684 
167012000    271.14526    345.98741    282.89774   -34.851911    33.414114    63.089669    40.086005 
167016000    258.64609    299.03606    279.52018   -32.546257    33.795943    19.515879    40.086372 
167020000    263.18231    322.97155    273.82439   -33.191431    34.926487    49.147163    40.084851 
167024000    257.80059    299.15001    274.48025   -32.844106    34.842288    24.669761     40.08519 
167028000    259.27809    315.52592    269.08818   -33.284127    35.119726    46.437742    40.085519 
167032000    269.26905    317.12326    287.14438   -33.525146    33.944981    29.978874    40.085102 
167036000    258.92554    302.56367    282.74461   -32.127237    33.969091    19.819063    40.085205 
167040000    262.23974    310.39765    264.43665   -32.892275    33.777536       45.961    40.085331 
167044000    267.11675    331.96908    271.02595   -32.600897    34.083657    60.943127    40.084959 
167048000    267.12896    330.40873    293.87868   -33.483096    33.642769    36.530048    40.085052 
167052000    259.54127    317.66632    279.18924    -32.17839    33.888886    38.477077     40.08525 
167056000    261.82891    320.91954    269.86156   -32.897848    34.608214    51.057976    40.084476 
167060000    267.89427    340.75716     280.2346   -34.305866    33.220733    60.522556    40.084988 
167064000    280.36984    364.80275    285.14633   -35.818609    32.418343    79.656424    40.085722 
167068000    275.38028    335.52258    294.96475   -33.135236    31.873431    40.557834    40.084911 
167072000    262.75625    302.56114    281.86341   -31.580607    32.474523    20.697736    40.086359 
167076000    263.50547    319.37526    275.52801   -32.827681    33.048053    43.847253    40.085442 
167080000    267.63964    309.97431    287.91541   -31.873585     32.31783    22.058905     40.08508 
167084000    257.57483    311.46336     272.6574   -32.067231    33.455052    38.805957    40.086237 
167088000    263.81393    315.42351    285.84261   -32.265722    33.675954    29.580904    40.085011 
167092000    265.48935    297.69526    289.81107   -32.582742    32.652421    7.8841938    40.085899 
167096000    260.80743    308.80601    273.11958   -33.401738    33.415886    35.686431    40.085785 
167100000    272.72072    345.45187    270.61987   -34.767617    33.812387    74.831996    40.084921 
167104000    252.70624    276.92351    266.64271   -33.359954    34.189777    10.280797    40.085253 
167108000    267.62214    307.32115    291.28702   -34.475893    32.848605    16.034125    40.084762 
167112000     274.6854    353.13822    278.36345   -36.339018    34.260733    74.774771    40.086292 
167116000    272.89332    324.91726    273.52101   -37.090257    33.093395    51.396244    40.087107 
167120000     271.6384    326.41486    269.67942   -35.729387    34.517951     56.73544    40.088836 
167124000    265.84462    315.88389    275.49126   -33.829137    34.003449    40.392625    40.088358 
167128000    264.88762    319.02907    275.15778   -34.445727    34.235419    43.871288    40.088406 
167132000    270.16545    322.19383    276.38281   -34.025192    34.239424    45.811017    40.087789 
167136000      284.898    376.52663    284.67892   -36.179768    33.612503    91.847705    40.087054 
167140000    261.16322    310.82107    264.22256   -33.221645    35.056683    46.598514    40.088143 
167144000    263.81458    310.18867     266.4362    -34.57668    34.717038    43.752472    40.087518 
167148000    270.13936    313.17672    280.75705   -34.423209     33.64489    32.419672     40.08797 
167152000    272.01785    342.60355    283.63502   -35.542278    33.556366    58.968531    40.087402 
167156000    257.48326    313.68009    257.54002   -34.513714     34.09954    56.140077    40.086432 
167160000    274.37542    332.87815    281.35978   -34.843906     32.97434    51.518368    40.085761 
167164000    265.93585    315.99203    273.51385   -34.202644     32.99313    42.478171    40.085907 
167168000    262.85245    323.23029    257.92863   -33.994224    34.063991    65.301652    40.085508 
167172000    257.85105    313.46301    261.09244   -32.420228    34.169087    52.370566    40.084659 
167176000    266.03409    319.08167    280.58326   -32.857126     33.54629    38.498405    40.085533 
167180000    261.04639    309.67631    263.60377   -32.564138    33.668319    46.072536    40.085935 
167184000    256.01644      320.742    258.45304   -34.350748    34.153709    62.288961    40.084186 
167188000    265.03132    334.37387    276.96311   -33.053022    34.072448    57.410759    40.083976 
167192000       256.96    315.15026    275.39818   -32.405504    33.715265    39.752085    40.084358 
167196000    261.83749    292.87675    266.95203    -31.44176    33.215564    25.924714    40.084946 
167200000      255.025    313.18779    268.01166   -32.970172    34.379426    45.176127    40.082965 
167204000    270.55897    346.02071    292.38093   -34.716358    33.456498    53.639781    40.083695 
167208000    257.34231    295.16529    279.90758   -32.258252    33.066607    15.257711    40.083538 
167212000    258.82531    319.84185    257.13935   -32.611401    34.748705    62.702495    40.084886 
167216000    259.67193    321.98334    276.65683   -33.146209    34.096959    45.326518    40.085235 
167220000    254.10927    304.26431    288.03105   -31.052107    32.659078    16.233264    40.085252 
167224000    263.33955    326.91043    284.39714    -31.85769    33.658747    42.513291    40.087159 
167228000    250.14824    298.81983    281.60402   -31.643553    33.976494    17.215809    40.088274 
167232000    264.76277    326.35907    286.66439    -32.85359    33.796303    39.694681    40.086868 
167236000    256.84434     337.1167    264.59949   -34.423486    34.143044    72.517203    40.087275 
167240000     262.5294    322.11783    286.70304    -33.30744    33.393694    35.414787    40.087326 
167244000    268.10294    333.76045    287.84378   -32.392769    33.198818     45.91667    40.087438 
167248000    256.70131    297.84581    282.72559    -31.28134    33.570418    15.120211    40.087125 
167252000    254.91373    324.95744    272.00693   -32.683952    32.666804     52.95052    40.087098 
167256000    263.58451    332.88482    277.59185   -32.821157    32.556857    55.292966    40.086332 
167260000    255.60109    308.85958    275.41357   -32.872093    33.401659    33.446014    40.083551 
167264000    262.98431    325.51429    276.39289    -33.48746     33.38784    49.121403    40.085481 
167268000    269.62665    342.17988     277.2013   -34.621745    33.643656    64.978582    40.085917 
167272000    260.25492    302.26665    289.98632   -33.762852    33.363718    12.280328    40.085819 
167276000    257.57546    302.33293    267.21317   -32.254649    35.209907    35.119767    40.085712 
167280000    261.99725    319.53279    276.69631   -32.656258    34.652583    42.836482    40.086199 
167284000      268.955    311.90328     297.2354   -32.874392    34.253147    14.667882    40.085672 
167288000    267.81381    344.61348    276.52164   -35.285198    34.864256    68.091837    40.084528 
167292000    261.94627    309.77618    280.43202   -32.765151    34.675597    29.344164    40.082875 
167296000    271.57219    340.10194    291.57503   -33.213242    33.447583    48.526916    40.083734 
167300000    264.20599    312.37417    284.19576   -33.031695    34.637865     28.17841    40.082505 
167304000    257.71216    310.41128    284.15597   -32.529944    35.283238    26.255315    40.083007 
167308000    259.80736    323.58249    262.65071   -34.610397    34.975293    60.931778     40.08211 
167312000    267.14381    346.14971    261.48006   -34.482754    35.620302    84.669645    40.081357 
167316000    261.57755    294.17224    297.65905   -32.344512    33.282896   -3.4868079    40.080681 
167320000     266.9442    320.56362    292.14555    -33.82457     33.03843    28.418075    40.079713 
167324000    258.69984    313.35687    266.21346   -33.717733    34.474007    47.143405    40.079675 
167328000    266.92956    343.12612    286.38356   -34.452906    34.298825    56.742559    40.079208 
167332000    267.58054    319.56563    290.23209   -33.404406    33.864115    29.333533    40.079698 
167336000    268.93184    349.61564    257.20736   -35.549493    35.180925    92.408279    40.080086 
167340000    265.50333    315.49458    295.29432   -34.282619    34.521329    20.200262    40.079683 
167344000    269.61838    323.05591    300.56532   -34.675144    34.586307     22.49059    40.079107 
167348000    264.03074     316.6539    276.86781   -34.649247    33.288478     39.78609    40.078881 
167352000    268.22439    360.74324    270.71129   -36.426674     33.46264    90.031948    40.078738 
167356000    265.10497    318.01784    278.71882   -34.491565    34.093677    39.299023    40.078639 
167360000    264.59226    324.62641    271.19258   -35.268983    34.587403    53.433825    40.078402 
167364000    265.22385    307.96366    293.93598   -34.847189    33.113901    14.027677    40.078227 
167368000    263.10591    313.03201    272.30246    -34.71563    34.582314    40.729548    40.077677 
167372000     263.9398    311.11993    280.94645   -34.392109    35.380403    30.173484    40.078982 
167376000    274.11767    343.64942    279.35681   -36.045911    34.127985    64.292615    40.078118 
167380000    262.58959    317.39999     265.7846   -34.991081    34.644816    51.615389    40.077711 
167384000    271.15781    325.69577    259.68392   -35.128224    34.058011    66.011848    40.078788 
167388000     263.8077    318.60715    267.55713   -35.681181    33.248429    51.050018     40.07881 
167392000    261.74805    306.53032    273.89879   -34.117297    33.455992    32.631536    40.080389 
167396000     276.1423    325.87101    289.94174   -34.992954    33.026467    35.929267    40.078613 
167400000    279.97073    339.09685     284.1858   -35.664567    33.109671     54.91105    40.078933 
167404000    271.31629    309.97137    292.38198   -34.791188    32.068292    17.589388    40.078732 
167408000    271.67442    335.72899    273.81622   -35.993077    33.784666    61.912764    40.078458 
167412000    273.74091    330.42045    298.57277   -36.213349    32.709491    31.847679    40.078042 
167416000    265.29915    313.67717    273.13608   -35.988996    33.909243    40.541088    40.078628 
167420000    266.37539     309.7728     281.2947   -35.281696    33.138611    28.478101    40.079435 
167424000    274.15809    341.76946    276.57972   -37.077745    34.038435    65.189738    40.078871 
167428000    275.63566    362.14998    274.07458   -36.342117    34.887792    88.075401    40.078372 
167432000    279.97919    324.08292    281.58002    -36.12036    35.252942      42.5029    40.077716 
167436000    267.63677    337.53331    273.77466   -36.417052    35.238031     63.75865    40.078381 
167440000    271.13124    326.85664    265.72669   -35.788819    33.987578    61.129948    40.078176 
167444000    275.07422    328.02452    285.32826   -37.327654    33.932344    42.696264    40.076809 
167448000     269.8874    315.71178    275.74476   -35.551768     35.29924    39.967021    40.076044 
167452000    263.96014    297.53503    270.27549   -35.469232     34.41975    27.259544     40.07582 
167456000    266.19478     291.2905    281.24492   -33.597205     35.11033    10.045587     40.07484 
167460000    277.29438    343.37924    287.89189   -35.763273    34.642103    55.487348    40.074487 
167464000    269.61412    326.46657     269.0574   -35.590085    34.741884    57.409162    40.074545 
167468000    267.18022    299.14846    276.66233   -33.763074    34.976278    22.486125    40.073429 
167472000    261.55795    308.23581    282.31817   -34.443821    34.119785    25.917642    40.073496 
167476000    274.67172    343.47488    288.38867   -36.034272    34.571641    55.086214    40.073538 
167480000     277.1776    322.76511    286.18074   -36.432455    34.669185    36.584378    40.073563 
167484000    273.95756    303.04126    293.37896   -34.896528    34.157822    9.6622977    40.072739 
167488000    266.79423     308.5756    306.77984   -35.496642    33.247958    1.7957645    40.073232 
167492000    269.53001    320.51617     276.2591   -36.838663    32.796775    44.257072    40.073801 
167496000    284.57897    317.38255     303.0262   -38.035759    33.229443    14.356349    40.071899 
167500000    272.45447    317.92013    274.26396   -36.845118    35.215274    43.656162    40.071508 
167504000    283.28885    329.15741    304.50645   -37.176606    33.255348    24.650962    40.072311 
167508000    265.10826    309.46012    272.07973   -35.225857    34.700045    37.380382    40.072103 
167512000    273.24481    306.11671    297.00759   -35.358695    33.625927    9.1091177    40.071493 
167516000    276.39457    312.64086    301.00467   -35.478504    34.045263    11.636191    40.070461 
167520000    290.43452    349.57312    310.02697    -36.97865    32.506464    39.546152     40.06971 
167524000     274.0877    326.52825    268.18298   -35.571317    35.107758    58.345266    40.069435 
167528000    283.74801    324.78342     312.1592   -35.294739     32.21349    12.624217    40.069392 
167532000    276.06238    346.29093    286.70495   -36.269755    34.486848    59.585984    40.069289 
167536000    267.47063    311.58644    282.00326   -34.749365    34.369282     29.58318    40.069778 
167540000    264.83824    294.73153     279.3717   -34.975728      33.5301    15.359826    40.070185 
167544000    269.24414    325.86863    269.76189   -34.892204    33.426498    56.106737    40.069597 
167548000    266.91352    313.59872    283.72879   -36.075268    32.755682    29.869932    40.068213 
167552000    273.92748    327.73773    269.05582   -35.915845     34.93365     58.68191    40.067911 
167556000    279.62913    307.21176    314.43161   -36.133642    32.570685   -7.2198511    40.067021 
167560000    275.59803    325.67662     285.7019   -35.848299    33.462846    39.974726     40.06722 
167564000    279.01718    320.47909    293.42109   -35.677503     33.34416    27.057994    40.067113 
167568000    261.08466    298.25836    289.70331   -34.400042    33.337842      8.55505    40.066592 
167572000    275.33023    334.26614    284.12391   -36.394131    33.243404     50.14223     40.06652 
167576000     266.7215    323.89273    259.15618   -35.237595    34.488015    64.736546    40.066809 
167580000    273.61454    329.85069    273.71697    -35.18626    34.001786    56.133718    40.067716 
167584000    264.99175     338.4988    252.99666   -35.945408    34.152093    85.502143     40.06776 
167588000    269.81979    309.28479    282.90939   -34.001118    33.367735    26.375395    40.067527 
167592000    275.27967    331.58931    290.62567    -34.13145    33.077125    40.963643    40.067067 
167596000     270.9553    323.60614    280.76837   -35.369143    34.408775    42.837763    40.067082 
167600000    270.56684    319.81376     290.2373   -35.061702    32.122917    29.576466    40.066276 
167604000    273.59014    324.28255     267.9752   -34.825698     33.26957    56.307349    40.065703 
167608000    257.52483    305.62807     253.7527   -33.134552    34.398228    51.875369    40.065158 
167612000    266.85674    329.51398    286.99524   -35.241334    33.396462    42.518732    40.064715 
167616000    261.65866    313.45385    248.09098   -34.664316    34.381807    65.362866    40.064574 
167620000    276.00346    327.70219    287.36383   -35.093064    32.735764    40.338361    40.064409 
167624000    274.49061    324.69095    277.38686   -35.193538    33.008295    47.304088    40.063999 
167628000    272.84359    312.43735    284.16939   -34.070951    34.483422    28.267957    40.063894 
167632000    277.61464    330.64157     296.5003   -34.586112    32.783434    34.141271    40.063548 
167636000    276.15514    329.68972    290.56629    -35.69591    33.242944    39.123433    40.063625 
167640000    271.48705    317.23153    279.37689   -34.693814    33.575517     37.85464    40.062681 
167644000    271.72373    322.98991    288.04846   -34.292137    32.724198    34.941449    40.063003 
167648000    275.32409    318.94969     297.3867   -35.500896    33.617541    21.562984    40.061621 
167652000    267.61802    309.18648    268.33778   -35.024779    35.078681    40.848702    40.060571 
167656000     280.8852    347.63687    286.69918   -36.070906     33.96237    60.937686    40.060329 
167660000    269.16822    308.08033    286.83295   -34.343987    34.423329    21.247373    40.061769 
167664000    264.11682    305.68335    270.81332    -34.15985    35.126467    34.870022    40.061191 
167668000    266.46346    305.59362     282.1938   -35.813818    34.160365    23.399824    40.062368 
167672000    252.29331    293.85936    279.46554     -33.6339    35.073489    14.393824    40.061748 
167676000     261.3777    288.86469    286.72517   -32.121711    34.677363     2.139524    40.060719 
167680000    262.05526    319.90302    268.38957   -33.676858    35.052008     51.51345    40.060507 
167684000    266.03736    318.64871    279.73467   -33.886106    34.796941    38.914049    40.059738 
167688000    271.25317    319.70589    297.56655   -35.069089    34.301038    22.139342    40.061235 
167692000    264.87291     327.3473    271.54055   -34.836485     34.53129    55.806758     40.06172 
167696000    264.81198    328.78012    279.02439   -34.412227    34.038256    49.755728    40.061258 
167700000    272.67824    334.41941    277.21207   -34.505609    34.194082    57.207336    40.060217 
167704000    274.82592    318.64295    302.91292   -33.730429    32.280372    15.730029    40.060476 
167708000    268.16969    306.57771    286.46118   -33.456258    33.686218    20.116529    40.060024 
167712000     261.9682     311.4089    279.25473   -33.545344    33.705375    32.154171    40.059869 
167716000     280.2394    337.15609    299.53615   -35.159221    32.352957     37.61994    40.058161 
167720000    261.93426    296.76042    268.77998   -32.467716    33.850784    27.980439    40.058227 
167724000    272.99424    318.97982    294.39145   -34.339901    33.299119    24.588369      40.0581 
167728000    274.26947     329.7959    284.82202   -35.616593    33.967882    44.973887    40.058834 
167732000    280.20576    356.78705    267.99278   -35.470504    34.434211    88.794269    40.058806 
167736000    273.87256    312.66001    289.96385   -34.283813    33.908202    22.696161    40.058882 
167740000    278.91297    339.93715    283.12103   -36.135812    34.155507     56.81612    40.060034 
167744000    273.24784    319.63555    276.63237   -36.067975    33.734327    43.003171    40.061166 
167748000     273.0453    301.39845     297.4248   -35.116282    33.357364    3.9736513    40.061247 
167752000    274.40355    334.87491    276.62427   -37.124262    33.861164     58.25064    40.062182 
167756000    273.87115    331.36752    293.28891   -36.477103    32.241519    38.078607    40.062282 
167760000    271.90211    310.12648    278.07118   -35.399022    32.823194    32.055302    40.063166 
167764000    263.08513    293.61811    259.53761   -34.868108    34.396237      34.0805    40.063166 
167768000    267.55576    332.91725    265.17577   -34.677425    34.236268    67.741486    40.061584 
167772000    271.39222    316.31582    289.19328   -34.599124    33.264963    27.122542    40.061828 
167776000     272.5332    333.87242     266.3811    -34.56582    33.827533    67.491318     40.06162 
167780000    277.47562    323.87206    302.41797   -34.620251    32.926464    21.454082    40.061238 
167784000     270.8435    318.31208     281.9584   -35.518883    33.225098    36.353679    40.062028 
167788000    275.60308    321.08143    281.01762   -35.822453    33.696607    40.063807    40.063206 
167792000    263.31689    314.56805    251.86971   -34.904725    34.747722    62.698338    40.062225 
167796000     269.1229    327.13607    273.01366   -34.459564    34.408927    54.122412      40.0608 
167800000    275.30456    343.91647    286.22803   -34.975518    32.827719    57.688434    40.061425 
167804000    274.23815    335.34682    285.19851   -34.465592    33.307143    50.148305    40.061053 
167808000    279.95739    327.70802     302.1764   -35.983847    31.887125    25.531617    40.061241 
167812000    273.54212    313.11366    305.91657   -33.634464     32.37014    7.1970902    40.061267 
167816000    273.72365    310.65083     281.8258   -34.198139    33.222824    28.825026    40.063856 
167820000    280.15765    347.45986    286.25407   -35.382241    32.443129     61.20579    40.064488 
167824000    269.18024    327.60206    275.58489   -34.612144    34.133579    52.017173    40.062846 
167828000    274.04403    305.47964    286.87584   -34.109106    33.454613    18.603801    40.061976 
167832000    274.70573    291.86076     299.5434   -33.832467    32.885476   -7.6826435    40.061122 
167836000    270.71078     308.2024    290.85808   -34.076609    33.308593    17.344329    40.061816 
167840000    271.28052    307.66382    283.10123   -34.277073    32.754673    24.562583     40.06237 
167844000    284.69245     314.8461    305.94807   -35.465879    32.228055    8.8980268    40.061658 
167848000    267.10212    313.42069    274.05735   -36.727731    33.965434    39.363332    40.061685 
167852000    279.34315    325.48001    293.29521   -36.613028    33.752426    32.184809    40.060249 
167856000    284.62015     335.7189    297.07565    -37.32554    33.502445    38.643252    40.060076 
167860000    277.95534    325.66737    282.83456   -36.641269    33.010083    42.832815    40.060966 
167864000    272.87636    297.05252    278.54991   -36.169978    33.319107    18.502612    40.061085 
167868000    285.50715    336.25533    273.85644   -36.913098    33.142587    62.398887    40.061289 
167872000    269.41834    316.25691    270.60988   -36.191441    34.082386    45.647039    40.061816 
167876000    271.50442    334.83845    285.04608   -36.329662     33.33139    49.792365     40.06128 
167880000     281.6452    346.44622    288.33244   -36.902382    33.162847    58.113775    40.060328 
167884000    272.45513    323.51251    278.46169   -35.724429    34.144165    45.050824    40.060752 
167888000    273.17917    329.60056    265.92507   -36.969524    34.266256    63.675487    40.060442 
167892000    267.61934    311.40725    268.03922   -35.188421    33.676259    43.368024     40.06087 
167896000    267.87598    331.82378    265.29912    -36.33116    33.601833    66.524653    40.062303 
167900000    265.67037    303.12128    271.23316   -34.716944    33.977572    31.888128    40.062805 
167904000    266.81556    318.76899    272.12371   -36.231374    34.390524    46.645285    40.062697 
167908000    269.03097    311.61423    265.00524   -35.440118    34.564571    46.608989    40.064172 
167912000    275.37557    325.84483    280.96467   -35.518782    33.505472    44.880153    40.062831 
167916000    274.07801    326.52816    289.07348   -36.615192    32.869452    37.454677    40.062516 
167920000    261.69077     318.6781    258.14215   -35.434438    33.446359    60.535947    40.062101 
167924000    267.74421    304.32284    291.74226   -34.292209    31.636321    12.580579    40.062283 
167928000    276.56386    320.36891    277.17591   -33.783337    32.654572    43.192998    40.064046 
167932000     269.5752    322.47705    279.99392   -33.795705    31.825463    42.483126    40.064328 
167936000    273.93083    319.04699    282.60268   -33.964098    31.518796    36.444307    40.063047 
167940000    273.46331    324.83422    288.58911   -33.888633    32.791009    36.245108     40.06199 
167944000    267.59367    318.08224    266.94428   -34.240341    32.562292    51.137959    40.062473 
167948000    276.21288    336.24059    285.71115   -34.843491    34.179254    50.529441    40.062895 
167952000    270.50644    336.35945    283.88289    -34.45232    33.190024    52.476564    40.063182 
167956000    276.94858    329.76898    290.80923   -32.736088    32.344955    38.959755    40.063192 
167960000    267.01901    341.64752    260.54142   -32.556311    33.198688    81.106101    40.064487 
167964000    264.36184    324.61705    286.22123   -33.199596    33.052107    38.395821    40.064856 
167968000    280.97749    326.76269     306.5876   -33.924738    32.284314    20.175088    40.065623 
167972000    269.78983    324.31081     292.4922   -33.922157    32.037104    31.818613    40.065601 
167976000    273.58402    329.65352    297.09096   -32.248582    31.750105    32.562554    40.066281 
167980000    273.63674    322.79767    283.04785   -32.281907    31.807551     39.74982    40.066492 
167984000    259.92386    313.74349    272.49241   -31.906101    32.928674    41.251085     40.06604 
167988000    265.55177    318.09269    280.92769   -31.905704     32.64127       37.165    40.065523 
167992000    272.20433    329.71755    287.96479    -33.94639    32.088695    41.752763    40.064777 
167996000    266.44315    321.13616    281.20651   -33.364635    32.656011    39.929656    40.065232 
168000000    269.62758    321.16309     288.7596   -33.230698    31.973208    32.403492    40.065936 
168001000    272.87033    339.85372    280.81492    -34.07895    31.952764    59.038801    40.065936 
Loop time of 9960.99 on 24 procs for 16000000 steps with 1198 atoms

Performance: 34.695 ns/day, 0.692 hours/ns, 1606.267 timesteps/s
89.4% CPU use with 24 MPI tasks x 1 OpenMP threads

MPI task timing breakdown:
Section |  min time  |  avg time  |  max time  |%varavg| %total
---------------------------------------------------------------
Pair    | 1952.1     | 5092.2     | 7518.1     |2189.1 | 51.12
Bond    | 7.615      | 25.715     | 46.498     | 196.9 |  0.26
Neigh   | 44.374     | 45.177     | 47.283     |  14.1 |  0.45
Comm    | 696.24     | 2186.7     | 3895.6     |2147.9 | 21.95
Output  | 4.9008     | 4.9674     | 4.9728     |   0.6 |  0.05
Modify  | 891.14     | 2302.9     | 3981.9     |2399.5 | 23.12
Other   |            | 303.3      |            |       |  3.05

Nlocal:    49.9167 ave 176 max 0 min
Histogram: 16 0 0 0 0 4 0 0 0 4
Nghost:    1339.29 ave 3013 max 199 min
Histogram: 12 0 0 0 4 0 0 0 0 8
Neighs:    2168.08 ave 11811 max 0 min
Histogram: 19 1 0 0 0 0 0 0 0 4

Total # of neighbors = 52034
Ave neighs/atom = 43.4341
Ave special neighs/atom = 0.647746
Neighbor list builds = 28549
Dangerous builds = 0

write_restart FINALCONFIG
WARNING: Using a manybody potential with bonds/angles/dihedrals and special_bond exclusions (../pair.cpp:218)
Neighbor list info ...
  update every 1 steps, delay 0 steps, check yes
  max neighbors/atom: 2000, page size: 100000
  master list distance cutoff = 16
  ghost atom cutoff = 16
  binsize = 8, bins = 3 3 22
  4 neighbor lists, perpetual/occasional/extra = 4 0 0
  (1) pair lj/cut, perpetual, skip from (4)
      attributes: half, newton on
      pair build: skip
      stencil: none
      bin: none
  (2) pair morse, perpetual, skip from (4)
      attributes: half, newton on
      pair build: skip
      stencil: none
      bin: none
  (3) pair eam, perpetual, skip from (4)
      attributes: half, newton on
      pair build: skip
      stencil: none
      bin: none
  (4) neighbor class addition, perpetual
      attributes: half, newton on
      pair build: half/bin/newton
      stencil: half/bin/3d/newton
      bin: standard

#and everyone lived happily ever after, THE END
Total wall time: 2:53:52
