LAMMPS (16 Mar 2018)
#lammps script for united atom polymer simulation (full-scale run)

# 1. INITIALIZATION
#allows pair, bond, bending and dihedral interactions
atom_style molecular

  # periodic (video game) boundaries in all cartesian directions
boundary p p s

  # uses real units (instead of units based on pair potential parameters).  List of units used in manual
units real

###########
# 2. ATOM DEFINITION
##########

   ##
   # Read in data from starting configuration file
   ##

#read_data chainconfig.dat

 #use to restart
read_restart RESTART
  orthogonal box = (-200 -200 0) to (200 200 248.000)
  3 by 4 by 2 MPI processor grid
  196 atoms
  195 bonds
  194 angles
  193 dihedrals
  2 = max # of 1-2 neighbors
  2 = max # of 1-3 neighbors
  4 = max # of 1-4 neighbors
  6 = max # of special neighbors

   ##
   # Specify the nature of the bond interactions
   ##


bond_style harmonic
bond_coeff 1 450 1.54

special_bonds lj 0.0 0.0 0.0 angle no dihedral no

angle_style harmonic
angle_coeff 1 62.1  114.00

dihedral_style opls
dihedral_coeff * 1.4110 -0.2708 3.143 0.0

mass * 14.0

pair_style lj/cut 14.0
pair_coeff 1 1 0.0912 3.95 14.0
#pair_modify tail yes


group freeze type 2
12 atoms in group freeze
fix startend freeze setforce 0.0 0.0 0.0

################
# 3.  Simulation Settings
###############

neighbor        2.0 bin
neigh_modify    every 1 delay 0 check yes



# Define some variables
variable Lx          equal xhi-xlo   # Ang
variable Ly          equal yhi-ylo   # Ang
variable Lz          equal zhi-zlo   # Ang

variable dz          equal ${Lz}/30  # Ang
variable dz          equal 248.0/30  

variable zzlo        equal zlo  # Ang
variable zzhi        equal zhi  # Ang
variable vol         equal ${Lx}*${Ly}*${Lz}  # Ang^3
variable vol         equal 400*${Ly}*${Lz}  
variable vol         equal 400*400*${Lz}  
variable vol         equal 400*400*248.000
variable TEMP        equal 300.00 # K
variable TThi        equal 320.00 # K
variable TTlo        equal 280.00 # K
variable dt          equal 1.25 # fs

timestep     ${dt}
timestep     1.25

variable zlo1      equal ${zzlo}+${dz}
variable zlo1      equal 0+${dz}
variable zlo1      equal 0+8.2666
variable zlo2      equal ${zzlo}+2*${dz}
variable zlo2      equal 0+2*${dz}
variable zlo2      equal 0+2*8.2666
variable zhi1      equal ${zzlo}+28*${dz}
variable zhi1      equal 0+28*${dz}
variable zhi1      equal 0+28*8.2666
variable zhi2      equal ${zzlo}+29*${dz}
variable zhi2      equal 0+29*${dz}
variable zhi2      equal 0+29*8.2666

# heat layers

region          hot  block  INF INF INF INF ${zlo1} ${zlo2}
region          cold block INF INF INF INF ${zhi1} ${zhi2}
compute         Thot all temp/region hot
compute         Tcold all temp/region cold


# 1st equilibration run
fix             1 all nvt temp ${TEMP} ${TEMP} 50
fix             1 all nvt temp 300 ${TEMP} 50
fix             1 all nvt temp 300 300 50
thermo          100
run             1000
Unused restart file peratom fix info:
  fix style: STORE, fix ID: layers_COMPUTE_STORE
Neighbor list info ...
  update every 1 steps, delay 0 steps, check yes
  max neighbors/atom: 2000, page size: 100000
  master list distance cutoff = 16
  ghost atom cutoff = 16
  binsize = 8, bins = 50 50 31
  1 neighbor lists, perpetual/occasional/extra = 1 0 0
  (1) pair lj/cut, perpetual
      attributes: half, newton on
      pair build: half/bin/newton
      stencil: half/bin/3d/newton
      bin: standard
Per MPI rank memory allocation (min/avg/max) = 0.4741 | 1.964 | 9.62 Mbytes
Step Temp E_pair E_mol TotEng Press 
164025000    287.24417    95829.155     168.4975    96164.615      663.916 
164025100    317.75122    95829.298    187.77489    96201.768    663.15781 
164025200    273.15445    95829.468    191.65919    96179.901    663.38961 
164025300    303.20754    95829.468    208.84924    96214.559     663.0135 
164025400    309.21727    95829.345    177.13493    96186.215    663.32925 
164025500    292.53365    95829.287    178.76838    96178.093    663.48595 
164025600    288.90031    95829.228    176.02443    96173.178    663.33526 
164025700    295.11951    95829.121    191.18583    96191.847    663.68553 
164025800    292.05232    95829.036    162.89958    96161.693    663.53916 
164025900    289.44043    95829.179    185.71209    96183.131    663.56045 
164026000    306.43305    95829.261    194.32412    96201.702     663.3845 
Loop time of 0.0637485 on 24 procs for 1000 steps with 196 atoms

Performance: 1694.158 ns/day, 0.014 hours/ns, 15686.650 timesteps/s
99.9% CPU use with 24 MPI tasks x no OpenMP threads

MPI task timing breakdown:
Section |  min time  |  avg time  |  max time  |%varavg| %total
---------------------------------------------------------------
Pair    | 3.8049e-05 | 0.0009763  | 0.011207   |   0.0 |  1.53
Bond    | 5.2116e-05 | 0.00264    | 0.030943   |  15.4 |  4.14
Neigh   | 0.00065319 | 0.00077474 | 0.0008103  |   0.0 |  1.22
Comm    | 0.00036175 | 0.0056229  | 0.052634   |  18.5 |  8.82
Output  | 0.00031622 | 0.00032566 | 0.00038221 |   0.0 |  0.51
Modify  | 0.0042206  | 0.048483   | 0.057536   |   8.9 | 76.05
Other   |            | 0.004926   |            |       |  7.73

Nlocal:    8.16667 ave 97 max 0 min
Histogram: 22 0 0 0 0 0 0 0 0 2
Nghost:    12.4167 ave 122 max 0 min
Histogram: 20 0 2 0 0 0 0 0 0 2
Neighs:    74.5 ave 887 max 0 min
Histogram: 22 0 0 0 0 0 0 0 0 2

Total # of neighbors = 1788
Ave neighs/atom = 9.12245
Ave special neighs/atom = 5.93878
Neighbor list builds = 12
Dangerous builds = 0
velocity        all scale ${TEMP}
velocity        all scale 300
unfix           1

# Second Equilibration
fix             1 all nve
fix             hot all langevin ${TThi} ${TThi}  50.0 59804  tally yes
fix             hot all langevin 320 ${TThi}  50.0 59804  tally yes
fix             hot all langevin 320 320  50.0 59804  tally yes
fix             cold all langevin ${TTlo} ${TTlo} 50.0 287859 tally yes
fix             cold all langevin 280 ${TTlo} 50.0 287859 tally yes
fix             cold all langevin 280 280 50.0 287859 tally yes
fix_modify      hot temp Thot
fix_modify      cold temp Tcold

variable        tdiff equal c_Thot-c_Tcold
thermo_style    custom step c_Thot c_Tcold f_hot f_cold v_tdiff
thermo            4000
run             800000
Per MPI rank memory allocation (min/avg/max) = 0.4745 | 2.089 | 10.37 Mbytes
Step c_Thot c_Tcold f_hot f_cold v_tdiff 
164026000    456.84924    441.65383           -0           -0    15.195412 
164028000    344.77427    270.22749   -9.2106634    10.248771     74.54678 
164032000    320.61745    203.42778   -7.5093757    11.617202    117.18967 
164036000    193.49763    403.45569   -22.630312    32.477194   -209.95805 
164040000    365.46505    143.60997   -24.670922    48.167598    221.85508 
164044000    469.27066    543.65548   -29.484801    71.110453   -74.384824 
164048000    242.39658    196.54871   -40.024792    66.477278     45.84787 
164052000    510.60863    242.66331   -55.311533    83.749188    267.94531 
164056000    647.93129    212.42413   -54.702663    91.291644    435.50716 
164060000    356.98802    334.71421   -67.744193    93.588059    22.273807 
164064000    283.91646    307.02062   -74.804683    120.74288   -23.104163 
164068000    501.27922    171.55677   -106.00186    125.96922    329.72245 
164072000    438.19814    466.10601   -104.51551    129.39848   -27.907873 
164076000     270.8928    417.43819   -108.94292    139.37629   -146.54538 
164080000    474.77441    189.13858   -109.34667     137.8993    285.63583 
164084000     255.1244    432.64361    -110.6413    138.51571   -177.51921 
164088000    270.91551    358.84455   -106.99317     130.7573    -87.92904 
164092000     486.4876    304.61844      -105.07    151.81341    181.86916 
164096000    371.18182    441.91752   -117.23121    168.34938     -70.7357 
164100000     349.5249    408.20181     -134.818    162.70401   -58.676904 
164104000     412.6454    446.74902   -151.27014       159.22   -34.103613 
164108000    280.46509    199.04162   -153.57083    175.03697    81.423478 
164112000    500.59084    458.19482   -175.69926    156.99366    42.396019 
164116000    447.63519    254.34551   -156.46896    174.22867    193.28968 
164120000    395.34814     340.9019   -152.92668    185.09992    54.446239 
164124000     337.5612    352.53571   -169.63057    198.40125   -14.974517 
164128000    181.75166    260.16979   -165.09357    211.07054   -78.418133 
164132000     412.2189    573.88942   -186.58283    209.17056   -161.67052 
164136000    219.67364    429.96646   -193.01792    216.59987   -210.29282 
164140000    349.98663    328.42234   -207.80556    237.33551    21.564287 
164144000    272.33213    404.38824   -216.19901    252.28071    -132.0561 
164148000    402.83621    328.39101   -226.65445    256.62806    74.445198 
164152000    511.97924    326.37046   -254.37691    260.76763    185.60878 
164156000    345.97814    112.65206   -258.02501    276.10729    233.32609 
164160000     531.2127    269.17752   -276.38906    276.50138    262.03518 
164164000     658.8513    461.43844   -279.58175    283.20214    197.41286 
164168000    322.26465    378.55736    -297.2865    299.71625   -56.292707 
164172000    402.08828    502.19715    -316.5853    301.90742   -100.10887 
164176000    445.60653    266.81177   -315.11494    343.21806    178.79476 
164180000    423.02589    287.80643   -347.78071    363.82162    135.21946 
164184000    419.73838    293.97002   -358.33552    376.34148    125.76836 
164188000    494.41209    389.46204   -392.44211    377.61612    104.95005 
164192000    364.84549    353.59575   -384.61996    392.54506    11.249738 
164196000    390.85232    293.59891     -370.467    409.60064     97.25341 
164200000    213.45369    291.46734   -390.73421    398.80608    -78.01365 
164204000    214.60188     338.8318   -382.97689    392.07993   -124.22992 
164208000    260.74667    366.40473   -378.97333    384.83319   -105.65805 
164212000    582.27026     255.2255    -388.1268      385.337    327.04476 
164216000     470.6988    369.88422   -376.19474    389.92434    100.81458 
164220000    459.03961      386.065   -385.73084    399.64724    72.974613 
164224000    469.43629    328.47304   -404.62828    392.04158    140.96325 
164228000    280.89115    314.28293   -406.91266    421.53324   -33.391775 
164232000    334.44094    356.07164   -424.20461    435.37209   -21.630697 
164236000    462.20337     180.8469    -429.1032     451.1428    281.35647 
164240000    581.39081    256.77793   -431.29408    465.25319    324.61288 
164244000    316.27542    320.93837   -412.11778    468.73767   -4.6629556 
164248000    346.82312    251.85379   -428.36033    469.16304    94.969338 
164252000    388.45064      269.282   -432.35851    471.56862    119.16864 
164256000    515.75561     268.0738   -446.26602     480.8455     247.6818 
164260000    133.06641    322.35782   -435.90918    461.11256   -189.29141 
164264000    242.62284    422.64164   -451.27848    457.07362    -180.0188 
164268000    475.12961    260.34856   -483.56447    474.81479    214.78104 
164272000    365.30352    283.42094   -457.48279    490.37553     81.88258 
164276000    556.01393    353.83081   -441.94932    490.57519    202.18312 
164280000    341.74653    400.59926   -450.99716    495.16495   -58.852736 
164284000    347.16017    292.71136   -466.40693    503.88854    54.448804 
164288000    277.56878    531.89148   -471.59811    505.61704    -254.3227 
164292000    390.20707    292.25179   -479.92439    506.96383    97.955278 
164296000    404.65969    820.86757   -491.31606    503.13294   -416.20788 
164300000     211.5391    445.25114   -475.71115    504.67719   -233.71204 
164304000    371.73441    449.69777   -472.51033    516.11338   -77.963357 
164308000    339.15892    304.16307   -476.74165    514.58517    34.995844 
164312000    399.80169     341.4599   -476.08636    517.86998    58.341782 
164316000    331.60299    663.17241   -483.25066    515.37741   -331.56942 
164320000    686.57388    316.49309   -508.99353     521.0781    370.08078 
164324000    571.79984    354.99357    -513.3542    538.80355    216.80627 
164328000    428.89547    430.20295   -520.60408    536.09001   -1.3074798 
164332000    593.33231    318.58682   -545.00751    551.79557     274.7455 
164336000    379.84619    294.16292   -521.55386    561.87158    85.683271 
164340000    273.68116    152.31091   -527.43966    553.05862    121.37025 
164344000     366.9047    383.82015   -537.64925    556.55408   -16.915447 
164348000    169.36848    217.25229   -556.91671    563.48677   -47.883812 
164352000     290.0015    271.76514   -561.91874      577.817    18.236356 
164356000    344.71895    187.83239   -577.38697    596.46545    156.88656 
164360000    343.66961    356.17839   -583.16754    592.96208   -12.508785 
164364000    703.18786    558.80129   -579.24547    607.43219    144.38656 
164368000    567.11772     404.9255   -584.06832    617.30823    162.19222 
164372000    257.85246     358.8745   -587.31608    611.89779   -101.02205 
164376000    293.37673    229.95346   -601.50559    613.99142    63.423271 
164380000    462.14771    367.10498   -606.51254    602.74659    95.042726 
164384000    326.72511    453.37927   -603.96294    630.64893   -126.65416 
164388000    490.46983    291.92673    -616.2361    632.98737     198.5431 
164392000    329.87815    199.99354   -612.09169    656.68423    129.88461 
164396000    402.97621     327.3081   -622.44976    655.64572     75.66811 
164400000    306.13561    461.94167    -647.6617    642.81248   -155.80606 
164404000    244.83032     304.8543   -649.92723    652.60702   -60.023981 
164408000    193.51771    478.43654   -658.45562    665.95643   -284.91883 
164412000    269.59016    178.34845   -663.86634    669.63571    91.241712 
164416000    390.77849    224.64194   -675.89155    667.04567    166.13656 
164420000    245.05141    233.53173   -670.72013    674.29367    11.519678 
164424000    378.56502    547.93096   -663.75557    664.87153   -169.36594 
164428000    468.90469    201.80898   -663.85019    677.26882    267.09571 
164432000    520.18637    279.79536   -663.07891    678.62844    240.39101 
164436000    352.66092    238.99434   -659.35392     706.5601    113.66658 
164440000     611.0711    343.41661   -667.84231    693.30898    267.65449 
164444000    561.54708    285.49786   -675.25444    702.57035    276.04921 
164448000    423.55152    290.05624   -677.50894    706.39907    133.49527 
164452000    406.64955     237.0751    -700.8248    721.20346    169.57445 
164456000    263.36121    468.60954   -687.86721    712.12776   -205.24833 
164460000    389.55202    445.34444    -697.1317    710.77581   -55.792419 
164464000    249.99246    294.16565   -704.35384    720.98847   -44.173193 
164468000    315.50978     348.8339   -712.70093    718.99613   -33.324119 
164472000    493.32346    171.47278   -703.19476    730.09146    321.85068 
164476000    458.63837     264.6687   -723.34727     730.6162    193.96967 
164480000    292.18038     186.6627   -724.91104     712.2278    105.51768 
164484000    244.59681    447.18553    -732.4717    740.27067   -202.58872 
164488000    415.54478     240.2291    -750.8809    742.29923    175.31568 
164492000    713.13115    555.81351   -758.13022    746.54634    157.31765 
164496000    334.14936    238.20968   -758.56608    759.51812    95.939679 
164500000    308.52379    230.33312   -742.01183    761.03207    78.190662 
164504000    454.34416    464.87385   -750.03171      771.429   -10.529693 
164508000    204.87965    255.40008   -755.69596    779.87176   -50.520429 
164512000    579.17427    229.19985   -751.15198    798.12718    349.97442 
164516000    638.16603    352.00321   -759.53017    803.06277    286.16282 
164520000    419.23943     265.3233   -778.21004    800.07147    153.91612 
164524000    643.96848    374.27017   -797.43068    809.42194     269.6983 
164528000    210.08497    236.35595   -801.82517     833.6422   -26.270979 
164532000    192.55106    298.35034   -803.51448    832.85342   -105.79928 
164536000    621.46376    467.85386   -810.84189    821.80878     153.6099 
164540000     416.0686    375.85107   -801.49721    818.63702    40.217521 
164544000    606.26131    213.09461   -800.57002    835.29119    393.16671 
164548000    194.14831    343.84745   -779.94712    817.29542   -149.69915 
164552000     268.5809    505.90012   -796.96575    813.52853   -237.31921 
164556000    455.87243    441.14397   -804.57629    813.16537    14.728466 
164560000    303.36906     362.0319   -790.54337    821.69559   -58.662841 
164564000    620.10914    191.04708   -781.91356    827.57123    429.06206 
164568000    370.65601    398.54396   -783.99838    838.49882   -27.887947 
164572000     683.7902    296.21572   -804.06761    829.06426    387.57448 
164576000    683.58258    170.81567   -800.63091    812.15055    512.76691 
164580000    394.22378    236.51292   -794.74052    813.28799    157.71086 
164584000    370.93275    214.12305   -780.91883    797.01415    156.80969 
164588000    213.12486    475.86501   -812.08054    803.72878   -262.74015 
164592000    365.36631    214.56929    -817.7918    832.58718    150.79703 
164596000    533.32048    278.01143   -822.63478    843.34758    255.30905 
164600000    472.33422    392.72352    -829.8579    833.83063    79.610701 
164604000    374.03964    393.86407   -821.36732    834.74864   -19.824436 
164608000    246.23007     173.5526   -825.93991    846.91707    72.677465 
164612000    212.66545    358.03907   -819.79809    853.54591   -145.37362 
164616000    232.61171    136.05746   -823.27467    871.32701    96.554241 
164620000    432.57696    332.87416   -850.74397    882.08807    99.702796 
164624000     531.0193    384.67378   -866.93175    893.33097    146.34553 
164628000     248.8981    395.68572   -848.93711    879.28349   -146.78762 
164632000    391.02082    419.59889   -861.61019    878.62243   -28.578071 
164636000    488.44986     308.5446   -852.90334    882.49951    179.90526 
164640000    386.57235    319.60607   -856.21742    896.57468    66.966278 
164644000    359.25178      253.387   -876.38003    909.25196    105.86479 
164648000    377.44417    434.75663     -873.743    909.77444   -57.312457 
164652000     323.6648    289.71142   -890.18207    927.12044    33.953371 
164656000    232.19589    397.01994   -905.64341    924.15166   -164.82404 
164660000    391.39242    351.53121   -916.49138    926.64888     39.86121 
164664000    414.37868    236.04154   -908.62072    931.66865    178.33715 
164668000    338.31566    242.42295   -915.32285    942.64176    95.892712 
164672000    335.06079    354.55395    -938.3156     954.5383   -19.493157 
164676000    572.55473    197.94308   -952.81667    976.63198    374.61165 
164680000    273.95281    160.75516   -975.55803    979.12772    113.19765 
164684000    340.22485    285.43613   -976.19064    987.77198    54.788721 
164688000    535.17311    428.24526   -977.58755    1004.7864    106.92785 
164692000    501.50072    297.40448   -979.68507    1011.6488    204.09624 
164696000    398.02533    172.03752   -978.49193    1031.9573    225.98781 
164700000    288.06953    422.39097   -986.68993    1026.1165   -134.32144 
164704000    356.37875     245.9127   -992.68801    1024.5216    110.46605 
164708000    378.42167    480.97471   -1001.0895    1015.0493   -102.55304 
164712000    254.71724    254.45723   -1010.0073     1028.911    0.2600134 
164716000    504.51657    261.00853   -1011.3373    1039.7819    243.50805 
164720000    379.97426    327.06706   -1013.2821    1036.2383    52.907207 
164724000    508.64059     405.6681   -1027.2178    1046.1629    102.97249 
164728000    377.42336    384.96625   -1024.4477    1048.7789   -7.5428903 
164732000    357.53912    285.54251   -1032.8099    1076.7276    71.996612 
164736000    404.59356    247.14008    -1067.281    1097.4639    157.45349 
164740000    315.34699    244.67481   -1085.4954     1105.339    70.672179 
164744000    314.51745     229.2843   -1088.2554    1136.8744    85.233149 
164748000    356.80054    593.78051   -1083.0985    1121.2466   -236.97997 
164752000    403.94452    136.27739   -1098.2624    1140.9362    267.66712 
164756000    381.68861    430.20052   -1118.3008     1143.318   -48.511906 
164760000    345.32434    270.45077   -1119.5947    1155.0063    74.873569 
164764000    514.53753    382.48783   -1144.3921    1153.8955     132.0497 
164768000    375.54561    183.58704    -1163.977    1168.3287    191.95857 
164772000    534.58226    304.39813   -1175.3975    1179.9011    230.18413 
164776000     405.9938    429.64376   -1182.6677    1193.2213    -23.64996 
164780000    340.93967    382.79069   -1204.1686     1225.351   -41.851028 
164784000     164.1359    252.93918   -1195.2361    1222.3265   -88.803279 
164788000    252.84352    195.29022    -1199.135    1232.8858    57.553302 
164792000    311.51217    243.91745   -1210.5237     1242.978    67.594717 
164796000    211.67484    307.00135   -1210.6489    1255.0501   -95.326508 
164800000    552.42318    254.41614   -1216.9928    1230.2068    298.00704 
164804000    352.73173    419.34277   -1227.6118     1238.249   -66.611037 
164808000    335.41715    572.24827   -1220.6766    1248.3818   -236.83112 
164812000    347.89383    450.61618   -1226.3338    1262.8285   -102.72234 
164816000    379.62409    589.91665   -1246.1896      1260.27   -210.29256 
164820000    498.05769    562.05071   -1273.0932     1279.668   -63.993024 
164824000    344.05423    528.39298   -1263.5406    1294.6249   -184.33875 
164826000    532.68696    351.86192   -1253.3682    1288.0423    180.82504 
Loop time of 62.1945 on 24 procs for 800000 steps with 196 atoms

Performance: 1389.190 ns/day, 0.017 hours/ns, 12862.867 timesteps/s
100.0% CPU use with 24 MPI tasks x no OpenMP threads

MPI task timing breakdown:
Section |  min time  |  avg time  |  max time  |%varavg| %total
---------------------------------------------------------------
Pair    | 0.0294     | 0.77951    | 6.4389     | 200.7 |  1.25
Bond    | 0.040476   | 2.1028     | 17.7       | 337.1 |  3.38
Neigh   | 0.4697     | 0.55146    | 0.5804     |   4.9 |  0.89
Comm    | 0.24444    | 4.1251     | 30.296     | 440.2 |  6.63
Output  | 0.0068409  | 0.0077797  | 0.0090526  |   0.4 |  0.01
Modify  | 14.586     | 46.075     | 52.19      | 199.8 | 74.08
Other   |            | 8.553      |            |       | 13.75

Nlocal:    8.16667 ave 97 max 0 min
Histogram: 21 1 0 0 0 0 0 0 1 1
Nghost:    12.4167 ave 121 max 0 min
Histogram: 20 0 1 1 0 0 0 0 1 1
Neighs:    74.2917 ave 882 max 0 min
Histogram: 21 1 0 0 0 0 0 0 1 1

Total # of neighbors = 1783
Ave neighs/atom = 9.09694
Ave special neighs/atom = 5.93878
Neighbor list builds = 8987
Dangerous builds = 0
unfix 1


# PRODUCTION

fix             1 all nve
fix             hot all langevin ${TThi} ${TThi}  50.0 59804  tally yes
fix             hot all langevin 320 ${TThi}  50.0 59804  tally yes
fix             hot all langevin 320 320  50.0 59804  tally yes
fix             cold all langevin ${TTlo} ${TTlo} 50.0 287859 tally yes
fix             cold all langevin 280 ${TTlo} 50.0 287859 tally yes
fix             cold all langevin 280 280 50.0 287859 tally yes
fix_modify      hot temp Thot
fix_modify      cold temp Tcold

variable        tdiff equal c_Thot-c_Tcold
thermo          4000

dump gigo all atom 4000 dump.cords_xyz.dat
dump_modify gigo scale no
dump vfgigo all custom 4000 dump.velo.dat id vx vy vz fx fy fz

# thermal conductivity calculation
# # reset langevin thermostats to zero energy accumulation
#
compute         ke all ke/atom
variable        temp atom c_ke/1.5/0.0019872

fix             ave all ave/time 100 40 4000 v_tdiff ave running
thermo_style    custom step temp c_Thot c_Tcold f_hot f_cold v_tdiff f_ave

#compute         layers all chunk/atom bin/1d z lower 0.05 units reduced
compute         layers all chunk/atom bin/1d z lower ${dz} units box
compute         layers all chunk/atom bin/1d z lower 8.2572 units box
fix             2 all ave/chunk  100 40 4000 layers v_temp file profile.langevin

run             32000000
Per MPI rank memory allocation (min/avg/max) = 0.4749 | 2.166 | 10.62 Mbytes
Step Temp c_Thot c_Tcold f_hot f_cold v_tdiff f_ave 
164826000    288.59589    532.68696    351.86192           -0           -0    180.82504            0 
164828000    279.77439    482.97462    213.69804   -9.1872436   -4.2683096    269.27658            0 
164832000    289.39863    383.84145    302.90557    3.9754535   -3.1527245    80.935881    6.4544202 
164836000    287.06932    395.49545    261.21208   -18.953051   -11.616691    134.28337    15.901331 
164840000    280.57806    658.18103    224.43214   -12.833449   0.18751037    433.74888    40.701708 
164844000    279.60457    259.30008    234.48362   -7.6344193    19.217662     24.81646    32.872479 
164848000     284.8216    427.45496    229.53992   -13.947498    27.012893    197.91504    31.068105 
164852000    284.28791     230.1115     201.7518   -36.782253    40.722432    28.359706     25.27189 
164856000    249.03238    279.00175     214.3382   -36.704075    54.599966    64.663551    25.314206 
164860000    268.66205    364.72175    297.52766   -44.209265    57.233932    67.194093    22.523677 
164864000    268.78674     519.6053    171.26437   -61.993555    61.628703    348.34093    24.487715 
164868000    243.79758     317.4556    335.59599   -60.494306    79.765698    -18.14039    26.532373 
164872000    269.31116    405.06379    373.24471   -71.598071    88.244786    31.819076    25.863231 
164876000    284.37598    469.16361     587.8198   -83.987169     77.96637   -118.65619    28.579446 
164880000    264.46055    357.02345    298.76532   -96.405426    79.366416    58.258126    32.043462 
164884000    297.43247    304.28329    402.26596   -81.646065    62.661209   -97.982675    32.621034 
164888000    246.82087    373.88353    329.38091   -72.449248    80.752876    44.502623    33.621882 
164892000    271.59613    383.36182    257.15634   -91.985058    91.554732    126.20548    31.896163 
164896000    284.11992    532.23614    225.86935   -114.80852    102.84942    306.36679    33.034823 
164900000    324.25286    641.99392    327.53081   -127.03216    94.232361    314.46311    32.988175 
164904000    299.14795     409.0968    292.14655   -146.77068    112.86279    116.95024    33.796605 
164908000    280.50919    294.78845    220.41181   -143.47174    144.37191     74.37664    35.288493 
164912000    269.73316    267.11488    466.38766   -157.32252    151.97057   -199.27278    34.851272 
164916000    272.50822    258.40089    373.03904   -142.04813    153.41599   -114.63815    35.789939 
164920000    287.12737    633.13259    168.40469   -146.20679    148.42046     464.7279    35.935041 
164924000    285.36587    298.00057    117.57467   -163.80787    152.82415    180.42591    34.613019 
164928000    261.18584     389.0589    428.80571   -156.43939    176.78385   -39.746812    36.092665 
164932000    244.40173    494.15769    229.09342   -151.38149    171.76923    265.06427    36.634541 
164936000    268.04438    325.09452    254.78249   -160.70731    177.19371    70.312024    35.783315 
164940000    271.78412    237.80619    321.83988   -169.55353    181.98264   -84.033683    34.113452 
164944000    273.19137    389.31008    271.73745   -167.31934    173.38247    117.57263    34.140113 
164948000    284.40735    157.20494    436.28698   -170.57149    167.33514   -279.08204    33.040593 
164952000    303.16462    349.09603    268.99206    -174.4291    154.11463    80.103968    33.748212 
164956000    276.96491    428.24591    286.51628   -167.43848    168.25741    141.72963    33.440325 
164960000    279.08937    261.20434    285.31908   -171.13503     179.4749   -24.114738    33.526613 
164964000    272.39806    317.89433    170.62637   -194.07002    197.64499    147.26796    32.629528 
164968000    292.51025    473.06908    405.54623   -197.95159    178.14505    67.522852    32.244997 
164972000    275.00471    561.93398     183.2038    -189.0551    194.62692    378.73017    33.111936 
164976000    289.97055    341.82608    198.31866   -206.70934    207.95004    143.50743    32.136237 
164980000    287.85973    560.78757     278.2131   -222.95501    207.70699    282.57447    32.154963 
164984000    285.61937    377.73207    359.56135   -233.37396    215.47762    18.170714    32.713666 
164988000    303.83702    603.11242    259.86016   -256.81197    229.56687    343.25226    32.864222 
164992000    290.88887    154.24445    293.50104    -248.3836    241.31539    -139.2566    32.828722 
164996000    296.13547    449.42153    253.96107   -253.14913    239.43324    195.46046    33.033424 
165000000    259.59966     218.9139    208.71381   -257.33215    258.68026    10.200094    32.136623 
165004000    278.31674    431.92125    385.95403   -246.45088    242.95734    45.967226    31.732619 
165008000    326.00164    322.86988    546.46009   -254.64599    223.36521   -223.59021    30.686891 
165012000     302.6807    569.61562    472.36086   -262.04696    236.67066    97.254767    31.433414 
165016000     259.5913    425.67898    272.82804   -259.91267    269.91201    152.85094    30.968378 
165020000    292.78816    201.27427    271.26697    -256.5441    264.79201   -69.992703    31.009947 
165024000    287.28002    520.85956    365.10004   -282.44136     280.9362    155.75952    30.094951 
165028000    259.00307    462.40598    225.75819   -296.67217    297.12664    236.64779    30.604483 
165032000    271.62322    258.73429    249.67638   -280.75686    304.76212    9.0579061    31.659337 
165036000    275.87078    466.36858    141.89962   -291.74931    312.64653    324.46896    30.779384 
165040000    279.01086    522.60584    412.33509   -296.35738    294.27563    110.27076    29.685364 
165044000    267.92276    550.83757    281.82326     -309.967    297.52814    269.01431    29.529848 
165048000    276.49482    301.56681    280.69206   -317.60584    305.21338    20.874754      29.5075 
165052000    268.95356    385.73681    320.55314     -316.264    318.13288    65.183674    29.733992 
165056000    279.78817    447.93704    227.67971   -330.08363    315.39991    220.25733    29.592194 
165060000    303.80184    176.70043    272.93726   -340.31324    308.30963   -96.236831    29.684976 
165064000    302.37208    290.97185    182.11223   -334.35647    310.58918    108.85962    30.254207 
165068000    283.89456     376.4515    178.97847   -345.52523    341.59453    197.47302    30.394699 
165072000    278.92268    276.04031    351.56617   -347.65964    343.25549   -75.525865    30.801132 
165076000    277.64442    521.92004    391.97054   -357.15787    356.54965     129.9495    31.087714 
165080000    288.79857    275.96583    220.45955    -360.7633    351.39859    55.506274    31.734581 
165084000     291.5561    492.66216    370.20934   -364.80486    362.46941    122.45282    31.899179 
165088000    270.04357    298.15561    294.98758   -369.11198    378.91801    3.1680271    31.887136 
165092000    302.27338    486.62009    405.92981   -382.53903    356.97266    80.690275    31.668213 
165096000    287.53301      257.393    242.60614   -371.96134    365.73966    14.786866    32.146616 
165100000    278.47517    398.35165    300.93906   -368.32184    383.61697    97.412585    32.502165 
165104000    292.95938    424.56552    372.76296   -382.69839     385.6534    51.802561    32.630255 
165108000    275.71884    358.29565    549.42665   -397.55797    396.34159   -191.13101    32.311306 
165112000    304.86535    365.62792    561.81347   -398.65434    388.59746   -196.18555    32.124574 
165116000    292.36962    575.08527    194.12512   -425.29407    411.43198    380.96015     32.25004 
165120000    289.49403    329.58104    203.15385   -433.67531    414.86249    126.42719    32.712633 
165124000    260.29461    344.01847     352.3301   -434.64015     413.2873   -8.3116301    33.156128 
165128000    284.09947    493.97362    393.85607   -443.13196    439.32958    100.11755    33.863396 
165132000    291.75374    703.35809    377.07806   -455.02172     440.7981    326.28003    33.980886 
165136000    274.31135    331.54787    328.81723   -459.90063     460.6628    2.7306391    33.419058 
165140000    273.49381     349.0674    453.11153   -477.61049    475.73973   -104.04412    33.514845 
165144000    283.16537    280.37585      301.851   -480.72079    481.88458    -21.47515    33.085126 
165148000    281.43145     564.4813    194.85663   -494.70865    496.14215    369.62468    32.953961 
165152000    303.59236     674.2275    346.58364   -514.82916    496.54057    327.64386     33.67326 
165156000    309.60039    377.24535    236.01244   -530.88976    506.50675    141.23291    33.994153 
165160000     291.5569    359.86736    183.91302   -533.61618     517.7983    175.95434    33.822682 
165164000    295.72396    374.83199    230.89141   -530.46089    529.60175    143.94059      34.1644 
165168000    301.07475    469.79386    324.04047   -542.94249    528.29438    145.75339    34.923924 
165172000    287.23678    191.91031    273.15665    -548.8945    547.95798   -81.246346    34.605621 
165176000    287.74981    290.70588    534.89666   -559.40116    551.59522   -244.19078    34.734293 
165180000    267.41381    547.15429    361.09604   -570.85761    560.15632    186.05825    34.975328 
165184000    253.38276    315.77345    287.00756   -564.69784    569.40251    28.765888    34.299995 
165188000    276.38076    551.69976    341.18112   -571.48689    562.20048    210.51864    34.391517 
165192000    285.12149    576.55722    419.21228   -579.84686    565.69085    157.34494    33.940695 
165196000    281.73476    516.74555    210.95002   -581.05793    577.12937    305.79553    34.187068 
165200000    300.05099    415.41961    349.29277   -583.79581    563.24981    66.126839    34.087186 
165204000     243.8861    574.33414    306.83392   -571.46957    567.54049    267.50022    33.976371 
165208000    260.80446    332.82151    333.95972   -576.66857    577.76686   -1.1382138    33.688627 
165212000    291.70235    383.33318    361.89767   -581.30138    570.33204    21.435509    33.933347 
165216000    303.62778    297.40577    400.18837    -579.5301    568.26317    -102.7826    34.051636 
165220000    288.56248    312.30281    187.09136   -588.19266    570.23387    125.21145    34.260266 
165224000    280.89049    408.86897    286.19602   -579.18125     579.9662    122.67296    34.098723 
165228000    276.43387     414.4267    343.54889   -572.36785    589.04403    70.877809    34.480318 
165232000    291.47709    572.74751    401.67829   -593.85268    588.52497    171.06921    34.471515 
165236000    278.28786    393.21741    237.61147   -620.73113    595.93269    155.60594    33.962197 
165240000    306.74966    450.58183    391.17397    -623.4927    621.07116    59.407866    33.620438 
165244000    286.03845    371.73954     174.5722   -634.11006    620.16125    197.16734    33.637581 
165248000     245.8168    389.15447    240.62284   -637.74174    647.29201    148.53164      33.3739 
165252000    280.87801    295.32682    293.08023    -663.3003    658.94687    2.2465846    33.693485 
165256000    306.71135    345.23856    248.84402    -686.5926    660.73246     96.39454    33.883968 
165260000    288.66972    486.00337    239.31439   -666.76678    664.30945    246.68898    34.149679 
165264000    265.04724    478.70269    328.65937   -661.19829    677.89587    150.04333    34.611387 
165268000    264.30905    179.61836    267.97552   -668.72543    684.41424   -88.357163    35.043655 
165272000     290.2943    407.83837    444.31137   -685.24292    686.47378   -36.473005    35.177757 
165276000    266.73092    322.89724     176.9607   -693.28251    695.86086    145.93653    34.904533 
165280000    271.87965     500.1132    312.93938   -702.83846     705.8092    187.17382    35.554519 
165284000    249.16954    210.46296    293.49646   -694.39038    716.71391   -83.033508    35.473899 
165288000    244.20874    282.29665    345.73604   -702.90316    734.45969   -63.439393    35.416347 
165292000    273.85616    518.70438    271.19422   -727.71553    719.01397    247.51015    35.362347 
165296000    293.34561     616.0295    529.33047     -738.538    713.01445    86.699032    35.754243 
165300000     309.4903    398.06431    300.83273   -743.39623    723.36395    97.231581    35.864881 
165304000    283.14368    258.48576    240.09852   -737.02113    726.99599    18.387244    35.708393 
165308000    324.35363    405.07225    534.74796   -746.82412    715.41803    -129.6757    35.729972 
165312000    312.98489    363.22483    202.55037   -746.20129    727.12499    160.67446    35.837345 
165316000    307.86185    236.95997    505.20555   -746.18657    714.61132   -268.24558    35.795282 
165320000    282.50728    344.19027    184.19498   -726.66042    728.13924    159.99529    35.918182 
165324000    284.62533    276.46384    253.45009   -731.15145    728.32103     23.01375    35.943135 
165328000    266.68585    497.29742    420.72312   -755.15964     741.6098    76.574307    35.587019 
165332000    285.44514    521.61114    441.10424   -737.59476    753.30804      80.5069    35.617588 
165336000    298.78751    375.17464    286.90866   -761.14543    747.36112    88.265974    35.816681 
165340000    298.95788    408.41949    249.77659   -771.55379    769.52717     158.6429    35.800311 
165344000    263.77218    431.79922    326.96407   -774.65647    766.48431    104.83515    35.784914 
165348000    295.73491    375.86946    314.54663   -773.27857    763.77674    61.322833    35.997725 
165352000     281.6681     405.7205    279.75199   -763.76414    750.11545    125.96851    36.028995 
165356000    305.02185    397.76354    321.86341   -772.25859    749.18221    75.900122    36.153358 
165360000    275.67296    325.91542    393.02024   -766.25593    760.50978   -67.104824    36.168641 
165364000    276.20381    542.25741    294.16816   -795.63817    784.91351    248.08925    36.302303 
165368000    269.98107    328.43244    323.85403   -790.27727    801.10046    4.5784055     36.48858 
165372000    287.02266    345.01491    292.25499   -799.07361    803.66924    52.759922    36.469684 
165376000    287.49328    247.46889    472.77225   -826.38673    790.63126   -225.30337    36.243497 
165380000    272.39215    381.82356    208.33389   -810.27906    798.82946    173.48966    36.238957 
165384000    288.03404    420.15905    443.12355   -809.32658    812.57927   -22.964497    36.146017 
165388000    299.98194    428.98119    310.14407   -838.37199    819.39187    118.83712       36.024 
165392000    282.74513     345.6414     442.1057   -824.82818    816.36575   -96.464301    35.895688 
165396000    297.65282    446.13146    306.56114   -831.74533     818.8755    139.57033    35.807387 
165400000    301.10698    209.98793    216.44635   -858.87099    830.35422   -6.4584178     35.64983 
165404000     271.7123    268.80152    262.73009   -871.58445    859.11299    6.0714342    35.835481 
165408000    277.59199    325.43905    369.18975   -891.01013    875.81218   -43.750696    35.893501 
165412000    280.03512    407.86184     474.2228   -899.26959    885.43295   -66.360953    35.954105 
165416000    282.31024    522.64554    392.59308   -905.72885    887.97922    130.05246    35.785584 
165420000    295.92207    254.40158    344.60234   -913.83011    889.44079   -90.200764    35.765936 
165424000    302.69473    345.53808    304.04183   -925.92382    897.82279    41.496251    35.960716 
165428000    275.63207    213.41559    328.70228   -911.22782    899.29082    -115.2867    36.031727 
165432000    274.90023    424.00344    373.98888   -907.03161    905.34347    50.014553    36.178765 
165436000    243.32807    228.00988    205.38864   -894.16625    910.34243    22.621239    36.121871 
165440000    283.74802    299.47779    302.52234   -913.89933    908.58823   -3.0445492    36.235395 
165444000    303.20709    410.79921    605.99246   -944.29097    908.51054   -195.19325    36.599888 
165448000     295.8853    426.49803    461.49503   -941.36024    910.53045   -34.997006    36.564158 
165452000     301.8198    192.19523    433.69231   -948.59836    929.91427   -241.49708    36.738726 
165456000    286.81026    301.74065    276.85495   -941.72556    931.36754    24.885696    36.805611 
165460000    270.96852    260.96299    349.88067   -944.42975    933.26072   -88.917683    36.633872 
165464000    279.79726    371.87083    426.13301   -934.53496    933.98508   -54.262183    36.579374 
165468000    272.83302    309.81036    220.60167   -944.59362    949.67681    89.208686    36.850978 
165472000    277.80199    313.68453    435.15104   -958.96606    951.38259    -121.4665     36.89269 
165476000    270.45757    420.37027    341.18282   -969.79509    974.45784    79.187443    37.040847 
165480000    268.09849    298.59578    222.18234   -995.14161    975.76727    76.413442    37.207176 
165484000    275.36774    511.46406    252.72372   -995.36527    996.75301    258.74034    37.298239 
165488000    275.84593    692.91475     164.2202   -1009.6216    1010.4666    528.69455    37.247508 
165492000    251.76369    344.44279    343.90171   -1008.1586     1010.877   0.54107613    37.331286 
165496000    296.48638    491.08915    340.45583   -1036.2014    1009.3386    150.63332     37.36312 
165500000    329.62374     453.7949    424.18911   -1039.7231    1000.2859    29.605785    37.249624 
165504000    283.81541    419.70195    430.72127   -1035.6308    1014.2231   -11.019316    37.260737 
165508000    300.33655    383.22317    444.59174   -1054.4866    1015.0847   -61.368574    37.420464 
165512000    291.41707    445.61387    257.96547   -1043.1792    1025.1328    187.64841    37.673074 
165516000    282.59733    427.32988    327.24855   -1044.9076    1028.2932    100.08133     37.79646 
165520000    261.65154    519.23213    377.76442   -1046.9502    1033.7136    141.46771    37.928496 
165524000    320.62709    362.28569    144.65827   -1052.6606     1024.866    217.62741    37.934362 
165528000    292.53764    372.10397    277.60222   -1061.9265    1027.3162     94.50175    38.038815 
165532000    296.90186    326.45714    267.63884   -1080.3333    1043.1872    58.818298    37.934173 
165536000    303.82207    311.95181    407.60825   -1087.0252    1048.9442   -95.656432    37.949965 
165540000    322.80355    514.50945    352.27487   -1098.2391    1056.9849    162.23457    37.990211 
165544000    302.80733    384.67813    403.48191   -1088.4023    1069.3782   -18.803776    37.849075 
165548000    287.73363    370.60863    326.82009   -1109.0766    1088.7793    43.788541    38.151835 
165552000    313.45645    329.40736    252.64344   -1110.6013    1093.6694    76.763923    38.102845 
165556000    292.13936    283.93395    425.93856   -1115.6142    1091.2599    -142.0046    38.203721 
165560000    281.79795    452.41667    501.34164   -1115.7409    1113.1435   -48.924974    37.997792 
165564000    292.76768    546.94307    319.89497   -1138.9019    1117.5226     227.0481    38.201522 
165568000    309.30679    246.64483     276.4746    -1161.408    1132.6437   -29.829777    38.134089 
165572000    314.29442     387.3033    204.67102   -1163.3383    1138.3413    182.63228    38.080128 
165576000    289.00677    223.37549    324.83807   -1152.5685    1155.2653   -101.46259    37.866743 
165580000    280.16734    458.70412    575.30738   -1164.1753    1159.8515   -116.60326    38.022557 
165584000    244.82419    331.02796    279.56629   -1147.2614    1166.3697    51.461669     38.08833 
165588000    281.64828    514.49169    307.92465   -1166.4556    1157.4074    206.56703    38.087645 
165592000    277.27229    379.98458     299.7763   -1167.3846    1172.3132    80.208275    38.107917 
165596000     267.7428    251.58949    565.90091   -1165.5071    1166.3964   -314.31142    38.080662 
165600000    271.33342    313.37853    301.71836   -1165.2071    1171.6807    11.660165     38.13054 
165604000    273.24446    222.25506    337.34349   -1183.6441    1177.7586   -115.08843    38.022996 
165608000    292.10909    191.77456    268.66654   -1202.5051    1181.1509   -76.891984    37.950728 
165612000    275.32681    483.27139      263.047   -1220.5678     1195.039    220.22439    38.029286 
165616000    287.89201    289.55933    467.89725   -1217.5624    1219.8232   -178.33792     38.07296 
165620000    291.01005    401.74328    390.78248   -1235.9875    1224.3419    10.960798    38.320986 
165624000    278.63496    294.79234    407.23531   -1245.3038    1237.7177   -112.44297     38.68677 
165628000     280.2552    304.48449    254.27208     -1243.86    1234.3553    50.212403    38.540811 
165632000    300.48713    438.00259     274.0792   -1262.2654    1226.3776    163.92339    38.493932 
165636000    291.96056    297.41654     268.9081        -1244    1226.5424    28.508436    38.487822 
165640000    263.41002    469.92927      426.529   -1256.1978    1248.5983    43.400271    38.445562 
165644000    260.33859    567.18813    322.88048   -1255.3282    1257.8215    244.30764    38.372255 
165648000    301.19405    468.66875    417.79618    -1269.767    1262.5167    50.872572    38.558534 
165652000    273.64556    448.46837    294.90191   -1285.7237    1281.7601    153.56646    38.661637 
165656000    239.74552    340.51793    198.03567   -1272.4274     1282.018    142.48227    38.683444 
165660000    303.96905    338.85543    548.09021   -1284.6761    1267.7685   -209.23478    38.639669 
165664000    288.31975    403.40594    394.03325   -1301.8381     1279.713    9.3726914    38.683166 
165668000    268.89468    415.09055    460.15485   -1293.8842      1300.49     -45.0643    38.687998 
165672000    298.50186    353.83968    317.69276    -1308.158    1281.9072    36.146922    38.636707 
165676000    273.14026    249.92733    291.50423   -1284.7018    1296.4142   -41.576897    38.593342 
165680000    288.60022    439.27503    228.62532   -1309.5082    1281.8263    210.64971    38.626345 
165684000    308.82203    332.55096    256.23263   -1315.6148    1286.3352    76.318333    38.731397 
165688000    299.22821    319.73479    216.33481   -1303.6992    1283.0843    103.39998    38.723235 
165692000    282.90163    220.57958    298.95283   -1290.8893    1282.4428    -78.37325    38.886145 
165696000     264.6221     241.8959    425.46327   -1292.3241    1301.0777   -183.56737    38.936328 
165700000    291.94498    352.88951    326.16618    -1323.408    1304.5982    26.723326    38.831302 
165704000    256.35184     208.5378    356.66408   -1312.3449    1324.9118   -148.12628    38.654255 
165708000    271.89923    347.98816    473.34436   -1305.0432     1328.466    -125.3562    38.659678 
165712000    261.09344    300.84305    415.73308   -1320.1203    1316.6193   -114.89003     38.66638 
165716000    253.48075    346.06585    361.56976   -1313.0352    1326.5055   -15.503913    38.822182 
165720000     282.2658    636.78661    189.76301   -1324.0158    1330.0754    447.02359    38.856535 
165724000    273.28467    398.06883    388.27783   -1324.5648    1329.1096    9.7909921    38.778153 
165728000    261.65171    460.85809    365.70015   -1323.1894    1324.8546    95.157941    38.876305 
165732000    255.60817    339.44917    310.47564   -1342.8051    1343.3252    28.973523     38.91514 
165736000    279.29445    321.91704    612.08885   -1345.0948    1343.9348   -290.17181    38.896031 
165740000    283.68929    343.55557    328.19257   -1350.9488    1337.2585    15.363006    38.724248 
165744000    287.74133     512.7152    208.45243   -1343.5077    1335.7239    304.26277    38.660739 
165748000    285.06028    390.72461    267.47856   -1330.3752     1337.486    123.24605    38.628103 
165752000    257.68557    381.23894    325.43226   -1348.3198    1354.8613    55.806681    38.708424 
165756000    278.49528    340.16523    324.92479   -1361.0608    1373.8958    15.240435    38.807676 
165760000    256.68372    537.40694    279.67249   -1357.1708    1368.6284    257.73445    38.768173 
165764000    263.15436    287.10695    474.67898   -1358.3005     1360.342   -187.57203    38.645989 
165768000    265.74932     279.6974    480.58549   -1379.6892    1363.8271   -200.88808    38.776577 
165772000      298.585     277.2779    380.30084   -1397.6152    1372.5172   -103.02294    38.794501 
165776000    268.29177     346.7777    277.51506   -1398.9368    1399.1622    69.262639    38.922769 
165780000    312.11701    314.36386    246.95325   -1402.8353    1395.4782    67.410616    38.861054 
165784000    308.07791    267.72812    366.27438   -1406.6028    1383.6577   -98.546264    38.950377 
165788000    319.17805    306.15878    250.84655   -1406.9221    1393.2341     55.31223    38.992234 
165792000    274.25861    382.40149    272.14098   -1401.9661    1414.9249    110.26051    39.027757 
165796000    278.26494    442.92712    225.82286   -1424.3794    1406.4855    217.10426    39.057683 
165800000    275.10461    495.74171    351.40489   -1434.4019     1424.454    144.33682    39.066202 
165804000    274.24625    349.78915    250.59506   -1434.4073    1427.9015    99.194093     39.18481 
165808000    270.97275     294.5137    269.69244   -1435.6016    1435.4142    24.821258    39.107509 
165812000    287.12709    357.95507    641.48215   -1461.7728    1444.1383   -283.52708    39.098322 
165816000    282.99633    334.10351    382.14781   -1466.5471    1448.6474   -48.044296    39.117002 
165820000    240.39291    311.12449    324.76299   -1473.3121     1486.597   -13.638501     38.85663 
165824000    266.80133    374.32619    350.81014    -1489.538    1492.1064    23.516051    38.844019 
165828000    303.20675    274.05951    459.74084   -1505.5029    1480.6127   -185.68133    38.787153 
165832000    266.70196    341.47164    524.70192    -1504.331    1495.7384   -183.23028    38.712294 
165836000    284.76688        525.1    533.24619   -1536.7645    1524.6639   -8.1461923     38.76068 
165840000    290.35849    372.39164    350.66403   -1533.5107     1536.633    21.727606    38.710918 
165844000     290.6543    452.18369    256.84477   -1545.2933    1557.9611    195.33892    38.691267 
165848000    248.82331    352.80664    338.21496   -1552.7484    1555.1492    14.591676    38.679748 
165852000    267.76152    452.31661    271.55245   -1545.4397    1569.5302    180.76415    38.590109 
165856000      277.457    574.03752    297.20693   -1552.3053    1560.7995    276.83059    38.644197 
165860000    263.64596     488.7201    247.21353   -1549.9804    1560.9642    241.50658    38.610987 
165864000    262.38031    380.51103    218.80728   -1568.5452    1569.2094    161.70375     38.57566 
165868000    294.66532    357.87479    523.61809   -1593.0235    1561.3168   -165.74329    38.538108 
165872000    306.45917    516.73728    285.76514   -1603.4559    1575.2154    230.97214    38.507094 
165876000     268.4109    433.48899     526.9874   -1595.0461     1586.339   -93.498413    38.418521 
165880000    274.60601    477.63969    297.74654   -1596.4784    1598.8882    179.89315    38.488808 
165884000    250.05172    311.79831    235.73526   -1584.2007    1599.9592    76.063056    38.476901 
165888000    279.97376    306.23385    184.32044   -1598.9932    1576.7687    121.91342    38.398418 
165892000    271.30987    433.74257    275.59558   -1572.2932    1578.6565    158.14699    38.396631 
165896000    287.75282    371.69835    224.01083   -1587.9585    1579.9186    147.68752    38.483177 
165900000    295.61222    427.80218    374.42447   -1596.2524    1568.2031    53.377706    38.424199 
165904000    293.68739    403.59944    210.78234   -1583.5422    1574.1051    192.81711    38.204992 
165908000    264.07844    540.76756    596.95395   -1572.0508     1577.744   -56.186391    38.098357 
165912000    275.63754    365.94724    264.66479    -1603.865    1586.3352    101.28244    37.979716 
165916000    282.39785    442.64807    318.46944   -1617.1989    1604.4911    124.17863    37.961275 
165920000    285.14889     287.2477    527.52739   -1624.5784    1622.2007   -240.27969    37.862955 
165924000    264.23715    321.91551    294.11956   -1626.5399    1625.9067    27.795948    37.954699 
165928000    279.83333    430.88289    388.26434   -1635.7732    1646.3733    42.618551    37.958807 
165932000    264.34144    346.06167    526.46838   -1647.5286    1646.0838   -180.40671    37.999484 
165936000    257.74946    450.39075    450.07981   -1643.3713    1658.5086   0.31094331    38.056687 
165940000     279.4604    212.38963    347.18396   -1660.5485     1661.346   -134.79434    38.023161 
165944000    271.10566    350.65999    299.54405    -1680.047    1681.8442    51.115937    37.975032 
165948000    310.82683    555.43067    439.30696   -1700.3142     1681.704    116.12371    37.928038 
165952000    274.66529    393.48153    316.17255   -1703.0314    1699.4883    77.308976    37.848625 
165956000    286.43405    393.10157    357.16879   -1724.8123    1717.9723    35.932777    37.782164 
165960000    257.05844      498.049    290.73334   -1717.6915    1730.8965    207.31566    37.618805 
165964000    270.84562    291.41837    550.56692   -1746.8586    1739.5374   -259.14855     37.60148 
165968000    290.36095    330.62324    334.54456   -1770.8168    1740.6957   -3.9213144    37.708479 
165972000    310.56373    464.81944    260.29791   -1768.5446    1741.5163    204.52153    37.783235 
165976000    293.12363    273.42665     321.6704   -1764.8408    1765.0153   -48.243756    37.805323 
165980000    285.26873     288.1705    234.93328   -1782.7448    1769.6987    53.237218    37.752622 
165984000    274.44471    311.71314    267.42793   -1770.3387    1767.7525    44.285209    37.769037 
165988000     287.9358    429.55692     446.9407   -1769.0554    1766.8188   -17.383772    37.850602 
165992000     275.4472    351.28531    308.20591   -1782.6787    1786.0167    43.079398    37.843127 
165996000    261.49747    578.55336    405.90752   -1794.0881    1785.4292    172.64584    37.811569 
166000000    265.16986    284.48107    272.27312   -1798.5045     1785.946    12.207958     38.00661 
166004000    283.03586    257.29341    371.54593   -1806.7261    1798.3611   -114.25252    38.080893 
166008000    286.71221    683.75872    228.29492   -1806.8607     1803.995     455.4638    38.133352 
166012000    288.77549    398.17546    224.25016   -1815.8883    1785.8818    173.92529    38.117061 
166016000    273.61572    285.42672    528.69419    -1803.253    1801.3379   -243.26747     37.93962 
166020000    276.32462    362.68356    381.24519   -1825.3402    1825.8631   -18.561636    37.923252 
166024000    282.03764    433.61473    248.68991   -1818.3321    1826.1946    184.92482    37.817204 
166028000    285.02609    387.45385    517.09331   -1824.1393    1832.4089   -129.63946    37.869409 
166032000    239.68557    221.46737     459.4112   -1841.8491     1850.391   -237.94383    37.905441 
166036000    279.98227    520.62942    337.92355   -1865.3431    1850.9285    182.70588    37.880414 
166040000    293.69299    373.41779    413.38738   -1871.1422    1853.4736   -39.969589     37.94583 
166044000    282.53007    388.68638    386.13453   -1867.4886    1864.6445    2.5518439    37.919299 
166048000    306.25731    405.22974    461.42862   -1887.4211    1849.7746   -56.198889    37.768744 
166052000    281.40953    317.33371     370.5519   -1866.2894     1861.579   -53.218188     37.63364 
166056000    267.04058    234.96981    377.96701   -1876.0759     1852.917    -142.9972    37.645656 
166060000    278.83908    304.21299    336.26301   -1897.3659    1865.6241   -32.050021    37.675922 
166064000    286.62974    273.07661    465.91971    -1890.858    1869.5255   -192.84311    37.744059 
166068000    262.15841    275.84873    198.99245   -1909.5483    1894.7621    76.856279    37.731504 
166072000    289.45714    349.78476    298.90288   -1908.4008    1892.7168    50.881872    37.624597 
166076000    286.03293    315.04645    384.14586    -1910.442    1907.6133    -69.09941     37.70532 
166080000    293.43201    413.42821    433.20323   -1923.4599       1919.1   -19.775015     37.61164 
166084000    253.77907     394.5151     226.8052   -1922.7619    1928.0764     167.7099    37.669931 
166088000    273.05051     509.3606    307.68228   -1949.3966    1928.7557    201.67832     37.75952 
166092000    298.43524    398.96533    635.13692   -1945.1709    1925.5139   -236.17159    37.773685 
166096000     262.9887    355.94341    414.91162   -1947.3949     1929.932   -58.968217    37.793114 
166100000    294.11025    421.62466    274.61169   -1964.8457    1949.7022    147.01297    37.867667 
166104000    271.87905    418.33817    244.81857   -1965.7501    1958.8499     173.5196     37.97158 
166108000    292.89954    291.70607    242.73724    -1975.332    1956.6833    48.968832    37.853371 
166112000     273.8062    374.49446    344.85589   -1973.1475    1973.0416    29.638566    37.845413 
166116000    278.69759    491.27186    320.65296   -1979.3476    1971.3749    170.61889    37.852226 
166120000    256.46252    531.66139    546.86941   -1970.1781    1998.2183   -15.208029    37.837453 
166124000    263.10846    463.43785    207.45971   -1994.4593    1999.6535    255.97815    37.531668 
166128000    282.45106    367.27177    198.88054    -1998.946    1990.5147    168.39123    37.531518 
166132000     277.7626    425.77612    247.32868   -1995.9425    1993.2721    178.44744    37.523273 
166136000    278.03236    341.58795     582.2241    -1992.402    1994.8672   -240.63616    37.705466 
166140000    271.45519    381.62824    212.22789   -2006.0723    2007.9358    169.40036    37.600026 
166144000    294.79679    445.84121    289.57801   -2016.9919    1990.2687     156.2632    37.535475 
166148000     281.8863    363.94686    278.97393   -2015.4679     1995.189    84.972936    37.566732 
166152000    279.29797    372.85073    335.39044   -2034.5252    2026.7992    37.460291     37.59725 
166156000    255.02196    225.91854    396.53179   -2031.9198    2032.6604   -170.61324    37.414838 
166160000    278.59267     392.3824     272.5394   -2048.0377    2047.6596      119.843    37.408779 
166164000    290.85914    278.49886    398.39309   -2048.4783    2038.8919   -119.89423    37.580763 
166168000    289.74901     502.3083    141.89188    -2054.312    2032.0708    360.41642    37.577213 
166172000    283.95483    374.55233    234.29009   -2057.8617    2052.7372    140.26224    37.571645 
166176000    300.62805    309.60966    223.57009   -2084.6789    2057.7096    86.039574    37.632957 
166180000    297.30395    446.70734    173.36059    -2107.033    2093.9491    273.34676    37.665077 
166184000    255.19296    339.98584    333.61798   -2118.4886    2112.7616    6.3678598    37.562245 
166188000    296.25888    315.02208    447.98013   -2128.8086    2118.1437   -132.95805    37.520858 
166192000    291.06738     473.1389    256.30451    -2132.474    2125.3411    216.83439    37.441923 
166196000    284.21525    556.56246    339.28765    -2134.381    2119.9258    217.27481    37.451288 
166200000    285.23505    207.86189     254.5041    -2140.965     2137.996   -46.642206     37.42886 
166204000    274.72558    680.17949    243.59053   -2133.3534    2152.0077    436.58896    37.437678 
166208000    304.48485    327.95947    369.86426   -2149.5299    2138.3538   -41.904787    37.650225 
166212000    281.41371    329.19042    428.52219   -2154.1821     2140.818   -99.331774    37.818607 
166216000    293.39058    481.71666    538.36525   -2159.4879    2155.6548   -56.648589    37.893314 
166220000    305.47787    257.28743    281.44259   -2164.8026    2148.5015   -24.155154    37.895736 
166224000    297.21087    313.12831     288.2631    -2172.299    2151.1107    24.865206    37.748582 
166228000    290.16168    192.31133    268.02988   -2174.8485    2173.6727   -75.718551    37.728155 
166232000    281.84015    317.19812    437.94369   -2187.2097    2176.3696   -120.74557    37.636492 
166236000    289.16319    309.35261     295.6249   -2190.6602    2180.1013    13.727704    37.580685 
166240000     266.1987     270.6963    266.76404   -2190.6011    2199.9515    3.9322626    37.629584 
166244000    289.21406     524.7727    251.29076   -2221.4324    2216.8378    273.48194    37.720846 
166248000    274.93312    226.87968    715.53448   -2228.5917    2210.9799    -488.6548    37.658162 
166252000    278.31728       492.12    365.46484   -2223.6765    2234.5477    126.65516    37.698509 
166256000    302.44561    306.12365    384.94423   -2256.4161     2231.445   -78.820587    37.762656 
166260000     290.9028    411.52236    263.91559   -2263.6983    2247.7567    147.60677     37.78401 
166264000     320.8011    373.35531    392.57025   -2281.0535    2249.4453   -19.214939    37.837882 
166268000    310.04287    367.03522    224.19391   -2290.7486    2261.7225    142.84131    37.882528 
166272000    286.29989    334.91382    413.99977   -2282.2098    2288.0591    -79.08595    37.876469 
166276000    294.03586    336.84769    358.40912   -2298.6561    2300.4054   -21.561434    37.798321 
166280000    291.03237    265.80913    451.15269   -2328.7057    2313.1961   -185.34356    37.747718 
166284000    285.35488    522.43345    255.87188    -2320.053    2308.4522    266.56157    37.834111 
166288000    265.10713    380.16551    424.42873     -2303.33    2324.0168   -44.263225    37.879929 
166292000    269.99883    539.38122    238.23562   -2306.3552    2333.5734    301.14561    37.995008 
166296000    281.52163    373.99921    176.26165   -2331.4203    2321.4364    197.73756    37.970412 
166300000    297.26599    430.59014    562.73207   -2352.1946    2334.1346   -132.14192    37.944091 
166304000    279.03231    288.49937    133.98164   -2357.2363    2361.7542    154.51772    37.995159 
166308000    260.66904    378.56276    380.15847   -2350.7883     2364.242   -1.5957177    38.144892 
166312000    272.54959     607.6334    377.23975    -2372.822    2368.4636    230.39365    38.086553 
166316000    254.10989    416.27442    167.70374   -2377.9685    2380.0062    248.57067    38.085224 
166320000    291.52389    334.66367    434.66924   -2385.7196    2367.4632   -100.00558    38.105086 
166324000    303.57909    269.81549    451.91783   -2399.9597    2383.2427   -182.10234    38.069577 
166328000    292.71588    377.25133    600.43365   -2401.5751    2387.5733   -223.18232    38.206827 
166332000     265.1345    213.01201    250.58007   -2405.1287    2412.6548   -37.568062    38.237927 
166336000    244.60693    275.62155    394.03236   -2413.3965    2428.0204   -118.41081    38.186676 
166340000    277.07611    341.15766    387.73376   -2431.4025    2440.1468   -46.576099    38.223896 
166344000    276.05867    345.69135    287.22118   -2445.5441    2446.5123    58.470173    38.284057 
166348000    280.46386    372.23406     216.3742    -2450.033    2454.4424    155.85985    38.319817 
166352000    276.49926    503.03814    315.66846   -2468.3479    2459.0295    187.36968    38.454798 
166356000    301.27806    498.45296     350.9365   -2467.3743    2452.6605    147.51646     38.49795 
166360000    285.14817    398.82877    404.75998   -2463.6041    2442.8943   -5.9312103    38.567761 
166364000    275.65702    277.70338    251.61229    -2448.738    2462.4774    26.091086    38.519959 
166368000    273.85604    242.79485    214.10481    -2460.117    2456.3561    28.690038    38.637156 
166372000    294.17594    555.58778    562.73004   -2475.6759    2456.6577   -7.1422536    38.660429 
166376000    287.33627     345.6561    538.51316   -2477.5388    2484.0015   -192.85706    38.624311 
166380000    254.36376    217.38821    219.21036    -2480.437    2487.0288   -1.8221528    38.651577 
166384000    279.42945     237.1011    290.53796   -2482.5753    2471.5451   -53.436859     38.70167 
166388000     292.4798    359.30927    603.11085   -2495.9972    2472.7741   -243.80158    38.678459 
166392000    281.42289    479.44188     625.8145   -2497.8287    2476.6746   -146.37262    38.778594 
166396000     262.3759    281.18219    240.88319     -2482.18    2496.6434    40.299005    38.702536 
166400000    289.36271    640.10094    279.82835   -2502.0051     2502.517    360.27259    38.749134 
166404000    304.33732    391.01947    295.10691   -2504.1068    2501.0236    95.912562     38.67082 
166408000     276.1645    422.75798    400.60317   -2502.4583    2494.9941    22.154818     38.62944 
166412000     275.2467    301.34014    229.72401   -2515.0679    2501.5097    71.616127    38.678065 
166416000    297.97291    300.49123    397.71442    -2516.617    2514.2368    -97.22319    38.599344 
166420000    280.13726    605.10832    322.90877   -2541.3593    2531.7313    282.19955     38.61052 
166424000    298.96643    417.40387     443.2428   -2550.1337    2530.1157   -25.838939    38.631502 
166428000    269.39608    428.82429    303.82886     -2551.32    2547.9346    124.99543    38.540081 
166432000    254.08752    207.65027    194.71547   -2527.9319    2555.4539    12.934802    38.642906 
166436000    246.70712    270.98584    245.45191   -2526.3495    2551.6851    25.533933    38.656266 
166440000    279.66594    404.33725    555.34935   -2554.4514    2534.2344   -151.01211    38.584568 
166444000    315.84467    444.95468    338.52263   -2552.8127    2540.2526    106.43205     38.63616 
166448000    265.25008    366.70321    234.34768   -2539.3988    2541.9448    132.35553    38.682823 
166452000    271.78414     359.5027    438.94072   -2535.4528    2550.8154   -79.438021    38.587852 
166456000    299.62925    534.26495    378.69729   -2542.1692    2534.7517    155.56766    38.652702 
166460000    306.25996    354.07079    470.53442   -2554.8057    2540.5049   -116.46363    38.657703 
166464000    261.04412    404.10537    231.93229   -2562.7869    2563.1113    172.17308    38.607182 
166468000    300.08082    184.14665    271.76404   -2573.5342    2557.8072   -87.617392    38.641456 
166472000    291.63746    453.89494      454.017    -2579.675    2572.7473  -0.12205859     38.64456 
166476000    288.57144    411.09366    303.93669   -2584.7894    2571.8077    107.15697    38.574411 
166480000    275.84272    481.67346    198.02599   -2595.6319    2586.0907    283.64747    38.610374 
166484000    303.19138    213.17162    242.56448   -2602.0786    2585.9744   -29.392867    38.581647 
166488000    277.81151    351.94075    177.80449   -2618.6066    2608.2338    174.13627    38.547092 
166492000    267.32416    365.80964    275.78749   -2622.1071    2612.2486    90.022156    38.565779 
166496000    291.22981     282.5717    286.98909   -2640.3842    2610.0356   -4.4173904    38.514358 
166500000    312.49435    282.84881    353.16071   -2647.2262    2633.8234   -70.311901    38.509762 
166504000    302.55103    242.11875    210.83966   -2658.5079    2648.2226    31.279091    38.496034 
166508000    291.63387    322.31118    572.80833   -2644.9398    2641.1814   -250.49715    38.587317 
166512000    294.84647    387.82038     211.6126   -2679.4051    2659.3988    176.20778    38.525544 
166516000    297.19896    355.31989    484.76946   -2683.3971    2662.6631   -129.44956    38.562013 
166520000    283.56234    365.13521    349.96569   -2678.1543    2665.4797    15.169518    38.594163 
166524000    299.93523    286.83446    373.73054    -2701.777    2671.4165   -86.896082    38.592918 
166528000     280.6985    392.09242    185.91329   -2682.0739    2685.6441    206.17913    38.640601 
166532000     259.1652    117.15112    332.47307   -2680.2283    2699.3155   -215.32195    38.674525 
166536000    281.47005    491.82622    420.98412   -2711.9486    2699.3297    70.842091    38.711638 
166540000    270.81117    265.61834    346.01071   -2705.0084    2717.0206   -80.392373    38.727096 
166544000    286.98802    252.47471    204.73059   -2731.3077    2718.4475    47.744112     38.88046 
166548000    269.90771     296.7362    400.66185    -2725.986    2730.8607   -103.92566    38.913668 
166552000    268.09884     290.0228    322.00584   -2727.4071     2748.178   -31.983047    38.918134 
166556000     255.6145    380.14549    335.12198   -2734.1717    2753.9084    45.023508    38.965806 
166560000    281.91899     388.7972    268.68114    -2739.207    2755.8022    120.11606    39.020031 
166564000    256.74375    389.07823    298.84482   -2748.4524    2767.7523    90.233407    39.036631 
166568000    280.95172    683.06362    332.13051   -2757.4631    2756.3482    350.93311    39.027854 
166572000     280.8006    412.86811    318.41456   -2772.8923    2765.4338    94.453548    39.115354 
166576000    273.15617    278.00044    540.07252   -2771.7476    2767.6228   -262.07208    39.098697 
166580000    262.46782    311.05589    276.24679   -2773.3174     2783.679    34.809098    39.067224 
166584000    287.95026    228.56357    324.60307   -2776.0183    2764.2886   -96.039499    39.039028 
166588000    262.96682     144.3424    172.63873   -2778.9699    2776.0959   -28.296334    39.031283 
166592000    293.71759    312.94249    336.27666   -2798.6868      2789.99   -23.334161    39.077206 
166596000    271.38666    290.58926    189.38894   -2805.9554    2806.6268    101.20032    38.968703 
166600000    281.12034    395.87971    559.59784   -2813.5639    2805.2879   -163.71813    38.908894 
166604000    280.57173    246.65572    196.05678   -2830.8135    2825.3873    50.598939    38.947086 
166608000     252.1782    277.65116    272.98679   -2838.0155    2851.3484    4.6643706    38.988763 
166612000    252.27155    307.91145    353.29721   -2841.7456    2868.4385   -45.385758    38.948084 
166616000    268.69927    577.23509    317.05509   -2855.0553    2865.2314       260.18    38.968244 
166620000    296.61416    423.28011    456.56795   -2863.5251    2847.2879   -33.287842    39.136304 
166624000    289.46695    329.81528    315.75567   -2864.7584    2864.9366    14.059614    39.096691 
166628000    313.15788    393.72842    406.61743   -2872.6158    2853.1729    -12.88901    39.053106 
166632000    260.24097    303.28094    263.76553    -2865.808    2858.2755    39.515415    39.000585 
166636000    309.19124    378.98727     556.5842   -2867.9856    2854.0224   -177.59692    38.936859 
166640000     317.2302    478.37168    362.59847   -2898.4975    2864.7848    115.77321    38.961739 
166644000    280.38267    500.46435    404.11476   -2896.3253      2883.19    96.349594    38.926566 
166648000     285.6193    249.14962    616.76076   -2884.5029    2868.5556   -367.61114     38.94788 
166652000     312.9519    483.88915    416.46675   -2891.3098    2875.4399    67.422397     38.93002 
166656000    270.84769    323.89826    235.87028   -2883.2482    2880.3557    88.027976    38.908411 
166660000     291.6474    307.07189    421.54473   -2881.7517    2867.9682   -114.47284    38.936364 
166664000    303.69133      436.412    187.68852    -2912.591    2893.5418    248.72348    38.906186 
166668000    302.81955    333.75831    525.58339   -2903.7115    2880.1948   -191.82508    38.967134 
166672000    263.70894    253.29876    412.71039   -2884.0434    2901.5157   -159.41164    38.925455 
166676000    287.32456    297.99228    262.51593   -2908.2144    2895.8272    35.476356    38.869999 
166680000     284.0288    265.60712    259.44354   -2906.6657    2896.0976     6.163572    38.794993 
166684000    277.68178    312.18736    162.51041   -2898.5988    2897.9147    149.67695      38.7346 
166688000    275.67298    334.64657    385.45166   -2910.7758    2915.7342   -50.805086    38.668033 
166692000    307.13934    422.39872    303.66977   -2937.7506    2913.8542    118.72895    38.756964 
166696000    307.07433    347.63416     445.3233    -2931.293     2917.027   -97.689135    38.635274 
166700000    278.22839    569.85446     346.7976   -2939.0186    2934.3356    223.05686    38.716212 
166704000    287.91502    475.21716    280.23857   -2951.7989    2937.3389    194.97859    38.782014 
166708000    318.00672    644.44122    366.66972   -2975.4872    2944.7019     277.7715    38.667684 
166712000    298.55513    312.16831    411.60577    -2981.851    2956.0291   -99.437465    38.589461 
166716000    262.29971    424.86627    236.00879   -2982.0638     2985.941    188.85748    38.609789 
166720000     266.9954    391.91186    172.25745   -2995.2815    2998.1982    219.65441    38.670336 
166724000    305.58959    251.42086    595.65623   -3018.5183    3000.7117   -344.23537    38.585915 
166728000    345.07998    337.61164    366.43733   -3042.6933    3012.3135   -28.825696     38.53968 
166732000    301.10298    397.86675    481.09219   -3042.6632    3014.1943   -83.225447    38.465648 
166736000    275.63867    503.92625    254.87795   -3042.8762    3037.4808     249.0483    38.386305 
166740000    310.71073    324.25308    169.31003   -3056.5468    3038.5043    154.94306    38.330775 
166744000    290.99279    245.66839    303.56004   -3052.9734    3046.4742   -57.891651    38.280092 
166748000    287.86627    344.52636    358.91714   -3069.9251    3045.0544   -14.390787    38.330155 
166752000    267.30439    529.96411    542.70081   -3060.1861    3081.9904   -12.736701    38.307498 
166756000      257.444    414.95595    196.90757   -3083.8232    3089.8797    218.04838    38.363571 
166760000     315.3068    706.13596    369.70844    -3098.472    3089.0994    336.42752    38.465387 
166764000    282.61634    276.94429    235.88909   -3100.8099    3101.1525    41.055208    38.470653 
166768000    283.33378    293.70993    104.12154   -3106.1188    3110.8449    189.58839    38.399504 
166772000    283.55361    380.18573    202.80643   -3119.9263    3130.9061     177.3793    38.463094 
166776000     255.0553    458.64892    177.81526   -3127.2601    3141.8131    280.83367    38.462974 
166780000    274.55768    305.39117     337.4123   -3119.7025    3136.3415   -32.021128    38.401429 
166784000     269.8269    334.83282    517.23931   -3138.9663    3135.9517   -182.40649    38.413192 
166788000     267.3328    532.23994    254.19451   -3144.9073    3143.2065    278.04543    38.383252 
166792000    278.96769    383.05972    357.66672   -3150.7755    3150.2612    25.393002    38.336453 
166796000    280.78139    423.98815    305.50401   -3158.4021    3156.3843    118.48414    38.353952 
166800000     276.1368    362.94633    462.50057   -3166.1282     3176.047   -99.554241    38.343785 
166804000    289.14174    317.72108    322.64077   -3184.3871    3185.7099   -4.9196928    38.377236 
166808000    313.20963    597.11311    302.52654   -3203.4908     3171.451    294.58658    38.342164 
166812000    294.81615    554.10082    299.86084    -3198.782    3181.4685    254.23999    38.337939 
166816000    279.78508    370.16467    244.47226   -3170.6989    3182.7964    125.69241    38.321828 
166820000    304.25346    310.95787    327.43272   -3201.8605    3184.7997   -16.474847    38.287968 
166824000    289.35684    211.35556    394.20362   -3204.3472    3193.7579   -182.84806    38.299276 
166828000    300.46835    167.04838    378.73727   -3207.2325     3192.104   -211.68889    38.199412 
166832000    289.89509    524.37883    556.91789   -3195.8736    3193.9227   -32.539053    38.224843 
166836000    285.02514    283.25407    565.18179    -3198.177    3188.0429   -281.92772    38.205517 
166840000    293.74233    458.89088    232.52644    -3217.033    3212.6641    226.36444     38.25915 
166844000    290.97158    460.80518    296.98341   -3235.4028     3226.783    163.82177    38.185163 
166848000     288.6187    341.91522    362.67641   -3251.6945    3240.0824   -20.761187     38.21016 
166852000    303.01743    211.99924    267.00092   -3245.1264    3251.7005   -55.001687    38.140979 
166856000    284.22597    333.97784     583.3102   -3262.7201    3255.1047   -249.33236    38.181391 
166860000    273.85466    246.82494    180.24334   -3263.0078    3264.1937    66.581607     38.27832 
166864000    273.85887    352.44351    569.54541    -3262.887    3258.2012   -217.10191    38.283766 
166868000    271.88919    263.28789    398.51113   -3273.9832    3281.5351   -135.22324    38.379995 
166872000    261.77965    449.75037    337.48386   -3267.6213    3279.8687     112.2665    38.414304 
166876000    287.40899    255.02269    271.59959   -3289.1183    3285.7445   -16.576903    38.369935 
166880000    250.86854    206.80042    308.91393   -3275.1785    3291.3329   -102.11351    38.324858 
166884000    277.50312    458.94959    134.17091   -3298.8298    3308.6475    324.77869    38.330279 
166888000     264.7423    571.29164     346.7446   -3310.6629    3333.0578    224.54705    38.338708 
166892000    285.38028    324.05466    673.59042   -3310.7519    3318.7293   -349.53576    38.277036 
166896000    260.01557    143.00372    143.04781   -3313.4976    3335.4521 -0.044084661    38.267142 
166900000    288.26743    287.10812    398.69332   -3321.1906    3328.2513    -111.5852     38.16734 
166904000    289.63441    432.80646    290.79751   -3340.9179    3330.5702    142.00895    38.116355 
166908000    257.20646     344.2447    367.52318   -3329.3131    3351.8212   -23.278477    38.155585 
166912000    272.49931    271.67492    185.77332   -3351.6041    3353.0547    85.901599    38.146125 
166916000    306.31985    441.88448    346.98285   -3365.5608    3340.7017    94.901631    38.158235 
166920000    241.49173    452.63713    309.59984   -3352.5529    3377.9974    143.03729    38.140813 
166924000    283.63036    216.41208    294.41074   -3361.0645    3363.2945   -77.998663    38.140068 
166928000    254.24177    383.30122    377.54748   -3362.5551     3371.151     5.753741    38.119987 
166932000    294.51568    374.69169    380.04435    -3381.663    3378.4784   -5.3526636    38.187737 
166936000    248.67555    531.82282    298.65116   -3372.1793    3394.5428    233.17167    38.152652 
166940000    275.63248    444.93859     270.4337   -3380.7004     3385.685     174.5049    38.099573 
166944000    289.29773    292.07864    539.23305   -3384.6238    3395.1557   -247.15441    38.080597 
166948000    262.24715    276.00482    199.38973   -3387.8368    3398.5643    76.615094    38.029438 
166952000    287.90438    405.77318    485.62136   -3393.0895    3395.4399   -79.848181    37.974882 
166956000    268.78834    275.40971    367.14654   -3398.2707    3398.6366   -91.736832    38.002812 
166960000    301.26155    272.71921    560.57015   -3411.7444    3405.3139   -287.85094    37.946741 
166964000    266.58983    632.79486    353.26948   -3411.4856    3418.7362    279.52538    37.959453 
166968000    278.74057    275.30486    328.85883   -3422.2682    3425.9526   -53.553962    37.960392 
166972000    280.89493    500.02349    201.44464   -3440.9909    3439.9438    298.57885    37.922516 
166976000     245.9472    240.96724    181.01986   -3446.7214      3458.05    59.947383    37.898089 
166980000    270.90442    361.77397     329.6351   -3446.0782    3448.4153    32.138869    37.925097 
166984000    279.24797    393.85997    354.68598    -3454.607    3444.6103     39.17399    37.902153 
166988000    280.05073     320.1377    300.31863     -3462.22    3448.0817    19.819073    37.902312 
166992000    293.43856    303.73117     148.1535   -3486.6135    3468.3415    155.57767    37.810236 
166996000     284.1605    443.96236    384.34796   -3484.4256    3468.7541    59.614408    37.845619 
167000000    302.75767    412.82474    348.72309    -3510.043    3463.5094    64.101648    37.884836 
167004000    317.11357    550.24797     453.5727   -3516.7603    3484.7248    96.675267    37.855938 
167008000    276.13488    310.83863    269.43615   -3530.0706    3514.7174    41.402486    37.897483 
167012000    292.59873    632.19543    197.71811   -3526.8947    3525.3069    434.47732     37.87196 
167016000    280.19605    240.77791    293.23293   -3542.1642    3517.6578   -52.455012    37.861206 
167020000    293.27748    328.25719    384.88634   -3537.7004    3517.6171   -56.629142    37.852208 
167024000    276.16881     183.9815    133.69829    -3545.816    3522.1117    50.283209    37.903137 
167028000    287.32746    418.37176    284.50139   -3535.1415     3529.619    133.87037    37.832903 
167032000    289.11493    300.36537    466.52102   -3554.4739    3534.9215   -166.15565    37.970496 
167036000    296.70997    295.02038    269.16418   -3551.2176    3540.9395    25.856202     37.97071 
167040000    290.92199    447.09975    249.61759   -3564.0923    3562.2271    197.48215    37.954668 
167044000    301.61532     463.7461    527.12541   -3588.2698    3553.8074   -63.379315    37.954301 
167048000    314.08965    453.73958    357.71337    -3603.056    3571.7789    96.026205    37.997253 
167052000    278.18246    288.59381        261.3    -3602.653    3577.3686    27.293811    37.931987 
167056000    311.20662    416.27353    641.64878   -3609.4326    3590.2194   -225.37525    37.918732 
167060000     293.4586    369.71102    143.01149   -3629.1427    3619.5141    226.69954    37.899069 
167064000    298.77907    431.82619    207.60851   -3640.3781    3632.5906    224.21768    37.908434 
167068000    298.70548    351.40077    458.28537   -3631.7604    3635.7195    -106.8846    37.899778 
167072000     300.8321    436.06975     351.2095   -3652.6912    3628.1344    84.860255    37.880279 
167076000    274.75821    516.37088    272.79651   -3655.2545    3652.7018    243.57438    37.868195 
167080000    260.43057    379.13372     684.3366   -3665.5019    3660.0282   -305.20288    37.814802 
167084000    265.15696    274.53147    369.65897   -3659.0152    3665.4699   -95.127497    37.806402 
167088000    286.74073    625.31464    281.45707   -3677.5415    3660.0466    343.85757    37.769921 
167092000    254.90141    316.51269    232.31266   -3701.2741    3684.7625    84.200031    37.713661 
167096000    275.44264     474.7785    263.56515   -3685.0291    3704.3735    211.21334    37.751522 
167100000    274.32205    359.84635    269.19888   -3696.7927     3692.001    90.647477    37.794348 
167104000    242.54258    309.29797    262.63974   -3698.6687    3703.8169    46.658223    37.734478 
167108000    271.83101    460.67007    265.94693   -3708.2236     3693.174    194.72314    37.797374 
167112000     314.3082    337.77588    378.26597   -3700.9638    3682.8089   -40.490087    37.819926 
167116000    260.04733    364.79986     205.3729   -3724.0736    3714.9957    159.42697    37.887006 
167120000    283.65309    661.27555    257.51854   -3735.7091    3730.9442    403.75701     37.94837 
167124000    294.81408    244.89982    373.48517   -3738.9388    3724.0393   -128.58535    37.956469 
167128000    263.61545     440.5194    242.80886   -3737.0636    3735.2434    197.71054    37.987137 
167132000    277.08875    344.10542    183.18089   -3743.6472    3746.3747    160.92453     38.01832 
167136000    304.42275    432.97791    415.54797   -3775.0455    3760.9442    17.429936     38.04345 
167140000    292.05533    461.79945    425.11728    -3778.668    3760.5927    36.682167    38.091334 
167144000    280.23879    395.36705    186.70918   -3782.9174    3766.8311    208.65788    38.057606 
167148000    280.08188    130.03041    487.10524   -3791.3036     3784.145   -357.07483    38.081937 
167152000    292.52322    423.97419    287.15466   -3791.6442     3793.123    136.81953      38.0374 
167156000    273.59305    396.63037       438.19   -3799.3601    3795.6932    -41.55963    38.005133 
167160000    310.34808     411.1514    244.40823   -3824.6952    3799.8963    166.74317    38.044567 
167164000     302.9585     490.2277    395.78305   -3827.1581    3792.2819    94.444652    38.120569 
167168000    285.82163    174.41995    466.41527   -3813.9236    3790.7133   -291.99532    38.050729 
167172000    319.16908    310.90175    347.93427   -3814.6032      3791.46   -37.032515    38.061619 
167176000    285.74823    755.81967    372.03025   -3821.5259    3817.4511    383.78941    38.116258 
167180000    270.76651    349.34068    249.36307   -3810.6351    3819.0583    99.977608    38.123403 
167184000    313.21023    257.46353    298.79681      -3830.4    3805.1268   -41.333286    38.095889 
167188000    274.43946    252.79262    312.20328   -3818.5406    3825.2198   -59.410659    38.019186 
167192000    276.51736    270.00481    281.56247   -3834.2447    3827.9221   -11.557656    38.131066 
167196000    280.20609     421.9541    354.03918   -3839.7117    3823.2266    67.914919    38.161435 
167200000    294.94712    515.77174    578.17612   -3835.0957    3807.1182    -62.40438    38.156428 
167204000    282.91611    282.09564    253.80298   -3847.4769    3826.2485    28.292665    38.168031 
167208000    306.68307    411.28181    288.83043   -3863.2614    3836.4315    122.45139    38.219445 
167212000    298.23259    207.16157    256.96375   -3870.7052    3841.6724   -49.802177    38.247335 
167216000    293.31859    478.78642     266.7436   -3867.6014    3856.4142    212.04282    38.264743 
167220000    323.24583    429.90135    366.79891    -3871.365    3842.9131    63.102441    38.356554 
167224000    276.92115    470.63621     292.5089    -3871.312    3853.6156    178.12732    38.391025 
167228000    306.75241    237.02235    362.44248   -3865.7839    3854.3476   -125.42012    38.317791 
167232000    281.19863    238.91603    276.29179   -3867.2804    3863.3204   -37.375764    38.347612 
167236000     325.6647    758.85301    211.61931   -3882.1383    3860.8067    547.23369    38.348276 
167240000    300.52816     254.4007    504.69225   -3897.2976    3863.2637   -250.29155    38.285956 
167244000     308.9847     323.2885    250.34721   -3882.7585    3882.1797    72.941287    38.278825 
167248000    260.88429    439.08848     278.1895   -3886.0357     3892.054    160.89899    38.162777 
167252000    304.52293    418.73215    330.42031   -3891.9791    3881.4256    88.311838    38.185385 
167256000    295.76973    508.74023    447.91625   -3885.3601    3870.0736    60.823986    38.149787 
167260000     257.8076    424.28484    243.56259   -3886.6417    3892.6984    180.72224    38.150695 
167264000     296.4633    443.45187    251.31709   -3901.6513     3899.487    192.13478    38.187511 
167268000    292.95338     445.6014    522.72589   -3903.2904    3900.8772   -77.124494    38.117244 
167272000    283.83941    394.89191     310.2615   -3915.4495     3918.967    84.630404    38.035226 
167276000    319.79739     224.0451    243.46108   -3947.2344    3933.1728   -19.415977    38.037391 
167280000    280.45449    580.40939    325.72827   -3955.5128    3954.3583    254.68112    38.065217 
167284000    284.40296    441.40636    283.63314   -3956.6831    3960.9389    157.77322    38.077675 
167288000    290.45681     334.5826    200.47217   -3969.0662    3976.5221    134.11042    38.155067 
167292000    266.39419    317.72421    303.55038     -3983.28    3980.6222    14.173828    38.177894 
167296000    274.52353    356.76284    350.38468    -3991.619    3991.4676    6.3781611    38.246623 
167300000     274.9212    431.81161    473.91541   -3985.4888    3992.6823   -42.103804    38.249775 
167304000    292.20071    535.48121    345.86518    -3997.229      3996.84    189.61604    38.275842 
167308000     289.2709     437.0523    319.74738   -3994.1314    3978.7938    117.30492    38.292052 
167312000    318.08219    278.42211    289.15723   -3998.5813     3982.021   -10.735121     38.33427 
167316000    274.97469     502.0254    245.14069   -3997.9532    3997.0759    256.88471     38.29289 
167320000    286.74808    320.64349    388.66844   -4016.4262    3997.5505   -68.024954    38.275157 
167324000    288.05772    264.08395    399.98223   -4027.7119    4000.8653   -135.89828    38.216225 
167328000    283.75264    456.04747    383.19696   -4020.5851    4001.1653    72.850504    38.197287 
167332000    275.91248    315.19312    203.62234   -4025.9312     4012.028    111.57078     38.18496 
167336000    271.28929    445.56945    290.23983   -4031.3963    4010.9439    155.32961    38.173142 
167340000    280.79018    276.11107    333.06352   -4015.3845    4013.1176   -56.952455    38.253933 
167344000    281.43545    296.98523    388.97079   -4009.2933    4007.5596   -91.985563    38.334784 
167348000    302.87627    192.40625    271.61737   -4021.9119     3993.323   -79.211114    38.371282 
167352000    266.13562    255.50164    257.36217   -4020.4154    4007.2895   -1.8605332     38.30878 
167356000    259.57344    566.44313    236.57314   -4032.6877    4031.8764       329.87    38.321168 
167360000    272.60885    476.04057    422.57452   -4046.8841    4047.5002    53.466051    38.309807 
167364000     275.2053    418.71415    220.26091   -4044.8244    4052.2945    198.45324    38.341885 
167368000    270.67523    437.15928    514.51729   -4041.1756    4054.1582   -77.358011    38.357825 
167372000    284.95994     183.7145    489.68696   -4065.4307    4055.3423   -305.97246    38.334399 
167376000    280.81364    224.42405    533.65522   -4077.7116     4058.225   -309.23118    38.384951 
167380000     276.5614    491.56117    221.44908   -4096.8795    4083.2806    270.11209    38.391661 
167384000    283.79752    279.06748    201.84416   -4081.9611    4065.1432    77.223321    38.413703 
167388000    287.15246    335.21494      481.651   -4089.1021    4071.3547   -146.43606    38.342425 
167392000    305.44922    404.78928    401.48368   -4087.8899    4079.1591    3.3056008    38.244342 
167396000    278.99683      439.841    375.84942   -4099.5218    4085.3798    63.991583    38.221007 
167400000    290.96894    499.11686    202.48365   -4122.8493    4113.6707     296.6332    38.150536 
167404000    261.72135    384.71635    323.32478   -4132.5995    4132.1718    61.391569    38.120981 
167408000     275.4302    483.77511    222.19978   -4140.4069     4130.209    261.57533    38.075092 
167412000    275.43721    534.32217    433.40316   -4144.9136     4146.521    100.91901     38.13302 
167416000    269.61007    305.21988    366.57841    -4148.358    4145.5459   -61.358533    38.116183 
167420000    278.85726    284.94542    401.47351   -4152.1957    4143.6107   -116.52809    38.127907 
167424000    276.39621    513.81422    262.68374   -4168.4743    4163.1629    251.13048    38.161871 
167428000    275.41708    330.64201    244.85132   -4176.7929    4167.1533    85.790688    38.161707 
167432000    287.09317    199.98482    179.95062   -4185.1913    4181.1259    20.034198    38.171366 
167436000      268.713    273.06914    211.32988   -4193.4513    4188.7782    61.739262    38.138005 
167440000    272.42783    170.85454    248.05085   -4187.8789    4186.3141   -77.196305    38.145969 
167444000     255.4088    236.39323    287.79979    -4201.204    4195.9686   -51.406554    38.189712 
167448000    290.37334     261.9874    381.97844   -4222.2914    4210.2941   -119.99105    38.212883 
167452000    289.03447     479.0659    398.29428   -4215.8855    4219.2588    80.771616    38.293866 
167456000    252.32286    306.73681    323.85426    -4221.637    4243.2596   -17.117447    38.306852 
167460000    276.42155    431.36449    201.88059   -4216.6204    4225.9854    229.48391    38.340622 
167464000    298.53872    432.95944    329.52126   -4226.7433    4209.4954    103.43818    38.373099 
167468000    268.15622    225.05813    281.12962   -4211.0382     4217.124   -56.071484    38.376824 
167472000    285.15183    303.13201    456.82356   -4240.7892    4229.1442   -153.69155    38.460276 
167476000    272.47785    259.98587    347.53959    -4247.669    4239.5457   -87.553712    38.393164 
167480000    280.41034    661.19805    385.74585   -4259.8984    4249.9834     275.4522    38.387051 
167484000     256.4766    510.09536    300.64791   -4260.0036    4247.2625    209.44744    38.336392 
167488000    299.52156    333.67716    250.96703    -4270.863     4248.095    82.710127    38.281758 
167492000    286.16243    329.33326    347.77365    -4259.188    4259.9389   -18.440385    38.258667 
167496000    277.27934    353.24806    486.59098   -4264.7796    4268.7287   -133.34292    38.225577 
167500000    274.01506     427.3994    363.27282    -4269.811    4272.5462    64.126581    38.254628 
167504000    252.14152    321.73062    343.76184   -4274.7198    4294.2806   -22.031214      38.2277 
167508000    279.17135    494.56812    305.88482   -4299.7416    4285.5813    188.68329     38.20165 
167512000    269.67586    254.43132     352.7586   -4287.8311     4275.338   -98.327278    38.236128 
167516000     267.2644    447.83134    233.78983   -4286.9462    4285.1804    214.04151    38.212635 
167520000    297.33941    271.44151    165.27918   -4275.5217    4251.0072    106.16233    38.213578 
167524000    263.17098     208.8579    425.80348   -4280.1939    4264.3956   -216.94557    38.203914 
167528000    262.56086    348.33831    260.41498   -4289.9807    4272.2577    87.923328    38.164581 
167532000    289.90405    496.13465    307.21139   -4283.6375    4271.8562    188.92326    38.241615 
167536000    260.01917    412.40694    257.66817   -4271.5781    4286.0087    154.73877    38.299989 
167540000    276.64366    391.48896     274.6966    -4285.936    4278.4693    116.79236    38.285149 
167544000    245.24615    285.57701    395.52015   -4268.6129    4263.7077   -109.94314    38.313954 
167548000    275.08515     363.4618    384.41512   -4283.6166     4267.904   -20.953325    38.312212 
167552000     287.6238    691.23103    338.23204   -4285.2121    4277.1864    352.99899    38.353933 
167556000    269.24232    393.76801    275.70532    -4275.636    4280.8296    118.06268     38.38275 
167560000    281.98703    359.56374    290.51519   -4280.2811    4276.2807    69.048555     38.42695 
167564000    300.42181    490.91951    270.91945   -4306.1244    4295.7264    220.00006    38.390878 
167568000    282.83358    469.90765    274.62486   -4307.8454    4299.6882    195.28278    38.387514 
167572000    247.83776    386.44492    306.88715    -4298.583    4304.6355    79.557771    38.396602 
167576000    298.13964    476.03832    415.59908    -4333.522    4316.2707    60.439231    38.424676 
167580000    285.17686    364.65322    324.26401   -4340.4528    4317.0818     40.38921    38.480932 
167584000     303.4918    390.87653    190.98971   -4354.4182     4328.422    199.88682     38.54371 
167588000     318.1954    532.04521    327.61058   -4354.5426    4318.3982    204.43463    38.553647 
167592000    284.42083    328.89871    295.07968   -4357.2386    4334.2225    33.819023    38.500872 
167596000    308.08245    353.55528     379.7358   -4372.2085    4343.9595   -26.180524    38.529755 
167600000    246.93516    331.12216    380.03803   -4345.9134    4354.0898   -48.915873    38.481894 
167604000    268.19744    334.23183    250.60221   -4357.3906    4348.7542    83.629615    38.507766 
167608000    290.45514    628.15385    246.13005   -4353.0989    4361.2583    382.02381    38.558094 
167612000    258.94172    368.16379    365.98309   -4365.4014    4369.0889    2.1807005    38.583285 
167616000     277.9055    169.44537    262.01435   -4385.5135    4364.5221    -92.56898    38.597846 
167620000    279.03785    290.75565     483.7606   -4375.9251    4377.0961   -193.00494    38.551119 
167624000    287.38144    370.77648    200.23273   -4390.7999    4381.0759    170.54375    38.533118 
167628000    298.71474    441.84117    406.11528   -4398.3312    4386.7164    35.725893    38.472494 
167632000    288.41289    480.29151    363.05945    -4401.381     4388.277    117.23206    38.516188 
167636000    267.33556    449.84358    399.59528   -4414.9116    4403.8432      50.2483    38.471862 
167640000    330.21811    316.74726     223.0977   -4452.3843    4403.7835    93.649556    38.491416 
167644000    300.39697    347.45231    166.64352   -4447.4664    4423.0987    180.80879    38.495082 
167648000    274.24179    438.52837    182.32841   -4459.8416    4438.4462    256.19996     38.47468 
167652000    269.16727     294.7284    411.25312   -4473.4049    4455.3874   -116.52472    38.423469 
167656000    275.34966    332.09344    320.63322   -4468.7303    4455.4818    11.460227    38.463037 
167660000    296.82456    275.22893    589.60621   -4463.4417     4440.732   -314.37729    38.444542 
167664000    306.92927    347.70559    542.50804   -4467.9348    4457.4183   -194.80245    38.404981 
167668000    257.56809    320.67693    470.89287   -4460.9539    4458.1713   -150.21594     38.42246 
167672000    269.47981    359.79851    182.16669   -4470.3168    4485.5988    177.63182    38.402784 
167676000     263.3411    411.13465    318.01397   -4485.2788     4492.037    93.120675    38.454606 
167680000    248.83629     314.1643     128.4458   -4480.2492    4506.3298    185.71851    38.449364 
167684000    268.32456    318.18812    275.63675   -4494.5497    4511.3649    42.551373    38.446062 
167688000    260.91755    643.73568    170.42211   -4514.1345    4513.4514    473.31357    38.465986 
167692000    270.57473     880.8528    290.71697   -4519.1325    4514.0971    590.13583    38.534812 
167696000    282.97473    280.03496    215.26051   -4524.7155    4528.2638    64.774447    38.536714 
167700000    279.73016    189.60938    405.90684   -4543.7214    4524.3971   -216.29746    38.526268 
167704000    292.64146    190.74732    225.03394   -4545.0592    4533.9202   -34.286626    38.529448 
167708000    317.80143    579.99335    203.23341   -4570.0604     4544.199    376.75993     38.55157 
167712000    297.54042    295.74093      198.768   -4580.8359    4566.1447    96.972934    38.514002 
167716000    305.13725    254.36015    630.37497   -4589.4523    4559.4703   -376.01482    38.455082 
167720000     295.8162    494.33101    357.32151   -4610.2614     4584.398     137.0095    38.481219 
167724000    299.54133    311.25906    180.12131   -4607.9034    4601.2384    131.13775    38.476601 
167728000     263.8471    345.75502    184.72878     -4612.07    4617.6057    161.02625    38.481046 
167732000    282.77176    321.94589    362.08281   -4623.2887    4630.4445   -40.136924    38.466612 
167736000    264.25935    349.77759    207.80137   -4647.2652    4644.8073    141.97622    38.479508 
167740000    255.89995    230.39011    423.47996     -4647.95    4659.9527   -193.08985    38.483793 
167744000    286.50778    603.02991    583.31275   -4674.9517    4656.6956    19.717154    38.453542 
167748000     274.6337    253.14289    212.08525   -4669.3283    4661.8833    41.057638    38.483937 
167752000    286.17126    392.83709    301.14844   -4676.0789    4666.2762    91.688649    38.444079 
167756000    285.14584    452.26601    382.92695   -4665.6332    4667.4004    69.339062    38.395592 
167760000    292.44952    216.16255    313.18307   -4683.2827    4690.1116   -97.020524    38.434863 
167764000    280.92497    334.94152    395.31018   -4699.4792    4702.6118   -60.368666    38.415676 
167768000    277.22979    563.90988    436.52969   -4711.0972    4699.6716    127.38019    38.471764 
167772000    275.54101    240.81351    352.47734   -4718.0844    4719.1896   -111.66383    38.488852 
167776000    315.20379    442.73652    438.95322   -4737.1597    4726.0504    3.7833068     38.47886 
167780000    273.07119    527.11454    438.14391   -4750.0137     4736.983     88.97063    38.547987 
167784000    292.25351    227.29883    389.63562   -4765.0866    4748.7875   -162.33679    38.609026 
167788000    262.76779    389.02374    315.61337   -4776.0589    4768.3897    73.410369    38.589453 
167792000    304.45941    597.76258    231.64624   -4790.2409    4778.8634    366.11634     38.63848 
167796000    269.64881     350.5335    354.48437   -4782.4005    4787.0601   -3.9508711    38.637489 
167800000    280.68001    367.67658    474.41643   -4790.2404     4776.909   -106.73985     38.59752 
167804000    286.54897    432.07696    284.91257   -4791.6031    4790.4148    147.16439    38.608438 
167808000      256.795    353.73256    380.59687   -4793.4781    4783.6825   -26.864306    38.655802 
167812000    298.55588     442.4828    300.28545   -4809.4472    4783.2597    142.19735     38.69544 
167816000     269.6059    639.55842    335.11626   -4806.1396    4807.6601    304.44216     38.70902 
167820000    286.70358    289.34195    350.51045   -4809.0969    4794.2131   -61.168501    38.738595 
167824000    301.81719    259.94097    396.54788   -4817.1541    4800.7288   -136.60691    38.777396 
167828000    295.87518    303.22816    370.81832   -4820.3688    4801.6649   -67.590161    38.796696 
167832000    308.22082    517.94269    212.17177   -4834.0646    4810.8522    305.77092    38.809947 
167836000     285.7926    531.92645    629.84064   -4826.0909    4819.3621   -97.914191    38.771324 
167840000    264.32651    214.10588    315.96102   -4827.3539     4822.249   -101.85514    38.757452 
167844000    278.59185     336.6238    322.48441    -4846.522    4846.3013    14.139386    38.700125 
167848000    255.55042    261.74102    391.23452   -4837.0338    4842.3016   -129.49349    38.711355 
167852000    251.94712    280.39119    355.69305   -4831.8094    4845.5269   -75.301855    38.714015 
167856000    269.46315    410.53213    438.91437   -4833.8943    4854.2431   -28.382235    38.713013 
167860000    267.16951    232.33402    524.95063   -4846.9653    4842.1828   -292.61661     38.72634 
167864000    269.84155      341.556    301.94375   -4862.3696    4868.3142    39.612248    38.737343 
167868000    284.46188     420.9608    336.53877   -4869.1116     4863.102    84.422037    38.738679 
167872000    287.42721    326.52422    288.52114   -4878.1654     4873.549    38.003081    38.776685 
167876000    261.78619    418.98027    302.84841   -4875.4172    4864.6196    116.13186    38.806503 
167880000    293.77352    545.21923    352.30861   -4889.3826    4876.6679    192.91062    38.828981 
167884000    287.17184    458.01743    346.50008   -4894.4054    4876.2476    111.51735    38.814531 
167888000    285.52634    306.74415    584.76907   -4896.1544    4870.1347   -278.02492    38.783064 
167892000    294.68877    417.42017    450.44506   -4914.1692    4880.5403   -33.024892    38.764492 
167896000    286.30695    394.37026    245.03891   -4920.7527    4915.0519    149.33135    38.770571 
167900000    297.60052    473.82745    320.25776   -4932.4352    4916.8669    153.56969    38.784033 
167904000    257.37168    213.55513    370.16935   -4916.3236    4929.9785   -156.61422    38.793502 
167908000    300.23198    236.33669    708.09638    -4931.719    4923.1803   -471.75968    38.773136 
167912000     263.9136    251.62849    333.02147   -4950.1519    4936.4018   -81.392984     38.74886 
167916000    291.47707     258.2137    442.55573   -4953.6619    4937.6202   -184.34203    38.817641 
167920000    302.66411    500.58853    136.67455   -4966.8724    4946.5581    363.91398    38.848448 
167924000    315.05885    472.10528    532.45783   -4968.8268    4953.9936   -60.352546    38.855378 
167928000    299.38398    447.59135    448.37419   -4985.9143    4970.1344   -0.7828459    38.875187 
167932000    308.09752    332.26578    352.96727   -4970.2185    4963.1773   -20.701497    38.852144 
167936000    267.98721    230.50306     236.7306   -4974.3187     4970.021   -6.2275376    38.825545 
167940000    283.26258     338.4257    264.90964    -4990.713     4980.971    73.516055     38.88679 
167944000    277.88405    190.76996    374.05553   -5009.2815    4998.3452   -183.28557    38.880681 
167948000    295.02938    339.18943    568.05305   -5011.9758    4994.1489   -228.86362      38.9043 
167952000    310.48599    265.15417    188.27217   -5039.7217    5003.8926    76.881998     38.91029 
167956000    289.15664      461.434    297.47535   -5059.1625    5029.3242    163.95865    38.930238 
167960000    287.23549    426.56481     319.7577     -5067.79    5041.9302    106.80711    38.941479 
167964000    282.30304    339.15911    261.43006    -5060.736    5045.1521     77.72905    38.925249 
167968000    307.11687    469.62954    408.74907   -5067.2981     5039.763    60.880475    38.919061 
167972000    273.12032    290.61149    287.98786   -5056.9521    5064.2613    2.6236293    38.876992 
167976000    260.30679     244.9625    314.19314   -5057.9281    5070.5297   -69.230641    38.839209 
167980000    258.75138    200.67846    391.79558   -5069.4304    5071.5267   -191.11711    38.845045 
167984000    277.60217    378.54875    456.60683   -5080.1401    5069.6578   -78.058082    38.824999 
167988000    255.84312    409.69533    178.74791   -5083.6988    5094.1302    230.94741    38.820841 
167992000    252.55019    682.79747    227.61816   -5093.7158    5093.1403    455.17931    38.852621 
167996000    293.07417     277.7715    305.88296   -5072.7865    5078.6873   -28.111453    38.845348 
168000000    277.42832    476.87247    297.35247   -5090.5036    5103.2705       179.52    38.862831 
168004000    284.85333    356.54402    211.29675   -5104.5534    5108.8011    145.24727    38.821201 
168008000    280.80451    350.68555    247.76024   -5109.5242     5102.197    102.92531    38.818157 
168012000    287.63508    484.56022    522.63895   -5108.0688    5109.0875   -38.078723    38.843306 
168016000    305.99872    432.03679     657.3478   -5128.3838    5110.5244     -225.311    38.831888 
168020000    277.28945    515.10576    493.71261   -5121.2435    5117.7143    21.393151    38.854196 
168024000    290.72702    353.37761    574.82249   -5121.7304    5122.9916   -221.44487    38.871461 
168028000    291.16332     274.6876    345.75373   -5127.3143    5136.7417   -71.066137    38.860683 
168032000    286.10338    326.39009    281.66617   -5130.5332    5139.1986     44.72392    38.874476 
168036000    275.08467    520.51371    345.74043   -5153.3311    5147.3773    174.77328    38.905596 
168040000    289.44908    405.60595    264.36268   -5150.7828    5136.1892    141.24327    38.902125 
168044000    270.38849      192.326     374.2647   -5162.0147    5167.5791   -181.93871    38.884702 
168048000    271.87753    241.87363    370.35067   -5157.5945    5174.0093   -128.47704    38.889713 
168052000    280.76972     330.2322    487.41651    -5198.568    5188.7346   -157.18431    38.866034 
168056000    287.72586    471.18749    459.47077   -5202.4879    5197.9127    11.716723    38.906796 
168060000    285.50842    487.39284    214.06689   -5207.8923    5199.3708    273.32595      38.8852 
168064000    312.81594    302.29306    498.47927   -5205.1133     5187.061   -196.18621    38.858657 
168068000    298.90996    274.51677    350.86454   -5227.7892    5185.1729   -76.347768    38.865656 
168072000    298.28514    417.85897    293.52522   -5217.5361    5199.4729    124.33375    38.916115 
168076000    262.00471     355.5032      277.736   -5206.7491    5217.4711    77.767203    38.925605 
168080000    273.73248    609.13757    349.10149   -5229.8587    5222.8373    260.03608    38.936721 
168084000    307.50126    503.38908    321.06021   -5252.2922    5232.2328    182.32886    38.952666 
168088000    259.66875    416.40208    234.12131   -5237.9132    5253.6239    182.28077    38.896007 
168092000    301.96187    407.27558    664.25617   -5242.3458    5250.1753   -256.98059    38.897585 
168096000    292.91376    368.29289    517.36352   -5258.4866    5250.0005   -149.07064    38.900308 
168100000    273.13496    449.42467    252.44508   -5267.9685    5262.3057    196.97959    38.901697 
168104000    289.57703    287.59565    338.68429   -5273.5201    5265.3338    -51.08864    38.860666 
168108000    272.06643    383.98017    262.92277   -5291.1032    5277.1861     121.0574    38.814722 
168112000    297.67958    346.31921    130.01885   -5305.8825    5276.5304    216.30035    38.803266 
168116000    296.04031    423.93729     538.8177    -5310.689    5287.9479   -114.88041    38.785742 
168120000    262.15717    253.86822    278.14706   -5296.3522    5299.6633   -24.278848    38.813164 
168124000    266.76502    267.38514    329.02185   -5296.7404    5304.6915   -61.636709    38.839951 
168128000    310.62356    303.85642    296.57717   -5328.8289    5285.7345    7.2792519    38.842105 
168132000    295.89683    636.70029    291.23773   -5326.0192    5332.1141    345.46256    38.840865 
168136000    280.62646    399.68238    295.44953   -5317.8258    5331.4454    104.23285    38.819148 
168140000    272.53186     371.9674    264.07336   -5330.8096    5329.1257    107.89404     38.86585 
168144000    293.78688     372.6541    649.20027   -5323.7146    5319.5605   -276.54617    38.869577 
168148000    287.00668     285.2672    243.57528   -5348.0769    5328.3787    41.691925    38.853465 
168152000    285.05807    244.32121    312.28767   -5353.2119    5347.7059   -67.966467    38.807557 
168156000    272.07208    454.13545    225.22939   -5350.6059     5363.329    228.90605    38.820299 
168160000     294.3504    368.03529    335.44175    -5360.512    5348.6896    32.593534    38.768584 
168164000    301.97359    325.87568      519.813   -5384.3351    5357.6165   -193.93732    38.721455 
168168000    297.51699    397.62786    246.51744   -5386.5648    5383.8904    151.11043    38.678661 
168172000    296.81172    417.75252    486.69801   -5400.0962    5382.6798   -68.945486    38.736068 
168176000      277.292     269.8564    285.06754   -5393.3776    5397.7922   -15.211145    38.741272 
168180000    299.55084    580.70659    331.54565   -5415.6186    5409.2029    249.16094    38.737619 
168184000    279.75128    378.54031    383.03191   -5425.5086    5418.2589   -4.4916034     38.77047 
168188000     310.2419    698.14727    293.67454   -5458.7756    5421.5396    404.47273    38.779103 
168192000     306.4793    253.04884    517.26648   -5454.6218     5426.163   -264.21764    38.792541 
168196000    306.91418    471.95446    361.78553   -5468.5086    5445.2945    110.16893    38.795461 
168200000    298.07055    159.39998    344.57258   -5478.0287     5445.983    -185.1726    38.821296 
168204000    283.09828    269.60098    259.96573   -5482.2031    5463.2787    9.6352506    38.859123 
168208000    301.50925    510.01547    313.27852   -5477.3676    5449.2783    196.73694    38.850402 
168212000     282.2471    427.44779    375.12776   -5455.9475    5450.3172    52.320031    38.862231 
168216000    283.23296    327.47798    239.39047   -5455.4433     5451.055     88.08751    38.822184 
168220000    290.61603    402.80689    239.51602   -5452.3376    5439.0588    163.29087    38.834335 
168224000    303.86321    389.77959    552.01678   -5458.5485    5448.6466   -162.23719    38.779574 
168228000     305.1308    390.55438    305.12084   -5483.7361    5463.4178    85.433536    38.793073 
168232000    292.54147    329.26427    326.85998   -5489.3049    5477.3658     2.404284    38.765517 
168236000     277.0336    277.56113    347.32612   -5496.3854    5486.6054   -69.764987    38.743876 
168240000    291.71639    344.97784    325.47259   -5500.7387    5496.1601    19.505254    38.701008 
168244000    282.94869    495.81252    435.45961   -5529.9821    5504.0181     60.35291    38.665108 
168248000     256.5338    442.33969    405.60907   -5516.7899    5514.1772    36.730623    38.656216 
168252000    272.42239    352.12604    324.44001   -5520.3746    5526.0761    27.686027    38.676236 
168256000    276.16225    344.85074    268.40593   -5522.3851    5520.4329    76.444814    38.700141 
168260000    296.27116    194.71292    367.10192   -5544.0852    5538.4715   -172.38901    38.716689 
168264000    302.52207    420.75659    327.53976   -5542.4009    5543.5573    93.216829    38.709839 
168268000    283.97126    256.51726      134.754   -5546.8784    5528.0845    121.76326     38.69192 
168272000    308.30342    210.93521    312.65086    -5537.539    5528.6248   -101.71565    38.730569 
168276000    278.64506    517.83652    444.29778   -5544.4304    5535.2106    73.538735    38.746989 
168280000    291.54581    447.75818     258.8552    -5540.623    5545.9755    188.90298    38.722403 
168284000    250.55435    344.54906    444.97065   -5549.3741    5552.9515   -100.42159    38.740653 
168288000    308.01081    448.26612    290.00048   -5569.2924    5548.0843    158.26564    38.725292 
168292000    269.55044    176.35343    376.27433    -5547.906    5559.2726   -199.92091    38.726662 
168296000    310.98864    205.71771     539.9867   -5570.8096    5530.4021   -334.26899    38.724706 
168300000    318.26199    535.89505    424.70805   -5563.3519    5528.7485      111.187    38.688658 
168304000    292.49763    418.96693     405.2847   -5561.6848    5546.9894    13.682228    38.705417 
168308000    290.12037    249.59861    212.22288   -5582.9657    5568.0418    37.375722    38.724295 
168312000    261.17363    182.49537    345.64746   -5585.2872    5590.6837    -163.1521    38.722976 
168316000    280.57859    509.34002    488.70732   -5604.6244    5600.2663      20.6327    38.777087 
168320000    303.18901    505.42386    279.98371   -5624.2496     5611.726    225.44015    38.754415 
168324000    303.22943    581.06244    457.84524   -5632.7896    5626.3434     123.2172    38.767046 
168328000    303.05174     404.8882    193.78176   -5636.6633     5628.552    211.10644    38.750521 
168332000    310.90907    258.86358    431.05221   -5632.0313    5609.9887   -172.18863    38.773826 
168336000     309.0685    509.38313    390.49526   -5636.7877    5603.9395    118.88787    38.785683 
168340000    299.11609    460.50005    526.08576   -5648.1244    5621.2061   -65.585714    38.775006 
168344000     305.6783    457.64539     514.4602   -5659.7895    5644.7186   -56.814811    38.821163 
168348000    271.08079    362.63383    166.89903   -5658.5072    5660.1617    195.73479    38.840011 
168352000    254.56506    285.57226    435.79679   -5642.4818    5656.2808   -150.22453    38.832871 
168356000     268.1482    277.28493    353.73141   -5652.6855    5664.1928   -76.446479    38.821423 
168360000    274.28804     425.0805    340.39899   -5659.1907    5657.6077    84.681512    38.865075 
168364000    272.75802    392.88695    270.37646    -5673.577    5663.4407    122.51049    38.830725 
168368000    277.64873    301.75841    335.78532    -5676.671    5673.8905   -34.026905    38.786118 
168372000    280.09492    316.99662    291.33634   -5675.1488    5679.2396    25.660272     38.80088 
168376000    268.22075    321.59071    331.31713   -5670.4228    5680.8389   -9.7264204    38.796155 
168380000    292.48896    343.19673    246.43583   -5668.6765    5661.5853    96.760896    38.791201 
168384000    311.72473    372.10488    271.15049   -5663.7368    5653.9426    100.95439    38.818573 
168388000    272.48583    392.85048    329.60965   -5670.5441    5653.3441    63.240828    38.816048 
168392000    258.68206    403.83426      267.526   -5679.0534    5691.3038    136.30826    38.860614 
168396000    294.75294    421.43762    424.41595   -5670.4891    5662.7805   -2.9783227    38.846011 
168400000    298.72141    329.45394    333.96887   -5683.2028    5657.8327   -4.5149344    38.860794 
168404000     318.7539    305.65332    216.96721   -5687.3874    5665.5332     88.68611    38.839963 
168408000    306.20672    516.89678    465.32932   -5682.9427    5671.5739    51.567461    38.813698 
168412000    297.23348    422.82545    409.43976   -5692.7519    5678.0412    13.385696     38.82703 
168416000    287.91953    327.58458    437.84062   -5704.4257    5700.7394   -110.25604    38.818786 
168420000    330.09172    322.69026    456.20887   -5718.8911    5687.0961   -133.51861    38.823867 
168424000    274.66895    220.37714    217.84789   -5699.0124    5699.5052    2.5292456    38.845832 
168428000    285.85862    450.07575    355.27488   -5712.6944    5705.8051    94.800865     38.86344 
168432000     273.6268    416.27363    378.60389   -5700.0955    5691.7312    37.669746    38.879529 
168436000    281.61514    604.30914    554.84174   -5699.8037    5696.9678    49.467399    38.839112 
168440000    301.91459    363.39571    194.23426   -5701.7829     5700.243    169.16144    38.818502 
168444000    296.77674    114.68726    463.69824   -5715.7381    5709.0862   -349.01098    38.785244 
168448000    261.60586    281.72143    183.10983   -5720.6018    5726.4318    98.611605    38.780524 
168452000    290.57912    460.70396    351.65478   -5745.9739    5742.8887    109.04918    38.727476 
168456000    276.89475    246.47452    419.74297   -5736.7228    5755.9015   -173.26846    38.757226 
168460000    287.32808    467.83334    457.48326   -5756.5343    5753.5017    10.350081    38.750178 
168464000     291.6533    322.34141    347.86969   -5763.8856    5779.6163   -25.528278     38.74865 
168468000    247.22737    182.75371    341.00822   -5791.5751      5807.48   -158.25451    38.744238 
168472000     266.6621    327.13786    345.35963   -5800.0708    5797.6628   -18.221772    38.785287 
168476000     294.9777    260.94841    272.11414   -5800.2318    5802.2119   -11.165732    38.839176 
168480000     324.6521    387.37077     427.8561   -5828.7393    5795.0159   -40.485328    38.870939 
168484000    254.60261    411.98658    259.58695   -5830.9668    5825.7701    152.39964    38.914839 
168488000    283.45977    313.94446    169.77683   -5847.6042    5852.8751    144.16763    38.892928 
168492000    258.09334    384.13721    333.89856    -5846.987    5870.9278    50.238654    38.853661 
168496000    281.30426    217.62612    275.00148   -5883.5867    5889.4744   -57.375361    38.892112 
168500000    288.39689    642.97617    303.43963   -5894.7272      5878.91    339.53654    38.946558 
168504000     269.1748    128.21785    427.40599   -5882.3679    5885.2512   -299.18815    38.892118 
168508000    278.74857     467.5134    239.18167   -5896.2422    5889.7161    228.33172    38.905332 
168512000    278.10696    527.38592    308.33844   -5917.7835     5906.877    219.04748    38.902057 
168516000    278.90251    398.28899    177.88762   -5925.5267     5909.201    220.40137    38.853719 
168520000    284.76979    167.71403    277.36078   -5950.0921    5919.6687   -109.64675    38.803004 
168524000    288.71535    218.27132    256.91479   -5958.0107    5951.0135   -38.643469    38.819125 
168528000    272.97643    426.34124    256.33507   -5955.2399    5965.4295    170.00617     38.82173 
168532000    306.85912    554.14402    505.08055   -5977.8916    5957.3422    49.063472    38.851234 
168536000    265.46735    201.07394    399.50357   -5962.6003    5967.7794   -198.42963    38.832094 
168540000    275.64161    198.09289    306.67471   -5985.6222    5969.4027   -108.58182    38.822994 
168544000    279.58655    284.00907      301.428   -5992.6991    5988.9086   -17.418927    38.831412 
168548000    283.19925    331.40732    371.28356   -5995.1146    6008.8406   -39.876243    38.851414 
168552000    283.28081    527.66325    296.99662   -5996.6238    6014.1423    230.66663    38.876129 
168556000    283.30911     181.5215     307.8038   -6002.1403    6016.6177    -126.2823    38.834739 
168560000    297.45655    547.54991    323.56976   -6011.8608    6002.9861    223.98016    38.822023 
168564000    276.54112    314.18749     249.8152   -6035.3271    6024.6399    64.372286     38.80209 
168568000    267.68553    338.25684    258.11442   -6039.9147      6019.88     80.14242    38.778816 
168572000    295.33523    205.05821    174.65647   -6052.6682    6046.9753    30.401746    38.735153 
168576000    252.03399    344.24313    417.48501   -6043.5763    6064.5169   -73.241883    38.698394 
168580000    259.46194    374.42181    350.61899   -6055.4891    6059.2266    23.802827    38.664547 
168584000    256.84428    421.78101    357.16963   -6044.4374    6052.5721     64.61138    38.693722 
168588000    285.43267    422.85169    250.19108   -6055.6647    6065.6143    172.66062    38.748315 
168592000    296.47118    540.01669    259.68317   -6074.7575    6076.8115    280.33353    38.710086 
168596000    271.05064    374.93193    647.72649   -6068.3374    6074.8212   -272.79456    38.706839 
168600000    256.72379    344.75663    274.78876   -6071.4096    6088.5729    69.967877    38.719172 
168604000     271.4848    514.43905    282.48783    -6080.625     6094.082    231.95122     38.70108 
168608000    261.44957    379.99047    328.77793   -6094.3694    6096.6339     51.21254    38.686491 
168612000    262.57241    433.24945      315.303   -6099.6893    6105.1524    117.94645    38.634452 
168616000    288.31295     291.4352    565.83156   -6107.1835    6098.9094   -274.39636    38.615253 
168620000    255.81554    557.67598    317.82093   -6102.7616    6127.3643    239.85505    38.583893 
168624000    278.45262     370.7969    383.41667   -6132.2191      6131.47   -12.619768    38.600213 
168628000    266.49284    504.16394    236.25708     -6126.52    6148.3718    267.90686     38.64324 
168632000    301.40703    358.66166     201.3913   -6157.4104    6151.0818    157.27036    38.645194 
168636000     276.6842    277.08232    174.42384   -6178.9076    6160.8244    102.65848    38.669684 
168640000    273.22079    250.88777    303.07125   -6174.7258    6170.7416   -52.183475    38.658405 
168644000    273.36598    223.64863    353.95887   -6148.9967    6170.2596   -130.31024     38.68153 
168648000    276.21414    541.34344    293.50022   -6172.6091    6183.8856    247.84321    38.680055 
168652000    251.82618    278.61147    140.69562   -6181.5899    6203.7489    137.91586    38.689171 
168656000    266.76708    240.15994    385.06135   -6174.0559    6194.4091   -144.90141    38.678236 
168660000    256.37855    588.20802     268.2583   -6191.4266    6197.6133    319.94972    38.688813 
168664000    278.95658    459.97327    408.03979   -6187.1497    6192.8885    51.933484      38.6489 
168668000    295.40464    187.50967     188.9698   -6197.2354    6201.2599   -1.4601249    38.642544 
168672000    280.46527    308.71334    167.21357   -6198.7361    6202.0233    141.49977    38.623711 
168676000    300.27663    339.34008    304.13997   -6215.3423    6205.0795    35.200114    38.627839 
168680000    287.17361    342.76737    274.50988   -6205.2768    6203.6039    68.257494    38.663701 
168684000    314.08899     300.8865    406.39863   -6224.4244     6211.593   -105.51213    38.646229 
168688000    247.20961    492.92317    311.64059   -6230.3359    6229.4353    181.28258    38.623905 
168692000    317.82914    373.19476    220.40601   -6248.3987    6231.0901    152.78875    38.620202 
168696000    288.61178    434.03307    376.96515   -6267.8978    6251.5492    57.067922    38.630971 
168700000    283.83932    423.18425    264.79043   -6278.5527    6270.3265    158.39382    38.629856 
168704000    284.49365    457.60788    219.71743   -6287.2375       6273.9    237.89045    38.691408 
168708000    278.58765     352.7774    294.34891   -6293.2238    6300.0647     58.42849    38.667476 
168712000    280.21858    294.05808    258.60872   -6314.5794    6298.7011    35.449358    38.681139 
168716000    296.41262    365.34135    537.12276   -6324.5154    6312.0124   -171.78141     38.72219 
168720000     260.1434    559.55677    370.99343   -6326.0845    6328.4582    188.56334    38.721514 
168724000    281.49191    269.21311    423.24572   -6309.8573    6311.7924   -154.03261    38.755532 
168728000    259.37365    226.01653    152.75169   -6332.1229    6331.5425    73.264843    38.761575 
168732000    265.13745    245.82355    184.98663   -6324.5053    6347.9397    60.836918    38.754391 
168736000    273.40193    317.07188    555.09843   -6328.9433    6345.2431   -238.02655    38.697541 
168740000    270.20772    368.98207    349.34793   -6335.1731    6344.5274    19.634137    38.698194 
168744000    275.03484    258.54068    454.34778   -6350.4134    6339.7194    -195.8071    38.731014 
168748000    281.34558    408.31491    286.36371    -6348.204    6349.4144     121.9512    38.764481 
168752000    276.92507    472.57277    425.74559   -6341.7206     6346.494     46.82718    38.763756 
168756000    296.78076    398.59313    548.47699   -6355.5983    6339.1727   -149.88385    38.783716 
168760000    303.66226      355.531    234.63134   -6365.0522    6346.5916    120.89966     38.77897 
168764000    281.20224     411.7692     381.5125    -6367.496    6364.2829    30.256702    38.741282 
168768000    272.77789    199.86404    252.41294   -6369.6621    6359.3037   -52.548897    38.719141 
168772000    257.06882    340.50868    222.26243   -6385.7269     6393.864    118.24624     38.75901 
168776000     288.7455    610.47293     433.5967   -6393.2814    6386.0173    176.87623     38.81252 
168780000    270.36916    467.25604    324.05725   -6393.2945    6402.5813    143.19879    38.847889 
168784000    261.75645    181.55631    645.83235   -6396.7963    6410.6481   -464.27604    38.840893 
168788000    270.83627    449.26818    357.79739   -6402.0483    6408.3127    91.470796    38.797809 
168792000    275.91861    457.44994    289.51029   -6411.6884    6421.1453    167.93965    38.820803 
168796000     281.0214    462.48844    356.48688   -6431.6608    6427.7197    106.00157    38.842082 
168800000    280.63403    326.70645    358.54246   -6439.7866    6419.8947   -31.836008    38.828153 
168804000    305.85846    644.65451    214.17149   -6452.4699    6447.7943    430.48302    38.840029 
168808000    247.11042    248.75581    256.16679   -6445.6967    6456.5494    -7.410975    38.832918 
168812000    261.03537    304.59922    199.18937   -6449.6386     6455.896    105.40986    38.842164 
168816000    290.98737    480.33247     247.6791   -6457.8908    6460.2532    232.65337    38.842177 
168820000    287.15372    420.59049    265.58445   -6476.7492    6471.4664    155.00604     38.87279 
168824000    270.71533    333.38626    274.22395   -6483.1732    6479.9103     59.16231    38.900482 
168828000    285.26759    370.85457    489.57025   -6505.2675    6494.0936   -118.71568    38.895284 
168832000    282.57286    426.98045    438.07762   -6505.1458    6508.1562   -11.097167    38.899331 
168836000    313.84832     549.4038    233.04006   -6528.9496    6511.1374    316.36374    38.912681 
168840000    282.70106    544.24597    266.20884   -6542.2439    6532.8633    278.03713    38.940556 
168844000    282.18948    284.96203     353.1324   -6538.4026    6552.9504   -68.170369    38.922306 
168848000    292.59446    347.31266    532.12478   -6558.7153    6549.2399   -184.81212    38.921844 
168852000    294.26116    367.57563    451.63426   -6560.4917    6552.1569   -84.058633     38.92306 
168856000    273.39012     425.6451    208.95529   -6557.0484    6559.2467    216.68981    38.894092 
168860000    336.01508    331.28054    484.32373   -6579.0348    6554.4215   -153.04318    38.940207 
168864000    265.34333    396.20347    203.49798   -6582.2962    6575.5921    192.70549     38.96821 
168868000    274.23913    573.15941    426.38353   -6577.5666    6575.2934    146.77588     38.93418 
168872000    271.98126    293.11966     192.5349   -6571.7493    6576.1011    100.58476    38.912776 
168876000    257.71439      540.495     203.7889   -6574.0779    6585.8615     336.7061    38.952078 
168880000    246.43964     359.6494    161.50316   -6567.5071    6603.1733    198.14624    38.959779 
168884000    278.91372    291.68316    416.45815   -6587.8641    6594.1045   -124.77499    38.946399 
168888000    273.23093    298.64105    325.50812   -6600.5281     6614.322   -26.867065    38.920164 
168892000     264.9687    266.81963    303.51524   -6598.8566    6606.1885   -36.695612    38.944346 
168896000    267.61607    322.86266    289.04079   -6616.7115    6612.1064    33.821868    38.940298 
168900000    310.64729    423.92301    409.01524   -6620.9737    6613.2823    14.907774    38.924608 
168904000     290.2834     443.0598    298.26361   -6614.8102    6603.9316    144.79619    38.945398 
168908000    282.46987    314.26789    250.07846   -6622.3473    6619.3019     64.18943    38.977674 
168912000    295.77397    316.60851    358.82698   -6635.0204    6614.6872   -42.218472    39.034559 
168916000    266.54999    239.05195    320.28588   -6617.6027    6631.3644   -81.233928    39.006467 
168920000    308.63837    365.56766    486.15592   -6633.0827    6615.3783   -120.58826    38.970966 
168924000    264.02362    594.35139    220.57059   -6612.3914    6609.5219    373.78081    39.014593 
168928000    298.93356    281.37793    493.51866   -6633.2342    6615.0838   -212.14072    38.986372 
168932000    260.54432    255.67544    428.24695    -6604.646    6618.9588   -172.57151    38.971514 
168936000    281.24314    399.03392      624.115   -6607.2875    6626.7417   -225.08108    38.958421 
168940000    243.19802       248.27    321.59399   -6630.1506    6644.3346   -73.323993      38.9284 
168944000    292.19555    355.75516    283.89829   -6659.7608    6655.5688    71.856873    38.910203 
168948000    298.82006    187.01003     430.2104    -6671.322    6662.9545   -243.20036    38.905927 
168952000    276.32665    258.37746    231.42808   -6688.3323    6700.3484    26.949379    38.893062 
168956000    279.02883    336.59982    315.57764   -6697.9423     6691.893     21.02218    38.891463 
168960000    254.43294    312.53369    267.86719   -6694.0086    6705.5957    44.666503    38.835525 
168964000    265.22999    345.68517    380.08682   -6694.6461    6707.4274   -34.401647    38.862378 
168968000     293.3015    460.06869    344.89774   -6707.0776    6713.9227    115.17095    38.857471 
168972000     253.1456    343.79051    295.97919   -6701.8584    6720.0406    47.811327    38.834188 
168976000    291.73783    313.24675    509.50445   -6708.1898    6719.2688    -196.2577    38.834507 
168980000    255.57729    414.83178    190.22464   -6715.7618    6731.4324    224.60714    38.820911 
168984000    280.36716    223.08678    396.83519   -6730.0341    6727.7554   -173.74841    38.829928 
168988000    287.62566    366.34668    612.05907   -6738.2414    6728.7344    -245.7124    38.864245 
168992000    255.57335     452.5001    286.54762   -6719.9776    6737.0501    165.95248     38.85461 
168996000    245.05534    251.40812    177.98949   -6730.5598    6746.1913    73.418625    38.896039 
169000000    292.70175    330.81389    635.90685   -6744.9081    6742.4112   -305.09296    38.896099 
169004000    272.80135    343.76346    321.31759    -6753.393    6750.9981     22.44587    38.873029 
169008000    295.17769    634.69857    345.85394   -6771.6519    6768.7359    288.84463    38.905991 
169012000    302.73666    504.96136    272.92723   -6778.4534    6783.6309    232.03413    38.856453 
169016000    280.79496    282.24135    630.91033   -6784.9746     6796.455   -348.66898    38.909262 
169020000    271.30349    365.79399    363.77601   -6792.2016    6782.1072    2.0179805    38.878594 
169024000    259.30073    342.67311    325.08855   -6791.7811    6791.2026    17.584563    38.829824 
169028000    256.86576    270.22257    261.69793   -6810.6714    6810.4004    8.5246391    38.880683 
169032000    263.68176    441.25908    300.14956   -6826.5415    6825.8895    141.10952    38.855565 
169036000    267.46619    287.73219    505.91555   -6834.0477    6829.7406   -218.18336    38.896215 
169040000    269.44342    374.79564     373.5702   -6847.8857    6838.8373    1.2254337    38.899936 
169044000    252.33468    309.14192    348.20116    -6853.015     6852.649    -39.05924    38.879876 
169048000    301.45678    464.77357    392.69525   -6869.9702    6854.4755    72.078323    38.927125 
169052000    275.12338    194.60465    194.47094   -6857.0046     6862.452   0.13370673    38.912837 
169056000    266.02224    424.55457    399.90482   -6865.6975    6861.7972    24.649753     38.93069 
169060000    278.15746    134.25326    266.17462    -6868.287    6852.8987   -131.92136    38.889458 
169064000    273.09239    267.96728    559.27667   -6854.0394    6870.6738   -291.30939    38.906136 
169068000    306.31284    262.43488    285.48388   -6884.6845    6858.0798   -23.048998    38.941963 
169072000    297.31248    616.77159    549.52695   -6890.2329    6877.7856     67.24464    38.936046 
169076000    282.55501      202.749     286.2492   -6880.8344     6891.543   -83.500195    38.886602 
169080000      298.418    277.49156    372.45727   -6889.3139    6895.7847   -94.965703    38.876911 
169084000     268.1186    581.08434    273.18642    -6905.033    6920.0206    307.89792    38.833725 
169088000    260.41122    507.79318    398.61516   -6905.4046    6917.0733    109.17801    38.865603 
169092000    271.76309    246.47718     384.3086   -6918.4956    6937.9632   -137.83142    38.866873 
169096000    285.02785     392.1264    441.15987   -6937.7582    6930.0287   -49.033479    38.847348 
169100000    285.19509    288.37157    300.24935   -6950.7223    6934.6133   -11.877783    38.841533 
169104000    262.56976    375.14251    375.47837   -6953.8693     6962.859  -0.33586031    38.848085 
169108000    268.06615    466.29421     261.6872   -6954.3871    6963.0223    204.60701    38.823783 
169112000    277.15425     555.4425    360.27187   -6970.3449    6976.0462    195.17063     38.83397 
169116000    264.92885    413.90946    288.69372   -6963.1006    6982.0368    125.21574    38.833493 
169120000    282.09375     275.8139    343.99475   -6972.5644    6975.7362   -68.180849    38.812039 
169124000    286.92358    299.87591    499.59522    -6979.553    6969.2506   -199.71931    38.795945 
169128000    271.49889    360.32233    350.31847   -6973.5725    6982.1294    10.003861    38.856276 
169132000    264.66881    279.86763    161.85185   -6991.7455    7010.5151    118.01578    38.853995 
169136000    245.61272    421.69468    233.66786   -6990.7271    7015.9522    188.02683     38.83535 
169140000    276.22634    329.75071    326.39607   -7000.8499    7019.1116    3.3546391    38.822397 
169144000    279.58025    286.06339    349.16226   -7012.0749    7028.0382   -63.098876    38.787049 
169148000     328.9584    645.04262     352.0286   -7044.5065    7011.6203    293.01402    38.832369 
169152000    315.43893    325.05337    353.19274   -7040.9384    7017.1105    -28.13937    38.842983 
169156000    304.46161    361.25453    386.46424   -7040.0417    7040.5277   -25.209709     38.85596 
169160000    290.84353    372.54942    360.48347   -7048.5276    7032.8219    12.065953    38.842627 
169164000    291.16493    425.51709    416.41809   -7061.4199    7044.7211    9.0989982    38.819765 
169168000    268.12851    210.29759    222.75094   -7058.6509     7054.728   -12.453349    38.838115 
169172000    285.55656    337.02627    156.24069    -7065.409    7056.7922    180.78558    38.869144 
169176000     287.3855    297.24847    235.32235   -7072.7927    7066.9945    61.926123    38.880392 
169180000    281.19354    446.33901    262.63208   -7079.0966    7089.5235    183.70693     38.88621 
169184000    272.99278    390.41944    380.65757   -7089.7338    7081.6799    9.7618797    38.915785 
169188000    260.15573    276.09269    280.51816   -7087.8534    7083.4682   -4.4254772     38.94113 
169192000    290.52231     580.5879    297.57842   -7102.8658    7086.9471    283.00948    38.931304 
169196000    315.38774     564.1763    248.71028   -7111.6521    7090.8732    315.46602    38.921914 
169200000    298.60753    349.37212    534.37235   -7105.2352    7098.5806   -185.00023    38.893303 
169204000    296.28021     277.7491    439.58279   -7116.7737    7118.7727   -161.83368    38.916854 
169208000    265.50732    362.30988    409.01707   -7111.2169    7116.4529   -46.707189    38.945001 
169212000    264.92808    447.75655    270.80108    -7124.991    7134.4421    176.95547    38.968323 
169216000    258.17043    466.48315    211.91472    -7133.435    7153.0322    254.56842    38.980781 
169220000    260.80261    313.02344     208.4178   -7138.2116    7142.8931    104.60564    38.983893 
169224000    273.18013    302.46414    294.44427   -7144.3325    7149.0807    8.0198768    38.992721 
169228000    288.64757    512.41589    286.20756   -7161.1488    7165.0378    226.20833    38.963923 
169232000    262.66632    338.11839     206.7065   -7155.8928    7173.0224    131.41189    38.934054 
169236000    258.71005    349.35012    306.06276   -7154.9927    7162.0658    43.287357    38.933744 
169240000    271.37269    252.22601    462.23789    -7145.114     7152.737   -210.01188    38.904975 
169244000    258.35702    451.71777    388.29366    -7163.897    7167.4356    63.424112    38.940509 
169248000    289.68168    455.10849    306.58747   -7177.2939    7159.9146    148.52102    38.993724 
169252000    291.29449    624.11306    145.32011   -7178.0828    7150.9479    478.79295    38.987166 
169256000    295.97717    582.46973    305.84081   -7180.7236    7165.6566    276.62891    38.994119 
169260000    248.88279    321.05938    427.45764   -7167.8108    7174.8805   -106.39826    38.956451 
169264000    253.05833    534.04412     580.5477   -7181.2698    7183.1893   -46.503584    38.927145 
169268000     291.5496    453.28165     201.9687    -7205.435    7195.7559    251.31296    38.947432 
169272000    263.41193    262.86564    276.61604   -7209.7337    7209.4285   -13.750402    38.973176 
169276000    282.49537    422.69324    345.88313   -7225.8984     7217.896    76.810109    38.972685 
169280000    257.46131    297.61793    283.67456   -7240.3758    7233.8639    13.943372    38.945604 
169284000    277.44812      342.303    455.30451   -7244.9996    7252.0331   -113.00151    38.906167 
169288000    242.96809    331.13139    280.71037   -7251.4048    7269.3858     50.42102    38.921381 
169292000    270.22365    564.27824    284.98673   -7259.8393    7266.6058    279.29151    38.923464 
169296000     267.0574    339.45622    580.80899   -7277.2313    7274.6576   -241.35277    38.894459 
169300000    279.33984    602.52695    316.44832   -7278.4397    7283.8264    286.07863    38.864733 
169304000    279.01138    474.88079    316.90772   -7297.9067    7282.0616    157.97307    38.847792 
169308000    241.63181    288.88478    403.25012   -7268.5036    7296.0307   -114.36534    38.820766 
169312000    264.77076    364.34154    269.86807   -7274.3472    7293.5488    94.473466    38.798098 
169316000    287.40126    614.12972    277.25701   -7276.9054    7287.3944    336.87271    38.781018 
169320000    255.30756    311.19913     398.2923   -7287.1569     7285.794   -87.093173    38.801939 
169324000     236.5711    387.69639    463.74581   -7272.9802    7294.8008   -76.049421     38.78858 
169328000    249.82967    321.73312    340.67843   -7290.7372    7299.2954   -18.945316    38.785432 
169332000    248.54747    246.96043    226.77063   -7282.5921    7310.8055    20.189799    38.765868 
169336000    289.30735    306.95662    497.64712   -7321.3479     7312.516   -190.69051    38.710972 
169340000    283.58014    422.72146    127.04109   -7329.8059    7322.0167    295.68036    38.706664 
169344000    294.82246    475.20152    321.75073   -7341.4391    7321.2877    153.45079    38.704719 
169348000    299.39781    209.98735    311.79146    -7327.889    7308.2669   -101.80411     38.69953 
169352000    278.62601    403.98463    543.28385   -7325.4551    7312.5363   -139.29922     38.71982 
169356000    272.51212    579.97504    268.14661   -7328.2735    7317.8609    311.82843    38.784062 
169360000    288.31396    504.95531    304.41039   -7345.3637     7354.016    200.54493    38.816793 
169364000    281.18462    278.25486    544.51776   -7364.9201     7356.204   -266.26291    38.777146 
169368000    266.22394    443.94758    374.26711   -7364.3813    7374.9218    69.680468    38.757905 
169372000    256.80685    407.57485    275.53419   -7380.3961    7374.7881    132.04066    38.742268 
169376000    261.93872    738.61635    338.21609   -7372.9838    7396.9974    400.40026    38.780296 
169380000    295.83925    518.77779    343.57189   -7385.5032    7385.1381     175.2059     38.77966 
169384000    289.89582    438.63912    458.13781   -7387.6673    7381.9708   -19.498693    38.821625 
169388000     292.4018    455.84912    326.68202   -7405.5422    7398.2658    129.16709    38.827142 
169392000    292.56217    429.43855    407.53302   -7403.7716     7401.264    21.905533    38.838071 
169396000    279.00056    272.43963    329.18421   -7412.3787    7408.4022   -56.744578    38.844167 
169400000    244.40957    477.02845    335.20193   -7410.1826    7428.8216    141.82653    38.834994 
169404000    284.54827    148.91002    402.29276   -7422.5111     7421.869   -253.38274    38.879215 
169408000    301.57043    366.75588    190.37059   -7434.1059    7426.6708    176.38529    38.914334 
169412000    283.63248    355.14567    239.62023    -7443.759    7433.0979    115.52544    38.907194 
169416000    288.84307    263.37985    441.22069   -7449.2653    7431.8896   -177.84085    38.891005 
169420000    305.61906    380.24399    340.95432   -7457.5907    7446.1901    39.289669    38.901936 
169424000    269.76961    471.18778    230.85391   -7455.0495    7466.9744    240.33387    38.918803 
169428000    274.15589    432.04764    510.19283   -7444.8613    7454.9101   -78.145187    38.924515 
169432000    290.17013    402.88653    349.74392   -7457.5933    7451.8513    53.142609    38.939536 
169436000    258.96537    228.83229    325.42744   -7452.0884      7462.68   -96.595152    38.958745 
169440000    277.08736    513.17389    462.14823   -7467.3888    7464.1128    51.025666    38.942238 
169444000    267.03784    248.69916    175.19028   -7454.0064    7471.5113    73.508875    38.937711 
169448000    307.27096    360.69791    292.00562   -7475.2823    7464.4297    68.692293    38.900618 
169452000    262.67007    274.29336    367.66517   -7487.2804    7491.7732   -93.371818    38.910313 
169456000    254.05111    381.15788    387.66442   -7483.2145    7489.0517   -6.5065365    38.910134 
169460000    274.54265    381.69774    226.47556   -7487.6172    7490.7359    155.22218    38.917413 
169464000    282.40316    416.70129    408.08323   -7478.5295    7490.4137     8.618058    38.930389 
169468000    310.45117    607.30881     356.0665   -7503.7201    7494.5807    251.24231     38.92178 
169472000    270.51717    291.22453    206.71207   -7505.6559     7498.408    84.512466    38.924826 
169476000    266.25072     302.9154    305.25853   -7509.5434    7520.4892   -2.3431273     38.92026 
169480000    273.50348    366.88492    293.96045   -7514.6896    7523.6783    72.924464    38.886448 
169484000    275.50814     397.5424    172.41277   -7525.5765    7527.0181    225.12963    38.915205 
169488000    252.64076    310.58401    198.75344   -7522.8964    7544.6107    111.83057    38.917558 
169492000    265.53319    337.30687    453.33665   -7533.7731    7535.3362   -116.02978    38.949253 
169496000    276.20307    516.00471    349.59115   -7560.5575    7544.4311    166.41356    38.957109 
169500000    261.54562    306.88194    395.53387   -7560.4665    7559.4821   -88.651927     38.93903 
169504000    268.54746    245.51808    342.18201   -7574.4649    7576.5676   -96.663926    38.939044 
169508000    293.14974     467.1994    281.72409   -7593.0454    7597.8777    185.47531    38.941732 
169512000    285.76753    328.95509    420.92537    -7605.505    7606.4153   -91.970277    38.955762 
169516000    265.20071    716.47972    296.07516   -7608.8355      7624.27    420.40457      38.9557 
169520000    279.02509    192.36387    377.20033   -7607.1822    7630.6445   -184.83646    38.971558 
169524000    264.15062    227.38401    334.02429    -7626.563     7636.307   -106.64028    38.960369 
169528000    256.74033    326.72665    315.29293   -7636.0371    7645.7637    11.433724     38.94639 
169532000    281.81906    551.89667    349.69158   -7647.8155    7645.2183    202.20509       38.974 
169536000    236.56342    138.74924     340.7335    -7648.144    7665.4597   -201.98426    38.952035 
169540000    305.63844    267.10648    413.61276   -7650.1448    7652.4973   -146.50628    38.966418 
169544000    261.35763    243.74022    377.42277    -7636.558    7658.0868   -133.68255    38.990647 
169548000    280.11218    288.54285    361.79769   -7654.6366    7661.8162   -73.254842    38.901542 
169552000    293.42066     265.9126    463.44677   -7674.8261    7659.3921   -197.53417    38.873473 
169556000     278.7216    306.60007    316.72116   -7680.7159    7678.6605   -10.121093    38.861133 
169560000    261.66976     259.9387    345.77039   -7682.0994    7689.9834   -85.831691    38.884181 
169564000    260.08231    256.65389    176.60573   -7690.5259     7677.981    80.048156    38.867437 
169568000    338.12024    326.13279    524.52795    -7717.988    7680.0365   -198.39517    38.842929 
169572000    240.32258    383.45256    201.80381   -7696.5464    7694.8968    181.64876    38.839041 
169576000    281.43265    536.98941    454.91254   -7699.2332    7705.8017     82.07687    38.867892 
169580000    299.36937    552.05978    266.04812   -7715.6909    7709.2568    286.01166    38.866983 
169584000      255.351    490.62004    551.88002   -7721.9718    7731.1867   -61.259987      38.8775 
169588000    270.16242    415.16624    515.63186   -7724.7729    7739.9825   -100.46562    38.850988 
169592000    277.35541    374.43686    447.29527   -7739.4225    7728.6297   -72.858419     38.83652 
169596000    287.04621    769.61772    241.93341   -7742.6474    7747.5856    527.68431    38.839979 
169600000    269.92035      269.414    206.59489   -7745.5952    7744.8869    62.819113    38.868181 
169604000    261.72152    283.50575    188.27566   -7745.9837    7757.7575    95.230094    38.870733 
169608000    269.10932    354.86294    292.21377   -7752.5372    7763.9031    62.649165    38.908756 
169612000    261.54687    134.55031    246.85746   -7751.1522    7764.9241   -112.30715    38.865906 
169616000    257.89452    357.22625    249.46022   -7731.2232    7749.3331    107.76603    38.860425 
169620000    250.62678    431.45506    260.72266   -7730.3189    7753.3004     170.7324    38.854955 
169624000    281.20355    332.77045    310.16977   -7768.7422    7760.1526    22.600677    38.869206 
169628000    285.34002    262.50697    306.59368   -7780.4884     7767.417   -44.086703    38.836509 
169632000    290.94911    489.08729    500.41791   -7795.6662     7783.447   -11.330627    38.819611 
169636000    243.26585    386.59759    138.87426   -7775.2372    7789.6096    247.72332    38.843933 
169640000     297.0172    142.72082    623.19989    -7777.468    7780.5534   -480.47908    38.828105 
169644000    279.42958    373.74166    314.80974   -7786.8825     7798.363    58.931925    38.794614 
169648000    247.77389    414.21983    264.71471   -7778.1576    7810.4662    149.50512    38.799129 
169652000     270.1027    399.91676    363.87657   -7796.0696    7794.5759    36.040189    38.818886 
169656000    288.27884    295.69676    526.66448   -7794.1269     7784.549   -230.96772    38.833577 
169660000    269.36084    219.53099     448.3919   -7798.2415    7801.2499   -228.86091    38.816563 
169664000    291.88939    441.56814    406.13828   -7803.2961    7808.4264    35.429862    38.808186 
169668000    254.43065     310.5173    205.28289   -7801.4109    7814.7891    105.23441    38.848711 
169672000    287.33708    491.62441    363.83687   -7831.1032    7811.6694    127.78754    38.809029 
169676000    290.16321    331.16351    233.70115   -7845.4009    7848.1616    97.462362    38.789289 
169680000    274.72793    290.66605    264.37249   -7851.3191    7849.5335    26.293562    38.807171 
169684000    293.00313    424.24102    654.79269   -7861.5677    7849.1361   -230.55167     38.80334 
169688000    288.44684    326.98805     328.7157   -7871.3827    7872.0617   -1.7276427    38.799401 
169692000    271.36214     355.0869    131.54979   -7892.1389    7887.1258    223.53711    38.807238 
169696000    306.11059     494.1888    360.52387   -7897.5281    7881.4268    133.66493    38.773958 
169700000    267.04016    360.37713    146.10817   -7904.5963    7897.8713    214.26896    38.809076 
169704000    297.32071    363.82635    547.78327   -7909.7708    7912.8379   -183.95692    38.810131 
169708000    292.72559    371.70735    304.49806   -7916.9522    7912.9374     67.20929    38.771689 
169712000    288.17068    556.75426    212.21895   -7940.1263    7926.1728    344.53531    38.773053 
169716000    272.44491    386.23131    327.39743   -7929.1736    7926.5647    58.833883    38.786055 
169720000     277.4827    310.65209    283.05434   -7945.6727    7953.3031    27.597747    38.756355 
169724000    306.75041    230.73736    568.56638   -7955.0234    7930.0995   -337.82903    38.778862 
169728000    280.36977    287.12606    275.95293    -7966.876    7961.6849    11.173124    38.809555 
169732000    292.28039    461.65011    519.27951    -7978.051    7967.3968   -57.629401    38.793625 
169736000    301.90254    351.76699    268.38881   -7989.3452    7970.3164    83.378175    38.786312 
169740000    283.94572    294.27465    353.75492   -7994.8226    7981.5884   -59.480272     38.77365 
169744000    269.69082    463.80832     349.0084   -7994.1186    8003.0984    114.79992    38.761197 
169748000    263.42333    534.69652     441.2993   -8008.1663    8032.1548    93.397224    38.752462 
169752000    249.99615    279.50409    202.36598   -8017.7512    8039.3789    77.138104    38.769203 
169756000    293.47162    287.22567    356.71165   -8033.0954    8034.9208    -69.48598    38.763608 
169760000    273.92868    375.77281    294.56352   -8025.7749    8039.6399    81.209286     38.72912 
169764000    293.87847    560.44981    352.00406   -8047.9448    8039.9808    208.44575    38.727578 
169768000    244.42217    384.94596    221.44946    -8040.184    8053.1902     163.4965     38.71988 
169772000    277.45851    478.69279    359.33053   -8061.8483    8055.4117    119.36226    38.745602 
169776000    278.93239    446.18441    366.28706    -8073.616    8072.5328    79.897356     38.72937 
169780000    281.16396    395.06821    290.26827   -8099.1406    8086.8035    104.79995    38.730831 
169784000    261.63748    383.81391    278.11596   -8091.6002    8084.9702    105.69796    38.749199 
169788000    266.12235    294.44994    291.76489   -8090.8852    8102.5448    2.6850586    38.727215 
169792000    291.82586    289.69617    450.70237   -8116.3656    8095.8619    -161.0062    38.714481 
169796000    283.17795    359.72809    538.00048   -8113.4981    8105.7296   -178.27239    38.710272 
169800000    264.27312    319.18777    212.61956   -8114.6532    8124.9301    106.56822    38.717862 
169804000    259.69254    208.26669    461.46679   -8099.4035    8119.1799    -253.2001    38.691137 
169808000    243.58055    269.92071    250.25292   -8109.4484    8115.1318    19.667789    38.616124 
169812000    317.80447    570.88843    344.34812   -8140.4204    8122.5719    226.54031    38.612112 
169816000    265.52139    345.10261    315.83355   -8124.3964    8134.3359    29.269059    38.620934 
169820000    289.43483    639.22308    474.34346   -8141.1016    8149.7642    164.87961    38.622693 
169824000    305.04072    465.53833     330.5841   -8164.9472     8148.763    134.95423    38.623772 
169828000    275.73562    331.02427    318.21924   -8156.0458    8159.8633    12.805025    38.601171 
169832000    268.34383    394.93628    397.95373   -8156.2473    8166.4202   -3.0174463    38.607648 
169836000    278.23415    637.33773    390.23199   -8181.7999    8186.1034    247.10574    38.640504 
169840000    264.89254    505.62931    333.48185   -8182.8875    8187.0561    172.14746    38.637132 
169844000    310.15684     452.9222    253.34818   -8200.2621    8190.5054    199.57402    38.653664 
169848000    293.27073    439.77889    260.16884    -8197.303    8198.6945    179.61005    38.667966 
169852000    307.90348    382.00672    251.31822   -8188.9153    8185.8938    130.68849    38.650307 
169856000    268.64627    383.74112    541.22229   -8182.8103    8193.6064   -157.48118    38.657795 
169860000     288.0408    311.02408    295.10912    -8197.079    8189.2344    15.914964    38.650942 
169864000    285.13762    302.91614    426.46762   -8219.7195    8198.7706   -123.55148    38.651885 
169868000    262.96108    483.07014    369.06563   -8208.8408    8208.2517    114.00451    38.635433 
169872000    269.65025    300.24848    424.80366   -8229.5501    8221.1596   -124.55518    38.678696 
169876000     297.7714    451.33409    276.99609   -8244.2413    8224.2564      174.338    38.682575 
169880000     284.8447     213.3505    286.66225   -8241.2793    8227.1011    -73.31175    38.705275 
169884000    280.27224    354.85724    329.94166   -8246.1016     8242.442    24.915574    38.693703 
169888000    289.22039    336.02986    365.25382   -8253.3824    8243.5987   -29.223956    38.686007 
169892000    278.28055    378.97254    259.13415   -8246.7429    8263.8284    119.83839    38.661954 
169896000    292.24556    466.21595    339.53372   -8261.2693     8255.265    126.68222    38.694628 
169900000    267.49786    247.81015    321.99402   -8260.1788    8278.7108   -74.183865    38.665856 
169904000    322.16614    637.17655    409.73855   -8291.2689    8264.6689      227.438    38.674974 
169908000    287.18358    484.12925    347.97026   -8283.9384    8286.0053    136.15899    38.659214 
169912000    306.28948    564.52435    307.05958   -8303.8067    8308.7592    257.46477    38.643366 
169916000    247.81832    431.77095    318.25776   -8311.0514    8321.7415    113.51319    38.628441 
169920000    281.96674     590.7012    637.80358   -8302.5494    8309.1695   -47.102384    38.626064 
169924000    278.11112    391.87554     395.6882   -8320.1874    8325.6499   -3.8126622    38.641501 
169928000    265.97197    321.82478    201.91792   -8323.0402    8334.9156    119.90686    38.632129 
169932000    271.38649    288.27157    411.88913   -8340.1385    8334.1443   -123.61756    38.635458 
169936000     322.1715    411.46584    246.92643   -8364.1725    8346.3159    164.53942    38.639678 
169940000    299.14805    521.12917     238.9216   -8366.2388    8364.7529    282.20757     38.66304 
169944000    287.33989     237.3713    438.30302   -8374.2791    8374.5752   -200.93172    38.626409 
169948000    286.96874    302.09337    296.41862   -8361.3872    8364.9334    5.6747562    38.593134 
169952000    247.51641    332.29533    451.07954   -8362.3786    8389.8411   -118.78421     38.58353 
169956000    263.51974    431.42771    202.56991   -8394.8169    8393.1089     228.8578    38.579754 
169960000    263.00789    615.06855    149.21271   -8404.2972    8407.4239    465.85584    38.605488 
169964000    299.66163    749.23236    268.12092   -8403.7254    8403.0673    481.11144    38.648009 
169968000    270.71147    265.88705    297.70038   -8410.1042    8406.3854   -31.813331    38.662056 
169972000    283.95072    688.21572    197.33131   -8395.5384     8409.972    490.88442    38.680869 
169976000    299.87815    570.46074    688.02765   -8395.3193    8406.8822   -117.56691    38.674697 
169980000    282.86386    427.52505    167.10397   -8401.4369     8411.342    260.42108     38.69565 
169984000    289.12002    410.55792    391.98527    -8413.976    8408.9389    18.572652    38.712741 
169988000    298.81247    135.88161    454.45649   -8435.1086    8415.2595   -318.57487    38.693775 
169992000    287.80905    333.56588    270.15973   -8443.8986    8432.5384     63.40615    38.715303 
169996000    263.64477    235.11022    350.71455   -8410.4407    8426.6702   -115.60433    38.672727 
170000000     298.4579    401.88008    332.46662   -8430.3087    8422.8354    69.413458     38.66398 
170004000    259.95904    231.73344    342.50078   -8419.4487    8441.3819   -110.76733    38.652018 
170008000    273.66422    236.61568      289.743   -8431.7514    8449.6131   -53.127318    38.650853 
170012000    274.84319    412.96349    234.31349   -8461.4638    8462.4243       178.65    38.667177 
170016000    278.80069    500.32458    395.87603   -8471.5015    8473.5643    104.44855    38.651671 
170020000     299.6564    263.44653    223.11845   -8488.6023    8481.3099    40.328087    38.640849 
170024000    276.61641    370.52421    292.39032    -8495.312    8484.1337    78.133886    38.700375 
170028000    260.86563    324.90424     308.0061   -8486.7178    8504.2164    16.898141    38.680187 
170032000    283.43034    588.65931    385.23654   -8501.1143    8506.8809    203.42276    38.693443 
170036000    291.80299    518.42913    315.41173   -8512.4864    8503.3025    203.01741    38.734381 
170040000    261.83842    293.32712    286.07639   -8493.3434    8514.6789    7.2507307    38.700488 
170044000    286.84178    340.98988    351.66267   -8521.7097    8503.3129   -10.672794    38.703168 
170048000    298.02506    389.83916    358.16765   -8520.8704    8512.9873    31.671515    38.726343 
170052000    276.80238    445.21586    308.96885    -8521.638    8528.4113    136.24701    38.715101 
170056000    258.44255    402.25371    355.30537   -8520.7676    8529.6166    46.948348    38.704297 
170060000    256.87226    371.73522    345.33291   -8531.5343     8550.698    26.402312    38.721674 
170064000    295.44593    326.64474    461.19959   -8552.7997    8522.6897   -134.55485    38.684754 
170068000    313.18188     738.1189    415.48951   -8561.4035    8521.7712    322.62939    38.647793 
170072000    306.37707     190.8413    407.96362   -8560.5316    8546.0765   -217.12232    38.669771 
170076000     281.0165    492.45146    473.40297   -8574.1335    8555.0128    19.048494    38.663464 
170080000    320.70234    299.36451    453.78202    -8568.038    8527.6393   -154.41751    38.657235 
170084000    296.67149    446.47322    452.51918   -8549.6245    8543.5622   -6.0459658    38.624745 
170088000    311.32002    475.26591     325.0652   -8555.1844    8543.6752    150.20071    38.662814 
170092000    302.57974    296.38356    374.96833    -8556.036    8543.0011   -78.584776    38.665099 
170096000    283.09795    461.91301    299.05142   -8559.8314     8547.768     162.8616    38.641652 
170100000    266.37156     268.2431    312.78196   -8549.4988    8553.0572   -44.538855    38.612429 
170104000     298.5717    324.36008     549.5316   -8562.6843    8553.3749   -225.17153    38.625788 
170108000    264.44673    427.40569    236.10972   -8558.5672    8550.7856    191.29597    38.598285 
170112000    275.71949    293.80586    242.79075   -8564.9387    8574.5363    51.015112    38.608688 
170116000     284.0986     342.4766    555.84444    -8587.644    8576.6134   -213.36783    38.597158 
170120000    303.12896    239.96951    307.68846   -8590.5271     8575.077   -67.718954    38.583575 
170124000    277.15851    493.19672    275.08997   -8586.1372    8589.3711    218.10675    38.619484 
170128000    234.50076    284.91871    275.03839    -8592.014    8598.5553    9.8803186    38.608464 
170132000    279.94032    235.83337    322.50063   -8606.2531    8617.6777   -86.667261    38.648487 
170136000    285.03659    573.06326    516.41066   -8629.3249    8629.2165    56.652599    38.656014 
170140000    276.09253    234.41145    370.89637   -8618.8612     8623.262   -136.48492    38.664515 
170144000    289.36531    292.96999    359.78832   -8641.3851    8636.5266   -66.818335    38.618628 
170148000    278.73841    442.80089    344.47322   -8646.3271    8644.3794    98.327662    38.644197 
170152000    267.91711    349.92856    236.65963    -8637.893    8649.5027    113.26893    38.662237 
170156000    273.46843    508.06723     364.3036   -8663.5339    8656.7398    143.76363    38.634629 
170160000    319.20066    411.48001    262.56502   -8679.7448    8670.2975    148.91499    38.661551 
170164000    283.53248    311.77651    171.74378    -8680.453    8677.9687    140.03272    38.625102 
170168000    263.93346    246.60745    380.25786   -8689.6681    8694.0757    -133.6504    38.622486 
170172000    313.18077    790.82581    307.85606   -8694.3708    8669.6388    482.96975    38.644951 
170176000    291.26668    304.96329    360.20221    -8685.841    8683.8711   -55.238913      38.6405 
170180000    275.93339    509.59138    321.29217    -8698.689    8687.4433    188.29921    38.603453 
170184000    284.15504    410.81223    455.34152   -8712.0518    8699.6498   -44.529289    38.552305 
170188000    299.14488    263.71866     405.9514   -8717.9017    8705.4642   -142.23274    38.537792 
170192000     281.1433    282.90636    296.44632    -8716.225    8726.6249   -13.539955    38.497619 
170196000    275.68528    406.17486    374.18326   -8736.9036      8742.01    31.991599    38.509871 
170200000    263.38601    466.12809    248.40946   -8730.5115    8733.7405    217.71863     38.52563 
170204000     254.6953    432.99268    365.19891   -8734.3151    8751.0885    67.793776    38.550717 
170208000    265.56035    407.78089    185.02939   -8745.4447    8749.2394    222.75149    38.544977 
170212000    251.23273    337.32818    242.64186   -8742.7628    8760.4187    94.686322    38.556457 
170216000     250.3759    352.69759    346.11096   -8754.4287    8770.8369    6.5866304    38.554034 
170220000    267.70461    493.33062    247.85445   -8762.6088    8782.5578    245.47617    38.537423 
170224000    281.11766    367.28003    424.32181   -8784.0939    8783.0139   -57.041774    38.558527 
170228000    281.95226    387.80489    303.55251   -8784.8688     8768.943    84.252377    38.590396 
170232000    276.00951    349.77144    172.28026   -8784.4994    8790.9421    177.49117    38.599724 
170236000    304.37701    339.77051    839.60806   -8782.7995    8788.9921   -499.83755     38.59904 
170240000    277.89087    395.67336    414.86338   -8805.0713    8802.8744   -19.190024    38.607018 
170244000    271.83607    638.32285    307.19612   -8811.1597     8812.751    331.12674     38.62235 
170248000      298.934    415.47418    408.69254   -8817.4059    8818.8806    6.7816351    38.643898 
170252000    298.31867     225.2644    242.71699   -8830.2903    8830.5991   -17.452585    38.621688 
170256000    271.34615    313.76542    153.41507   -8842.8965    8834.0761    160.35035    38.652914 
170260000    281.61158    420.44745    227.54689   -8839.9228    8835.2673    192.90056    38.699028 
170264000    304.65255    280.03178    511.40365   -8843.9707    8839.8708   -231.37187    38.672231 
170268000    273.10045    405.93903    331.50289   -8865.7676    8867.2196    74.436139    38.700285 
170272000    304.80499    419.67645    428.44811   -8881.3309    8859.7192   -8.7716673    38.705605 
170276000    310.22123    557.56459    330.96372   -8896.6536    8860.5204    226.60087    38.671693 
170280000    297.85993      532.387    174.76885   -8899.1851    8890.7244    357.61815    38.676862 
170284000    303.17219    459.47288    448.07919   -8909.3208     8905.771    11.393697    38.672505 
170288000    270.13375    290.47888    343.20971    -8905.605    8924.4974   -52.730824    38.667752 
170292000     281.9724    471.44164    361.13415   -8926.9198    8919.7651    110.30749    38.658272 
170296000    266.97517      405.331    288.79034   -8930.5262    8944.5382    116.54067    38.661644 
170300000     268.8207     237.7145     298.5344   -8931.4843     8939.033   -60.819897    38.652199 
170304000     274.1108    279.61756    602.07085   -8934.2951    8936.4423   -322.45329    38.593458 
170308000    276.15977    216.56242    410.18001   -8955.2233    8948.8923   -193.61759    38.633569 
170312000      271.242    336.90089    270.64492   -8977.0983    8960.3092    66.255976    38.624253 
170316000    290.33963     317.1085    304.51914   -8970.7602    8976.6479    12.589361    38.648307 
170320000     285.5688    296.80521    365.84652   -8996.3857    8977.4151    -69.04131     38.68468 
170324000    310.07374    311.53887    513.67752   -9009.6191    8982.5697   -202.13865    38.684389 
170328000    302.45497    451.07829    285.77167   -9014.2111     8996.403    165.30662    38.675839 
170332000    293.54389    487.90624    368.03654   -9007.6161    9000.0617     119.8697    38.651076 
170336000    298.27622    239.12121    490.47013   -9024.4787      8999.68   -251.34892    38.623912 
170340000    304.26685    440.02815    347.99369   -9035.7555    9016.6745    92.034464    38.614817 
170344000    282.48415    357.37011    352.47353   -9035.4573      9038.03    4.8965835     38.63869 
170348000    280.47723    576.93801    141.10454   -9052.4744    9049.4767    435.83347    38.642891 
170352000    271.10024      422.727    329.38406   -9052.4254    9048.8688     93.34294    38.675035 
170356000    273.35328    347.39255    372.57551   -9047.7147    9036.2884    -25.18296    38.656138 
170360000    297.15336    428.11912    91.663148   -9066.1846    9042.7784    336.45598    38.663064 
170364000    301.62869    260.43545    329.37917   -9056.7304    9030.9972   -68.943716     38.65286 
170368000    289.70281    410.19843    231.05336   -9044.7862    9041.8403    179.14507    38.659236 
170372000    292.83156    495.36318    417.68533   -9051.5939    9040.9304    77.677854    38.678947 
170376000    265.16441    430.24682    366.20561   -9051.7437    9055.3082    64.041205    38.669236 
170380000    297.90422    303.52525    455.78952   -9069.8477    9047.9379   -152.26427      38.7025 
170384000    295.72889    371.23504    510.89749    -9064.369    9041.5306   -139.66245    38.720538 
170388000    291.29809    414.56819    163.96051    -9070.039    9058.8624    250.60768    38.727619 
170392000     316.5127    254.06434      479.882   -9066.1448     9052.341   -225.81766    38.730226 
170396000    272.44729    342.25293    296.32113   -9067.2631    9074.5361      45.9318    38.742132 
170400000    256.70226    285.50064    252.30706    -9069.951    9085.4916    33.193577     38.71805 
170404000    267.10508    331.89915    268.35768   -9081.7384    9102.2886    63.541475    38.686933 
170408000    284.96721    292.29328    280.92412   -9085.5048    9100.0713    11.369156    38.693703 
170412000    280.58523    475.87643    362.03547   -9109.8316    9113.9979    113.84096    38.685876 
170416000    293.11208    441.65109    317.47752   -9145.2859    9115.0994    124.17357    38.674046 
170420000     311.4491    218.04744    271.31825   -9143.0538    9131.5352   -53.270816    38.673084 
170424000    291.68608    617.30701    293.02764    -9141.015     9131.999    324.27938    38.668278 
170428000    264.09222    401.24929    402.43453   -9118.1135    9126.5097   -1.1852407    38.698988 
170432000     286.6115    323.09664    569.35818   -9128.5388    9107.0488   -246.26154    38.688153 
170436000    322.20248    489.62537    417.67601   -9121.0815    9104.9622    71.949368    38.655007 
170440000    264.38202     280.1376    347.89768   -9127.8392    9122.0701   -67.760083    38.668533 
170444000    276.55904    425.00086    297.65313   -9134.9134    9127.7859    127.34773    38.649261 
170448000    303.47946    531.34437     375.3605   -9149.0849    9136.6757    155.98387    38.672126 
170452000    292.24409    489.84991    356.16513   -9148.3219    9144.0706    133.68478    38.639636 
170456000    280.70514    352.91854     312.7739   -9153.4407    9146.7857    40.144635    38.649894 
170460000    307.15801    144.47847    216.42113   -9168.8374    9152.1032   -71.942663    38.650819 
170464000    291.72054    573.71049    503.70058   -9172.3851    9155.6336    70.009908    38.673367 
170468000    275.83016    372.70891    381.66713   -9171.9067    9162.8554   -8.9582119    38.654496 
170472000    308.85893    451.13973    447.09403   -9180.0522    9165.2125       4.0457    38.675789 
170476000     323.9944     462.1866    486.25108   -9195.0664    9174.4472   -24.064479    38.690352 
170480000    293.58699    371.26743    348.62361   -9187.2262    9176.5762    22.643818    38.683616 
170484000    292.60268     576.0754    327.02993   -9197.0168     9186.397    249.04546    38.685602 
170488000     291.8308    338.85319    165.67366   -9200.1548    9178.0803    173.17953    38.714391 
170492000    311.25705    253.78877    577.32736   -9203.9788    9190.3557   -323.53859    38.704106 
170496000     289.5478    173.06924    342.30446   -9218.6852    9214.2513   -169.23522    38.707521 
170500000    298.80838    306.61809    404.82437   -9228.7599    9214.5958   -98.206287    38.682914 
170504000    297.50284    584.24221    256.13713   -9241.8753    9233.1818    328.10508    38.701199 
170508000    317.41099    436.66541    278.40163   -9250.1222    9227.1136    158.26378     38.71169 
170512000    294.03713    304.57885    272.88452    -9254.199    9249.3194    31.694328    38.704793 
170516000    273.87613    320.84773    198.36847   -9272.0628    9269.6473    122.47926    38.715219 
170520000    289.79671    332.26871    511.40425   -9292.3499    9258.0115   -179.13554    38.728988 
170524000    291.10251    293.25279    203.96959     -9280.63    9269.2516      89.2832    38.722453 
170528000    273.48845    509.69304    180.47357   -9295.9531    9292.3749    329.21947     38.73154 
170532000    283.68947    218.78043      310.138     -9288.88    9288.5019   -91.357565    38.729144 
170536000     285.1347     377.8135    489.91256   -9296.6943    9292.5075   -112.09907    38.709553 
170540000    272.50443    476.76673    314.61532   -9303.0284    9311.3637    162.15141    38.712409 
170544000    257.51863    555.50206    248.53924   -9308.1337    9327.7908    306.96282    38.741442 
170548000     273.2185    383.41437    268.56684    -9307.856    9306.5821    114.84753    38.752685 
170552000    284.83833    194.81332    447.23761   -9315.1285    9310.9998   -252.42429    38.749098 
170556000    293.43059    456.47248    383.78119   -9337.4645    9314.6949    72.691285    38.772918 
170560000    266.78196    228.89999     252.3473   -9343.5291    9331.6426   -23.447315    38.771043 
170564000    284.65805    433.67502    268.93329   -9340.8143    9342.0606    164.74173    38.806862 
170568000    291.10072    356.46031    387.78939    -9352.368    9349.7316   -31.329086    38.819526 
170572000    271.30473    235.79613    332.90262   -9364.6931    9370.4403   -97.106499    38.844461 
170576000    303.56299    387.75814    460.84096   -9392.3163    9373.3116   -73.082819    38.874246 
170580000    296.70163    372.84075    355.23937   -9397.4253    9385.3306     17.60138    38.857776 
170584000     269.4396    498.43921    240.21503   -9395.1485    9411.3974    258.22418    38.835036 
170588000    276.20019    509.80256    382.36057   -9402.0145    9415.3367      127.442    38.837949 
170592000    257.13999    203.88756    183.44465   -9410.0142    9439.9203    20.442917    38.849935 
170596000    274.73555    243.09757    289.52164   -9414.6972    9417.9444   -46.424063    38.823948 
170600000     282.3745    440.39418    291.32194   -9425.8869    9427.8729    149.07224    38.804089 
170604000    288.00147    315.98935    446.48455   -9424.6473    9422.9655    -130.4952    38.804554 
170608000    292.70624    533.94936    368.64275   -9432.3848    9426.6242    165.30661    38.798413 
170612000    289.56518     290.9095    358.87475   -9445.5996    9432.0222   -67.965246    38.766509 
170616000    315.93072    413.59145    261.98713   -9488.7147    9451.6981    151.60432     38.77008 
170620000    317.96432    528.28321     266.1885    -9497.534    9461.6546    262.09471    38.744002 
170624000    327.03246    591.51077    234.24421   -9498.7993    9463.1863    357.26656    38.730749 
170628000     268.1851    286.80273    245.94519   -9477.7457     9474.522    40.857546     38.72915 
170632000     261.9478    378.82629    179.03317   -9489.6353    9501.0915    199.79312    38.724219 
170636000    276.13705     386.3115    348.95834   -9499.6788    9491.3935    37.353159    38.717167 
170640000    272.05447    209.10931    231.19552   -9502.5923    9501.4647   -22.086209    38.750705 
170644000    296.55163    384.76426    462.25855   -9524.2548    9505.6422   -77.494285    38.748063 
170648000    286.66813     439.0394     402.1293   -9539.5349    9523.5167    36.910095    38.749003 
170652000    284.09196    443.37308    372.73283   -9549.6443    9544.5684    70.640248    38.750216 
170656000    261.54249    481.99855    310.21914   -9551.7392    9561.5006    171.77941    38.769246 
170660000    275.23929    432.19927    149.88977   -9562.6151    9588.2698     282.3095    38.776767 
170664000    289.56546    483.23183    463.21483   -9577.6995    9577.0181    20.017001    38.757681 
170668000    282.93208    291.85972    241.09208   -9586.9054    9597.7989    50.767641    38.747818 
170672000    287.24809    393.52115    356.03885   -9610.8968    9603.8182    37.482302    38.747457 
170676000    248.97671    290.97957    218.52357   -9587.0562    9616.4267    72.456005     38.74862 
170680000    287.67935    529.83268    162.64208   -9615.0748     9613.931     367.1906    38.767781 
170684000    282.83749    343.13166    305.52881   -9617.6372    9627.9047    37.602853     38.82749 
170688000    278.56426    330.17476    597.71059   -9627.2211    9629.7196   -267.53583     38.80848 
170692000     283.8351    240.99728    220.63423   -9633.2735    9630.5945    20.363043    38.813273 
170696000    268.09576    288.24992    241.20434   -9637.9414     9619.994    47.045579    38.823424 
170700000    298.86644    451.59349    262.37486    -9637.521    9626.4626    189.21863    38.819206 
170704000    272.88022     260.1095    374.32337   -9628.3508     9632.704   -114.21387     38.82907 
170708000    272.53757    300.18418     188.6463   -9637.9598    9636.9653    111.53788    38.823454 
170712000    284.28807     310.8075    397.67655    -9639.201    9639.7722   -86.869045    38.840245 
170716000    273.25769    226.63674    320.49613   -9644.8056    9648.2869   -93.859388    38.842279 
170720000    255.01532    209.57257     533.4834   -9654.1574    9667.4755   -323.91083    38.831566 
170724000    284.11126    408.29895    463.38005   -9694.0291    9671.2381   -55.081099    38.860974 
170728000    274.44038    423.72992    397.14557   -9683.8064    9682.3914    26.584343    38.857914 
170732000    291.82321    406.58696    204.49184   -9693.0117    9689.4392    202.09512    38.872492 
170736000    284.62044    503.62762    226.89017   -9701.4732    9695.8677    276.73745    38.911517 
170740000    280.96109    398.77129    387.69208   -9697.3289    9698.8908    11.079208    38.910677 
170744000    277.69288    346.35631     300.1932   -9703.7022    9704.6368    46.163107    38.897294 
170748000    326.17373     660.4253    586.78701   -9716.3947    9686.9892    73.638287    38.886937 
170752000    279.63641    448.01374    192.28612   -9717.0275    9708.3006    255.72761     38.89211 
170756000    284.51486    503.03115    262.88878   -9717.7033    9708.5186    240.14237    38.891232 
170760000    275.30012    319.19179    175.86396    -9750.246    9736.1343    143.32783    38.888014 
170764000     260.1168    356.03825    695.15467   -9729.6754    9747.0006   -339.11642    38.902015 
170768000    296.84799    319.92757    346.14927   -9754.3195    9755.0875   -26.221699    38.923162 
170772000    274.62832    365.76512    477.31832   -9772.7727    9765.2447    -111.5532    38.920683 
170776000    270.85457    356.80527    151.57063   -9775.3874    9807.1555    205.23464    38.885932 
170780000    272.31931    498.83995    263.57416     -9810.04    9806.2894    235.26579    38.874939 
170784000    282.58531    224.44915    288.24286   -9830.9485    9829.3992   -63.793709    38.872267 
170788000    307.67662    449.89955    417.08747   -9840.7598     9824.982    32.812083    38.900114 
170792000    264.26073    389.49845    267.92822   -9842.1925    9836.2468    121.57024    38.914091 
170796000    258.23241    345.85277    235.12397   -9852.6172    9850.1348     110.7288    38.918569 
170800000    277.49173    272.69112    345.39216   -9874.0362    9861.1998   -72.701035    38.904346 
170804000    317.80485     539.1498    394.46816   -9887.3195    9854.0577    144.68165    38.890126 
170808000    306.45444     308.9425    352.41178   -9884.0551    9867.9498   -43.469277    38.910473 
170812000    296.00369    357.40465    297.63199   -9885.4461    9867.6707    59.772662    38.894415 
170816000    255.22699    494.31624    223.10874   -9886.4523     9876.558     271.2075     38.88365 
170820000    282.21868     447.4668    508.67667   -9902.1936    9883.0757   -61.209875    38.862704 
170824000    305.50108    545.47094    491.75344   -9893.3761    9878.6461    53.717501    38.868115 
170828000    291.85688    309.29725    310.09156   -9910.3177    9905.2312  -0.79431117    38.869611 
170832000    266.44609    247.06344    382.74407   -9911.6208    9920.5893   -135.68062    38.873897 
170836000    263.18227    345.31138    202.29017   -9926.4209    9934.5234     143.0212    38.857092 
170840000    286.99253    423.11686    328.84553   -9928.6969    9927.3579    94.271329    38.830932 
170844000    284.81492     375.2507     199.5502    -9933.239    9940.5167    175.70049    38.837556 
170848000    300.39297    318.33893    270.77358   -9955.9617    9932.1086    47.565352    38.865326 
170852000    258.65214    639.33951     398.5794   -9952.1339    9955.6366     240.7601    38.856477 
170856000    272.43306    308.25991    420.09891    -9962.841     9960.471     -111.839    38.873317 
170860000    250.48083    390.93026    311.39403   -9963.8809    9970.4776     79.53623    38.874501 
170864000    275.85608    510.44197    168.91353   -9981.1108      9992.48    341.52844    38.884311 
170868000    261.56896    342.32134    346.80089   -9979.2765    9993.7669   -4.4795507    38.916483 
170872000    245.07537    303.97221    323.29439    -9979.787    9997.9079    -19.32218    38.916852 
170876000    258.22253    384.83406    374.63845   -9979.4518    10008.225    10.195613    38.897236 
170880000    242.89967    333.46925    203.66263   -9993.8694    10020.792    129.80662    38.880969 
170884000    280.43181    357.65071    269.90027     -10018.6    10024.749    87.750439     38.87702 
170888000    275.72453    452.45771    258.06071   -10017.913    10030.404    194.39701    38.897641 
170892000    298.25435     492.8627    438.27217   -10032.082    10023.213    54.590531    38.883836 
170896000    315.84108     484.2278    380.96833     -10057.4    10013.755    103.25947    38.887094 
170900000    286.29002    429.54466     424.9471   -10041.981    10036.697    4.5975595    38.874299 
170904000    271.43658     478.1256    543.39969   -10039.596    10050.096   -65.274093    38.859702 
170908000    280.14063    231.15913    289.88661   -10053.808    10048.111   -58.727487    38.860978 
170912000    303.79583    412.32936    282.41641   -10059.139    10043.337    129.91294    38.866466 
170916000    310.56528    495.52311    409.18948   -10069.639    10055.406    86.333628    38.885796 
170920000    315.70152    434.59214    476.18084   -10074.489    10067.656   -41.588705    38.888801 
170924000    293.98206     399.4855    213.44497   -10102.197    10067.737    186.04053    38.911371 
170928000    301.06848    317.04852    290.67892   -10100.603    10072.388    26.369597    38.903557 
170932000    274.00667    343.11957    246.61335   -10090.866    10089.423    96.506224     38.90128 
170936000    271.78216    222.51101    197.38757   -10097.276    10114.114    25.123439    38.889253 
170940000    294.92221    360.42036    319.53989   -10126.018     10134.27     40.88047    38.891262 
170944000    276.54687    171.96228    294.66461   -10122.807    10127.296   -122.70233    38.868859 
170948000    263.49972    456.85885    454.29294   -10124.956    10141.287    2.5659065    38.885349 
170952000    317.14244    435.03326      404.968   -10158.133    10140.494    30.065261    38.876143 
170956000    276.94632    253.49353    293.82898   -10142.066    10137.128    -40.33545    38.868144 
170960000    296.88299    211.27085    405.99862   -10146.606    10149.397   -194.72777    38.871962 
170964000    266.36511    342.85474    189.06136   -10167.679    10167.285    153.79338    38.815537 
170968000    291.13008    375.83299    718.63376   -10171.384    10167.474   -342.80077    38.794149 
170972000    267.86956     669.7454    298.21761   -10175.697    10178.035    371.52779    38.791168 
170976000    275.86744    383.52957    407.27141   -10186.941    10194.248   -23.741837    38.782095 
170980000    275.58982    386.55342    209.10408   -10193.885    10197.165    177.44934    38.784361 
170984000    272.41429    373.18923    366.15511   -10179.072    10189.172    7.0341215     38.81453 
170988000    270.28039    459.63297    420.84922   -10189.199    10188.158     38.78375    38.816827 
170992000    307.84779    254.31192    436.92248       -10196    10186.727   -182.61056    38.816187 
170996000    258.84334    374.68722     509.5358   -10195.659    10211.481   -134.84858    38.821806 
171000000    274.14686    317.08879    260.83305   -10212.409    10218.755    56.255744    38.788744 
171004000    254.88924     440.4714    327.42811   -10214.886    10220.889    113.04329      38.7834 
171008000    271.01561    323.99324    425.95609   -10218.949    10225.332   -101.96286     38.79871 
171012000    304.37153    241.06691    367.36157    -10235.82    10224.771   -126.29466    38.789099 
171016000    269.70902    388.71638    272.25191   -10245.208    10236.329    116.46447    38.766605 
171020000    298.02988    445.53189     410.5948   -10255.243    10233.686    34.937086    38.738506 
171024000    285.49639    321.35229    379.53586   -10252.157    10244.753   -58.183567    38.738545 
171028000    289.06086    529.37181    453.63345   -10266.856    10241.701    75.738352    38.765506 
171032000    293.15497    369.81257    314.87303   -10268.727    10259.469    54.939534    38.763209 
171036000    261.25965    477.05567    528.17479   -10273.508    10266.134    -51.11912    38.773109 
171040000    288.18579    646.38311    258.54943   -10277.434    10276.718    387.83368    38.756935 
171044000    263.70618    394.78629    310.68662   -10291.405    10296.784    84.099672    38.750493 
171048000     258.1594    521.41284     232.0202   -10293.073    10311.044    289.39265    38.752858 
171052000    291.64298    396.70959    456.08645   -10298.013    10313.451   -59.376858    38.750871 
171056000    272.84823    344.77413     141.1858   -10311.288    10330.615    203.58833    38.757288 
171060000    280.09191     369.1508    387.85318   -10316.577    10321.656   -18.702377    38.777827 
171064000    283.72458    629.13735    404.28734   -10312.896    10322.403    224.85001    38.816177 
171068000    245.20764    309.43682    266.65204   -10323.541    10350.226    42.784786    38.822414 
171072000    272.82509    582.65413    316.98934   -10339.588    10357.627    265.66479    38.824579 
171076000    297.28852     258.1811    350.71216   -10363.898    10362.578   -92.531061    38.834005 
171080000    257.32622    234.77343    214.30918   -10366.681     10369.56    20.464249    38.821537 
171084000    271.76147    389.33408    204.66155   -10369.989    10378.964    184.67253    38.818386 
171088000    285.43559    554.52759    316.51327     -10375.4    10377.662    238.01433    38.818266 
171092000    274.11655    206.37822    392.23175   -10372.303    10386.993   -185.85353    38.836264 
171096000    255.48732    392.98441    286.96116   -10377.653    10393.396    106.02325      38.8543 
171100000    271.45276    349.55955    194.21078   -10387.109    10406.272    155.34877     38.85249 
171104000    282.63222    235.75025     395.7836   -10410.891    10414.524   -160.03335    38.850753 
171108000    270.26828    478.82553    120.92129   -10430.212    10429.279    357.90424    38.833765 
171112000    276.98782    423.58727    260.60205   -10435.306    10427.167    162.98522     38.83868 
171116000    283.23258    363.44922    870.28366   -10466.188    10446.799   -506.83444    38.815553 
171120000    293.36045    391.67048    693.40658   -10481.329    10463.066    -301.7361    38.808566 
171124000    284.86707    312.02093    597.14145   -10493.743    10464.806   -285.12052    38.805642 
171128000    288.10164     350.1448     269.3087   -10484.963    10480.474    80.836098    38.787621 
171132000    268.74817     445.4463    418.05249   -10480.376    10486.652    27.393808    38.779391 
171136000    303.45041    507.89281    301.06109   -10492.955    10482.445    206.83172    38.805599 
171140000    285.29698    384.17601    367.96219   -10493.868     10501.25     16.21382    38.771227 
171144000    262.97918    238.60776    159.93548   -10493.855    10500.147    78.672281    38.772445 
171148000    252.65355    240.14511    214.81808   -10494.013    10526.243    25.327032    38.765373 
171152000    265.78661    307.88211    264.62979   -10515.206    10509.435    43.252318    38.746255 
171156000    299.68854    382.48071    232.77859   -10525.436    10509.463    149.70211    38.723461 
171160000    286.85782     494.7232     204.5655   -10541.025    10527.948     290.1577    38.730983 
171164000    287.70453    230.75098    287.11571   -10543.758    10526.329   -56.364724     38.73875 
171168000     299.6724    408.93722    470.68115    -10543.56    10546.017    -61.74393    38.759715 
171172000    248.80739    426.80588    244.70465   -10527.595    10550.972    182.10123    38.746893 
171176000    310.39528     259.4536     370.7468    -10543.14    10510.348    -111.2932       38.747 
171180000    346.64006    186.47621     446.2925   -10549.473    10521.467   -259.81628    38.770006 
171184000    327.88348    582.25291    408.83227   -10560.086    10530.472    173.42064    38.785665 
171188000     294.7749    568.77219    198.24608   -10560.087    10544.863    370.52611    38.802461 
171192000    317.84554    325.19625    275.30507   -10575.035     10547.07    49.891181    38.813657 
171196000    298.42802    440.61739    353.81088   -10576.169     10568.08    86.806511    38.816725 
171200000    304.16062    386.76504    400.84809   -10576.643    10567.388   -14.083043    38.796235 
171204000    258.22076      377.437    153.70934   -10568.315    10571.705    223.72765    38.808047 
171208000    282.48448    406.21028    326.53419   -10574.546    10585.884    79.676085    38.806396 
171212000    295.25173    387.32946    424.67843   -10600.504    10571.728   -37.348971    38.792357 
171216000    259.60344    402.13063      267.097   -10581.394    10589.621    135.03363    38.801586 
171220000    284.08838    484.18853    309.21234   -10605.659    10596.781    174.97619    38.802416 
171224000    312.31497    766.10448    567.25429   -10609.535    10584.926    198.85018    38.831283 
171228000    288.34485     449.6015    423.50271    -10612.36    10611.218    26.098793    38.825837 
171232000    260.83133    479.34103    328.12459     -10601.2    10622.288    151.21645    38.837713 
171236000    295.14181    542.74097    499.08319   -10612.444    10617.877    43.657781    38.841026 
171240000     272.0242    354.20631    287.87263   -10601.817    10626.085    66.333675    38.833592 
171244000    274.43175    199.51329    228.18861   -10627.754    10626.558   -28.675317    38.823406 
171248000    301.79417    415.55379    261.56147   -10658.651    10639.995    153.99232    38.843788 
171252000    285.82534    415.48744    225.04307   -10658.549    10652.479    190.44437    38.822857 
171256000    258.86776    262.89227    300.28913   -10649.015    10669.969   -37.396853    38.838095 
171260000    311.08772    513.07127    403.39795   -10689.521    10674.471    109.67333    38.845848 
171264000    295.31405    407.76446     220.2723   -10680.022    10664.536    187.49217    38.830447 
171268000    254.77629    561.21322    480.36176   -10669.495    10686.593    80.851462    38.794688 
171272000    262.47609    427.64485    153.60833   -10685.406    10685.208    274.03652    38.769747 
171276000    291.63701      378.943    184.08899   -10688.454    10675.466    194.85401     38.75993 
171280000    261.02948    130.17049    188.41838   -10678.999    10689.213   -58.247894    38.776182 
171284000    277.23991    309.63345     249.0246   -10700.998    10684.414    60.608852    38.774186 
171288000     295.4007    348.55009    248.33521   -10722.512    10690.923    100.21489    38.778715 
171292000    269.40557     393.7993     220.7193    -10721.16    10717.996       173.08    38.755804 
171296000    259.15137     314.3219    206.83213   -10708.615    10720.851    107.48977    38.790487 
171300000    298.01182     588.8154    385.27543   -10729.301     10733.31    203.53996    38.786758 
171304000    285.20759     249.6472    317.86401   -10732.217    10731.897    -68.21681    38.799344 
171308000    274.30547    386.77127    352.93959   -10749.354    10744.844    33.831674    38.815379 
171312000    281.92871    251.25784    383.53427   -10755.198    10737.308   -132.27644    38.813045 
171316000     300.0823    547.70213    330.25615   -10765.724    10746.201    217.44598     38.79315 
171320000    293.55312    406.16945    257.75555   -10772.316    10768.926     148.4139    38.787106 
171324000     298.1788    507.77456    361.10594    -10784.74    10785.406    146.66862    38.790879 
171328000    274.43788    272.00912    276.02819   -10779.605    10775.433   -4.0190698    38.777002 
171332000    282.83139    422.54514    236.91341   -10775.383    10792.509    185.63173    38.789261 
171336000    288.34419    263.96623    290.92443   -10789.528    10778.141   -26.958199    38.808161 
171340000    267.90534    405.77806    422.15109   -10791.909    10786.804   -16.373027    38.809642 
171344000    270.11499     338.8676    409.39675   -10799.872    10792.007   -70.529144    38.768212 
171348000    265.21989    261.65055    494.31144   -10810.112    10802.038   -232.66088    38.746342 
171352000    315.43724    790.33451    382.10377   -10833.917    10821.601    408.23074    38.758731 
171356000    295.00567    294.32684    538.80589   -10843.805    10837.317   -244.47905    38.755155 
171360000    334.81088     380.5649    468.42816   -10852.131    10828.947   -87.863264    38.742909 
171364000    291.26256    277.63974    423.44594   -10865.585    10849.513    -145.8062    38.754594 
171368000    311.40345     624.2941    189.90218    -10870.96    10861.822    434.39192    38.754885 
171372000    274.11697    382.84178    289.20453   -10870.543    10877.152    93.637254    38.744746 
171376000    276.03198    486.83055    192.41285   -10883.789      10893.1    294.41769    38.756472 
171380000    315.54863    426.74288     380.3548   -10906.738    10900.999    46.388083    38.750772 
171384000    276.47085    359.10191     361.4545   -10903.628    10917.135   -2.3525929    38.734466 
171388000    282.29227    254.41853    196.81699   -10924.845    10917.755    57.601539    38.735255 
171392000    283.67091    308.25331    170.22014   -10935.162    10924.921    138.03317    38.731795 
171396000     294.2381    499.20908     256.3493   -10957.129     10940.64    242.85979    38.766861 
171400000    274.41321     420.6113    315.59153   -10972.805    10983.214    105.01977    38.747232 
171404000    267.63237    487.35698    401.68724   -10987.596    10992.333    85.669749    38.753043 
171408000    272.63455    705.86281    261.04506   -11000.068      10999.1    444.81775    38.765213 
171412000    303.35445    590.95681    298.36712   -11005.878    10992.252    292.58969    38.754512 
171416000    294.22236    515.58089    437.28987   -10991.327    10997.694    78.291023    38.753396 
171420000    314.80835     594.3572    290.73222   -11016.081    10990.553    303.62498    38.765691 
171424000    295.98212    368.05492    286.53414   -10993.382    10988.272    81.520782    38.722155 
171428000    264.04048    325.59418    279.82937   -10995.543    11002.175     45.76481    38.718165 
171432000    250.37668    128.00386    283.70952   -10997.763    11020.774   -155.70566    38.728276 
171436000    284.13644    302.72728    367.20317    -11018.77    11006.829   -64.475896    38.739022 
171440000    285.92209    334.29264    200.81926   -11009.278    11013.118    133.47338    38.767682 
171444000    276.00506    313.08727    333.66286   -10999.331    10998.361   -20.575598    38.760581 
171448000    309.39814    458.11781    296.68493   -11021.324    10999.304    161.43287    38.760514 
171452000    255.87307    587.96412    245.54762   -11015.692    11017.436     342.4165    38.785598 
171456000    281.33078    381.95708    337.94786   -11030.851    11023.037    44.009219    38.769652 
171460000    314.24818    324.88052    482.71709   -11055.532    11029.116   -157.83657    38.740758 
171464000    302.97571    321.13702    459.82536   -11047.757    11036.382   -138.68834     38.75821 
171468000     280.4693    387.58383    145.71061   -11066.548    11048.756    241.87322    38.767777 
171472000    283.68908    270.13988    158.99319   -11067.626    11053.106    111.14668    38.786768 
171476000     279.1807    289.99294     548.1112   -11076.785    11062.901   -258.11826    38.780441 
171480000    285.96189    278.92703    428.39376   -11068.937    11054.029   -149.46673    38.787989 
171484000    264.07327    263.10594    269.51131    -11066.44    11079.193   -6.4053728    38.802898 
171488000    297.14772    252.21581    430.36652   -11083.407    11078.338   -178.15072    38.803775 
171492000    298.51423    215.53756    262.34852   -11094.712    11074.038   -46.810966    38.797506 
171496000    306.83089    407.20612    276.55935   -11110.305    11089.578    130.64676    38.771925 
171500000    305.54982    444.48763    293.96675   -11118.539    11098.238    150.52088    38.766986 
171504000    261.84397    467.64822    370.30937   -11120.893    11124.897    97.338853    38.799502 
171508000    264.12438    349.80826    154.06688   -11125.496     11133.67    195.74138     38.79424 
171512000    275.17426    385.19523    323.03567   -11136.265    11133.265    62.159563    38.763884 
171516000    285.77415    422.98071    413.54559   -11128.861    11145.008    9.4351175    38.793363 
171520000    268.73162    269.70045    289.19363   -11131.187    11151.177   -19.493171    38.801703 
171524000    286.07243    300.01984    240.02725   -11156.892    11149.643    59.992591    38.805009 
171528000    316.08001    422.98714      456.304   -11182.706     11159.31   -33.316861     38.79929 
171532000    272.24344    290.73816    289.35621   -11177.293    11173.406    1.3819539    38.807649 
171536000    283.53432    401.92669    332.87053   -11202.874    11193.175    69.056166    38.789305 
171540000    287.70575    291.42651    318.47995    -11227.83    11195.058   -27.053435    38.786773 
171544000    295.35982    551.76927    304.88784   -11226.547    11223.855    246.88142    38.785998 
171548000    280.77367    460.70234    429.98416   -11233.211    11231.497    30.718188    38.782651 
171552000    263.58758    358.33142    158.72129   -11236.912    11241.456    199.61013    38.775182 
171556000    276.74837    323.07852    167.53496     -11255.9    11256.998    155.54357    38.793211 
171560000    305.99584    401.21787     287.2784   -11277.787    11247.762    113.93947    38.789815 
171564000    303.92243    231.74483     245.5215    -11280.86     11269.34   -13.776675    38.785757 
171568000    336.55489    358.22191    588.19285   -11292.177      11256.6   -229.97094    38.801655 
171572000    301.89821    400.77171    581.68975   -11295.736    11280.184   -180.91804    38.801168 
171576000    283.63268    273.33463    468.49823   -11300.408    11291.787   -195.16359    38.817091 
171580000    297.18996    282.66341    532.70122   -11306.362    11298.052   -250.03781     38.80896 
171584000    299.94311    441.45565     270.9118   -11318.555    11315.737    170.54385    38.811248 
171588000    296.95055    558.90644    358.29601   -11342.552    11329.022    200.61042    38.784809 
171592000     282.2687    170.81076    329.58961   -11361.569    11332.579   -158.77886    38.782964 
171596000      263.821    314.38314    381.84509   -11345.808     11337.65   -67.461957    38.782791 
171600000    298.53629    359.55941    332.28417   -11365.576    11328.553    27.275246    38.796912 
171604000    275.01856    289.21339    341.23386   -11363.799    11362.708   -52.020464     38.75253 
171608000    289.91179    302.57977    309.79928   -11387.221     11391.92   -7.2195121    38.773509 
171612000    283.52323     486.6424    390.81187   -11408.351    11401.992    95.830531    38.798073 
171616000    251.38415    286.95166    309.72108   -11380.818     11411.13   -22.769414     38.81809 
171620000    272.57017    335.90964    414.38911   -11402.288    11414.923   -78.479461    38.797511 
171624000    272.99224    278.20533    490.72083   -11421.956    11425.271   -212.51551    38.783122 
171628000    280.12856    315.68139    256.80976   -11413.106    11431.617    58.871625    38.778246 
171632000    258.86186    235.91015     337.2046   -11427.751    11429.992   -101.29446    38.765144 
171636000    304.48512    185.64873    439.07262   -11446.794    11425.094   -253.42389     38.78415 
171640000    295.51729    335.94713    331.79681    -11449.36    11446.025    4.1503163    38.764465 
171644000    256.05854    252.24341    249.27368    -11464.78    11475.032    2.9697289    38.766455 
171648000    278.31799    287.22155    341.98255   -11457.301      11463.1   -54.760994    38.774279 
171652000    274.45242    323.86559    346.42506   -11478.088    11476.337   -22.559477    38.774207 
171656000    284.13307    350.68232    397.28558   -11493.735    11490.152   -46.603263    38.790248 
171660000    251.69381    332.26429     413.4997   -11487.925    11490.776   -81.235404    38.787607 
171664000    277.13637    217.12015    413.78888   -11497.593    11505.549   -196.66873    38.815316 
171668000    272.76177    584.17001    255.79242   -11514.024     11515.06    328.37758    38.844062 
171672000    282.26973    370.88508    220.30617   -11520.198    11528.716    150.57891    38.836517 
171676000    255.59164    322.06787    227.96716   -11530.241    11540.269    94.100716    38.818682 
171680000    275.24693    378.11842    114.80296   -11534.844    11543.645    263.31546    38.817704 
171684000    276.44653    268.43515     257.5951   -11552.386    11546.788    10.840051    38.801279 
171688000    289.51759    445.96045    513.26208   -11544.418    11549.652   -67.301635    38.780283 
171692000     273.4194    321.36793    404.35114   -11555.772    11571.321    -82.98321    38.794504 
171696000    257.80232    415.25855    515.98885   -11562.529     11564.38    -100.7303    38.784605 
171700000    294.91585    187.42935    292.86446   -11572.759    11562.162   -105.43512    38.769931 
171704000    308.28734    560.22958    430.61471   -11590.423    11571.714    129.61487    38.746943 
171708000    256.52128    323.44847    364.89984   -11582.692    11593.503   -41.451379    38.721041 
171712000    297.90184    465.14579    192.30195   -11601.579    11596.353    272.84384    38.711639 
171716000    276.20703    433.02086    186.20858   -11594.953    11595.901    246.81228    38.726543 
171720000    267.94083    501.72282    416.84673   -11610.564    11595.091    84.876091    38.704782 
171724000    294.13306    404.03006    362.48772   -11615.346    11613.989    41.542342    38.718016 
171728000     281.6596    248.21354    498.73265   -11602.242    11616.876   -250.51911    38.727878 
171732000    282.96903    425.05162     418.7055   -11611.256    11624.574    6.3461208    38.727814 
171736000    273.83964    243.74307     569.6324   -11616.118    11622.594   -325.88933    38.728817 
171740000    279.77901    348.69442    293.95432   -11625.545    11633.371    54.740091    38.725509 
171744000    264.04851    193.01424     222.5581   -11629.452    11651.754   -29.543856    38.724403 
171748000     279.7665    227.20209    319.29623   -11642.955    11656.554   -92.094141    38.751783 
171752000    287.29549    186.07112    173.70409   -11651.558    11653.448    12.367028    38.760134 
171756000    311.10752    514.57929    684.70006   -11673.406     11647.97   -170.12077    38.747981 
171760000    316.70129    536.07291    631.76758   -11676.511    11652.759   -95.694671    38.764006 
171764000    308.43469    334.21771    384.28083   -11675.229    11668.553   -50.063122    38.776792 
171768000    284.87212    635.71407    360.66966   -11675.377    11687.558    275.04441    38.800677 
171772000    254.76495    397.41702    386.08556   -11676.085     11692.51    11.331461    38.820271 
171776000    281.21499    608.27104    214.72926   -11715.448    11711.305    393.54177    38.795035 
171780000    308.22041    249.96184    389.96117   -11719.764    11719.101   -139.99933    38.799558 
171784000    277.38582    399.84276    356.94995   -11750.339    11756.809    42.892811    38.814914 
171788000    280.93907    446.58744    95.837213   -11758.373    11766.989    350.75022    38.823159 
171792000    270.88673    486.65661    383.16454   -11772.834    11773.441    103.49207    38.835877 
171796000    280.92503    450.72955    289.96042   -11805.583    11789.566    160.76913    38.832781 
171800000    307.26723    194.20775    311.99571   -11796.112    11787.299   -117.78795    38.844949 
171804000    321.90963    444.59243    284.91816   -11819.077    11790.976    159.67427    38.862148 
171808000    287.31842    321.29349    282.61476   -11812.295    11806.199    38.678728    38.857614 
171812000    282.96429    460.60192    374.90777   -11815.134    11819.625    85.694151    38.869758 
171816000    321.76913    537.75181    492.09191   -11837.635    11818.907    45.659897    38.870946 
171820000    292.14474    380.36638    579.25853   -11831.954    11836.988   -198.89214    38.868315 
171824000    326.06601    351.25449    772.99254   -11876.115    11831.876   -421.73805    38.852775 
171828000    305.18571    295.67238    292.06134    -11852.95    11832.692    3.6110452    38.826689 
171832000    285.53798    271.65471    412.28452   -11870.969    11852.274    -140.6298    38.826627 
171836000    299.59709    208.32453    562.16109   -11860.132    11849.878   -353.83656    38.826092 
171840000    312.08082    409.70928    355.90212    -11897.78    11868.219    53.807164    38.826872 
171844000    305.09173    274.14953    422.46971   -11884.306    11889.905   -148.32018    38.844972 
171848000     271.7603    331.70306    271.29542   -11901.139    11903.351    60.407645    38.857248 
171852000    277.70664     467.8996      345.047   -11907.883    11900.782    122.85261    38.853991 
171856000    246.00801    225.85203    131.43896   -11906.719    11919.172    94.413069    38.845861 
171860000    293.75508    333.20019    394.06727    -11911.64    11911.984   -60.867084    38.836714 
171864000    286.39517    440.58945    283.26106   -11936.597    11925.209    157.32839    38.843553 
171868000    263.65464     402.6752    204.68302   -11937.565    11943.965    197.99218    38.832467 
171872000    276.98149    260.75828     444.7435    -11927.25    11938.498   -183.98522    38.825064 
171876000    303.86082     350.8068    286.24583   -11944.844    11952.035    64.560972    38.842339 
171880000    296.45503    270.74191    374.51844   -11984.457     11961.22   -103.77653     38.84397 
171884000    307.93421    238.04381    317.37878    -11990.26    11980.501   -79.334976    38.802835 
171888000    273.13098    264.03051    250.08378   -11989.125     11978.38    13.946732    38.805103 
171892000    315.18203    293.36809    440.31836   -11984.861    11980.717   -146.95027    38.781276 
171896000    298.38922    249.22676    213.98251   -11989.057    11979.426    35.244247    38.764514 
171900000    284.81933    106.21557    293.70823   -11985.256     11988.64   -187.49266    38.779029 
171904000    282.27052    361.78344     281.2103   -11985.661    11988.757    80.573143    38.757458 
171908000    257.61273    423.95925    349.07135   -11980.698    12000.626    74.887895     38.73388 
171912000    291.82919    188.87259    503.35675   -11985.212    11985.986   -314.48416    38.735635 
171916000    277.83162    535.28546     215.1183   -12005.715     12008.34    320.16715    38.721933 
171920000    290.63728    203.10318    114.31155   -12033.676    12013.959    88.791635    38.707138 
171924000    296.03293    261.16859    429.64322   -12048.342    12045.074   -168.47463    38.686274 
171928000    281.40996    377.96625    299.47807   -12054.611    12055.768    78.488175    38.680555 
171932000    276.40427    309.08386    187.14004   -12062.045    12060.943    121.94381    38.667678 
171936000    279.86523     272.1459    356.54682   -12066.749    12069.689   -84.400921    38.655807 
171940000    279.67134    328.72721    235.67997   -12073.696    12062.852    93.047238    38.660874 
171944000    264.42582    321.39907    217.36195   -12075.489    12078.071    104.03712    38.657029 
171948000    266.78201    523.84528    288.89531   -12085.561    12089.055    234.94997    38.620436 
171952000     309.1821    394.06942    403.06574   -12098.819    12092.409   -8.9963209    38.602904 
171956000    288.92852    263.88563    452.36063   -12097.765    12099.267     -188.475    38.585647 
171960000    272.42034    347.32181    387.02575   -12118.307    12117.856   -39.703933    38.604982 
171964000    289.36153    286.44125    444.76994   -12146.682    12122.657   -158.32869    38.608004 
171968000    263.36807     439.4721     215.8541   -12147.035    12139.807      223.618    38.607554 
171972000    287.92626    166.34786    573.45779   -12166.535    12154.713   -407.10992    38.628521 
171976000    241.20748    425.23693     103.1756   -12152.163    12177.411    322.06133    38.629562 
171980000    265.37794     340.2324    248.70242   -12166.573    12174.197    91.529982    38.597501 
171984000    286.44255    391.20629    439.18775   -12180.368    12179.831   -47.981462    38.580595 
171988000    266.52725    269.11442    271.30043    -12187.03    12209.636   -2.1860087    38.575706 
171992000    271.31294    503.19797    303.05889   -12192.425     12191.48    200.13908    38.564222 
171996000    272.82134    260.92872    424.50531   -12207.098    12192.941   -163.57658    38.562673 
172000000    317.63728    470.54981    493.46033   -12222.499    12202.186   -22.910517    38.559955 
172004000     272.0742    301.81674    262.95556   -12215.916    12208.287    38.861181     38.53721 
172008000    282.00286    158.65967    226.99371   -12220.234    12230.083   -68.334039    38.524698 
172012000    272.76476    339.72997    258.06714   -12234.092    12214.903    81.662831    38.532429 
172016000    270.76583    442.71806    305.56081   -12220.374    12221.833    137.15726    38.532053 
172020000    285.97693    337.60427    281.06166   -12222.057    12219.545    56.542603    38.515955 
172024000    264.05771    359.66376    230.27492   -12217.941    12222.854    129.38883    38.551934 
172028000    272.14502    365.36084    325.23289   -12220.845    12233.958    40.127945    38.543575 
172032000    265.94651    411.48266    291.87867   -12232.637    12235.892    119.60399    38.559604 
172036000    306.35504    535.40335    422.98457   -12254.653    12248.407    112.41878    38.549347 
172040000    299.87717    325.37613    418.05445   -12267.803    12246.526    -92.67833    38.536085 
172044000    278.54351    334.32284    318.70423   -12279.763    12268.327     15.61861    38.546141 
172048000    298.44936    504.22603    292.61469   -12278.835    12261.739    211.61134    38.549805 
172052000    274.49792    213.39115    363.48979   -12281.513    12284.962   -150.09864    38.532308 
172056000    308.78831    327.96632    361.62202   -12288.228    12293.331   -33.655695    38.533234 
172060000    308.31078    557.06845    534.17528   -12308.097    12304.079    22.893176    38.512323 
172064000    273.67449    448.34798    407.63306   -12303.408    12326.441    40.714923    38.491523 
172068000    293.76429    416.37281    339.87488    -12335.02    12312.221    76.497926    38.488898 
172072000    288.78184     315.3861    371.10803   -12327.501    12313.816    -55.72193    38.489511 
172076000    329.80917    272.87865    546.53505   -12326.972    12320.464    -273.6564    38.492477 
172080000    290.57622    389.98254    282.60342    -12344.32    12327.331    107.37913    38.507937 
172084000    257.08867    426.53494    271.11761   -12345.121    12350.389    155.41733    38.468705 
172088000    253.74853    247.63508    335.77978   -12319.332    12351.851   -88.144704    38.466106 
172092000    279.88274    254.67203    271.83018   -12358.645    12355.461   -17.158149    38.455147 
172096000    287.12527    417.36172    273.46174   -12389.632    12377.126    143.89998    38.450072 
172100000    288.75988    287.65183    168.42298   -12380.536      12368.4    119.22885    38.466414 
172104000     269.0457     280.3251    388.25284    -12368.66    12383.582   -107.92774    38.467507 
172108000    291.54636    640.77665    224.20056   -12370.582    12384.636    416.57609    38.469008 
172112000    255.85944    421.64088    212.54686   -12382.225    12406.593    209.09402    38.480021 
172116000    269.63504    334.52796    359.23964   -12391.376    12403.794   -24.711682    38.494299 
172120000    265.92743    491.92338    331.93372   -12407.032    12413.772    159.98965    38.505759 
172124000    279.75889    306.46916    297.78443   -12411.394    12406.251    8.6847293    38.491562 
172128000    315.69511    297.04671     302.1859   -12420.262    12406.323   -5.1391985    38.487538 
172132000    303.71579    322.64036    582.20133   -12442.736    12407.009   -259.56097    38.487039 
172136000    281.03913    492.14811    505.77201   -12432.945    12421.062   -13.623903    38.486987 
172140000    262.56822    310.28153    310.37034     -12421.5     12431.49 -0.088803548     38.48656 
172144000     265.7605    305.78622    403.47628   -12429.332    12436.075   -97.690057    38.484925 
172148000     300.9436    452.91238    204.42362   -12438.949    12440.226    248.48876    38.461058 
172152000    258.52675    409.54909    280.31457   -12430.196    12453.517    129.23452    38.476932 
172156000    269.96452    526.90628    261.97837   -12451.934    12466.942    264.92791    38.502215 
172160000    258.88499    223.51198    216.50019   -12452.704    12466.563    7.0117876    38.518914 
172164000    268.75851    231.87062    283.40114   -12467.279    12460.546   -51.530522    38.501129 
172168000    264.40775    352.04175    330.68164   -12449.991    12477.958    21.360116    38.491929 
172172000    273.57215    351.61098    322.48317   -12449.462    12464.976    29.127811    38.481292 
172176000    259.27558    377.78896    552.66561   -12474.684    12476.254   -174.87666    38.484583 
172180000    280.76021    260.21234    405.68258   -12494.915    12492.727   -145.47024    38.493205 
172184000    331.51759    372.39413    327.76847   -12513.544    12488.819    44.625663    38.494075 
172188000    273.72259    175.41805    413.28025   -12500.802    12498.918    -237.8622    38.479947 
172192000    280.31174     193.2914    365.99125   -12517.344    12502.494   -172.69985    38.483309 
172196000    308.19315    418.65351    367.13674   -12514.958    12502.792    51.516768    38.466375 
172200000    283.31815    341.44407    373.67635   -12508.859    12495.768   -32.232273    38.467185 
172204000     296.1678    351.15434    287.64823   -12508.291     12502.64    63.506109     38.45353 
172208000    319.34403    219.63845    224.55122   -12525.718     12507.36   -4.9127753    38.459428 
172212000     282.0517    292.11628    251.40336   -12526.942    12512.639    40.712918     38.48222 
172216000    268.12332    358.32719    421.17322   -12526.701    12525.559   -62.846035    38.489368 
172220000     288.8718    880.11872    310.74519   -12539.148    12546.686    569.37353    38.503525 
172224000    265.83833    262.07929    211.00256   -12541.265    12560.121     51.07673    38.527327 
172228000    259.60907    286.65426    382.59885   -12543.082    12564.816   -95.944597    38.506785 
172232000    273.43486    322.84454    402.07196     -12553.8    12560.957   -79.227416    38.491433 
172236000    278.99842    621.01448    589.74967   -12551.588    12548.669     31.26481    38.476911 
172240000      304.143    523.98067    202.64317     -12557.2    12545.082    321.33749    38.476464 
172244000    259.71477    289.57484    216.06688   -12531.762    12547.189    73.507953    38.495034 
172248000    269.61494    290.75059    261.33421    -12554.35    12552.044    29.416378    38.491519 
172252000    304.50865    295.66605    343.10761    -12556.18     12545.76   -47.441558    38.492703 
172256000    289.61498    564.48586    497.51479   -12570.268    12565.649    66.971075     38.48986 
172260000    267.28819    542.39425    141.72929   -12585.429    12563.835    400.66496    38.493775 
172264000    315.75941    371.44204    317.02863   -12591.092    12564.748    54.413408    38.493008 
172268000    305.66098    300.49563    327.65404   -12585.346    12572.865    -27.15841    38.496078 
172272000    305.66757    290.38878    210.28032   -12597.433    12576.732    80.108462    38.487629 
172276000    294.88805    216.88345     265.2771   -12596.105     12579.93   -48.393647    38.505804 
172280000    293.21076     254.5693    393.85312   -12590.233    12579.797   -139.28382    38.510102 
172284000    271.10432    282.54377    186.67533   -12583.538    12601.591    95.868442    38.506506 
172288000    266.64609    190.95669    236.28922   -12591.638    12620.562   -45.332529    38.537326 
172292000     270.5996    259.95986    291.74728   -12626.353    12627.349   -31.787419    38.540481 
172296000    305.96397    541.80683    474.58027    -12651.72    12627.477    67.226563    38.565014 
172300000    322.89811    251.84572    352.34702   -12659.507    12622.269    -100.5013    38.570325 
172304000    274.96597    167.24971    350.58742   -12655.149    12649.411   -183.33771    38.559807 
172308000    333.53805    712.52565    287.69531   -12684.804    12663.963    424.83034    38.582504 
172312000    304.47205    263.52171    392.41409   -12685.607    12667.799   -128.89238    38.576721 
172316000    295.31617    370.43649    358.29939   -12699.519    12687.627    12.137098    38.556499 
172320000    286.98209    325.43252    380.07785   -12692.952    12701.016   -54.645332    38.542657 
172324000    249.23337    482.17905    179.81342   -12699.419    12719.398    302.36563    38.545496 
172328000    265.30034    271.46749    299.13861   -12722.025    12719.695   -27.671123    38.522429 
172332000     299.9977    357.11359    479.70698    -12733.28    12718.151   -122.59338    38.514677 
172336000    261.02856    390.54371    341.91149   -12728.559    12755.161    48.632215     38.52109 
172340000    281.76851     313.4929    293.22046   -12752.642    12753.992    20.272434    38.539302 
172344000    295.90564    316.77826    348.82156   -12755.722    12753.051     -32.0433    38.528605 
172348000    289.81917    470.86134    301.39499   -12747.481    12752.492    169.46635    38.540795 
172352000    307.32343    538.01695    377.85084   -12771.939    12734.007    160.16611    38.547177 
172356000    305.38577      365.902    275.96426   -12765.755    12757.418    89.937748    38.544536 
172360000    283.44914    370.26927    354.51939   -12752.587    12760.901    15.749882    38.562922 
172364000    297.38998    650.72502    198.33018   -12779.932    12785.413    452.39483    38.561251 
172368000    272.30504    314.31965    443.62656   -12770.886     12788.32   -129.30691    38.534594 
172372000    241.83726    292.36214    455.39145   -12777.855    12776.896   -163.02931    38.507283 
172376000    270.17009     342.9825    423.55384   -12770.325    12781.727   -80.571339    38.507652 
172380000    285.52696    499.65889    296.50794   -12781.544     12781.89    203.15095    38.526258 
172384000    266.75793    301.36632    439.55416   -12789.911    12808.677   -138.18784     38.51796 
172388000    256.61942     407.9497    280.50048   -12786.724    12812.878    127.44921     38.51128 
172392000    255.26914    408.46611    334.49037   -12797.564    12831.039    73.975745     38.51682 
172396000      270.909    293.73849    233.38931   -12807.984    12818.111    60.349176    38.509304 
172400000    292.50807    404.39963    556.33014   -12821.963     12819.76   -151.93051    38.486204 
172404000    280.63987    517.66284    492.54342   -12821.243     12840.21    25.119418    38.500647 
172408000    316.29814    604.67172    312.57456   -12847.065    12836.349    292.09716    38.509231 
172412000    283.07818    346.22627    351.75783   -12853.563     12844.81   -5.5315534    38.504885 
172416000    284.02341    389.74602    400.91445   -12849.998    12855.966   -11.168436    38.526528 
172420000    273.46554    256.71312    320.13809   -12862.977    12857.514   -63.424969    38.536687 
172424000    293.85585    288.95772     281.2287   -12880.691    12866.879    7.7290246    38.541307 
172428000     291.5786    123.92484    332.93719   -12887.202    12890.809   -209.01234    38.510857 
172432000    254.73667    264.79264    328.15602   -12887.518    12922.129   -63.363377    38.502563 
172436000    278.84654     367.3363     345.1738   -12905.411     12905.87    22.162506    38.497794 
172440000    248.18602    346.27347    223.91706   -12903.893     12925.73    122.35641    38.507079 
172444000    291.80681    290.70692    414.36349   -12907.168    12913.307   -123.65657    38.494864 
172448000    306.23949    423.44456    199.79545   -12940.146    12911.078    223.64911    38.487452 
172452000    292.68095    291.52479    288.42184   -12933.954    12906.983    3.1029496    38.501602 
172456000    288.32119    354.97745    336.49804   -12949.048    12945.813    18.479416    38.481269 
172460000    266.71893    231.80465    214.68966   -12964.284    12959.863    17.114984    38.502344 
172464000     315.6896      346.736    218.49077   -12981.099    12967.715    128.24523    38.487845 
172468000    296.05032     493.6612    317.67354   -12983.039    12975.572    175.98766    38.486497 
172472000    264.81926    384.54074    569.60725    -12989.81    12992.528   -185.06651    38.493614 
172476000    275.73367    250.39094    355.62349   -12990.688    12993.297   -105.23255    38.489453 
172480000    258.13114    165.17218    273.68824   -13000.466    13010.827   -108.51606    38.494875 
172484000    267.79834    296.20704    270.54963   -13014.806    13014.914    25.657415    38.507435 
172488000    288.11917    375.18868    236.22724   -13014.217    13019.196    138.96144    38.503142 
172492000     258.8443    441.70667    299.43086   -13021.453    13034.101    142.27581    38.512949 
172496000    299.96675    282.77667    492.48139   -13032.888    13038.419   -209.70472    38.521501 
172500000    288.87419    392.40949    245.28465   -13045.778    13052.735    147.12483    38.512298 
172504000     289.7199    325.64907    215.89356    -13053.45    13045.704    109.75551    38.515204 
172508000    278.42407    497.10597    262.35894   -13044.876    13069.055    234.74702    38.506042 
172512000    249.39334    378.49353    332.10175   -13048.657    13082.643    46.391775    38.496089 
172516000    223.37218    478.62965     169.6198   -13051.089     13089.36    309.00985    38.505812 
172520000    276.46714    343.36123    299.92782   -13077.094    13079.888    43.433407     38.50642 
172524000    292.53032    593.51695    342.00756   -13071.247    13069.352    251.50939    38.501422 
172528000    264.30909    270.08306    365.40343   -13069.896    13081.848   -95.320371    38.476845 
172532000    290.83816     274.7235    352.41798   -13076.378     13089.46   -77.694478    38.487015 
172536000    266.03211     355.0497    239.00561    -13079.15    13095.452    116.04409    38.478843 
172540000    310.95359    426.51459    204.84066   -13085.016    13084.914    221.67393    38.476174 
172544000     272.7541    236.71783    190.06763   -13071.635    13084.759    46.650201    38.472325 
172548000    254.89032     266.7662    325.97036   -13078.247      13079.8   -59.204164    38.477485 
172552000    267.36009    313.77873    439.47577   -13093.744    13090.695   -125.69704    38.484695 
172556000    279.81122    257.84874    282.70836   -13101.879    13109.529   -24.859619    38.477574 
172560000    262.77624    301.95432    239.45094   -13090.659     13117.14     62.50337    38.453647 
172564000    294.22273    528.91897    357.29502   -13122.701     13121.69    171.62396    38.458271 
172568000    251.20494     139.8865     272.3574    -13116.13    13141.459    -132.4709    38.466076 
172572000    279.42758    334.99833    380.49767    -13121.07    13139.142   -45.499345    38.453893 
172576000    290.57734     262.5127    272.76256   -13127.244    13120.964   -10.249858    38.437871 
172580000    302.65303    461.30828    330.32585   -13146.143     13138.72    130.98243    38.436347 
172584000    282.55394    381.61164    544.11655   -13137.368    13142.835   -162.50491    38.436208 
172588000    301.30774    230.99823    225.80141   -13158.035    13152.427    5.1968224     38.45026 
172592000    301.80769    369.59553    196.21899   -13165.704    13161.831    173.37654    38.460684 
172596000    290.93126    451.68582    316.79894   -13196.239    13158.095    134.88688    38.477505 
172600000    292.37979    517.49992    346.21929   -13192.725     13189.59    171.28064    38.478444 
172604000    272.25034     234.5269    307.37789   -13189.788    13193.125   -72.850992    38.488788 
172608000    258.38486     355.2016    190.51779   -13183.313    13197.718    164.68381    38.469084 
172612000    267.55932    425.82093    272.24132   -13184.585    13184.419    153.57961     38.45705 
172616000    277.84316    327.33745    346.79563   -13193.707    13190.797   -19.458179    38.461711 
172620000    271.28768    448.85983    344.71032   -13184.819    13198.378     104.1495    38.461761 
172624000    292.35082    351.71624    435.77027   -13201.718    13193.743   -84.054028    38.443795 
172628000    277.96379    334.38761    341.58905   -13203.441    13190.204   -7.2014474    38.459638 
172632000    284.95367    286.92034    294.62927   -13199.464    13189.286   -7.7089303    38.492226 
172636000    270.63844    289.80277    290.72229   -13209.259    13208.819  -0.91952113    38.492044 
172640000    286.25702    421.25008    260.66606   -13230.018    13220.756    160.58402    38.503184 
172644000    300.39749    249.91431    580.11138   -13245.848    13225.452   -330.19707    38.500688 
172648000    277.34603    299.44442    375.26487   -13253.851    13247.479   -75.820454    38.483549 
172652000    293.07171    474.20082    802.79366   -13256.352    13250.493   -328.59284     38.47153 
172656000    306.20355    448.03804    404.40568   -13268.357     13249.31    43.632361    38.461981 
172660000    270.79995    565.87269    388.83255   -13272.975    13273.906    177.04014    38.491406 
172664000    306.00454     315.7048    333.89857   -13299.834    13273.625   -18.193768    38.483208 
172668000    296.12154    392.37449    122.92676   -13300.909    13291.177    269.44774    38.456833 
172672000    300.90942     195.2026    350.81142   -13324.569    13319.004   -155.60882    38.463885 
172676000    299.27763    436.22124    357.63798   -13343.399    13322.439    78.583258    38.459904 
172680000    273.70287    360.77258    326.60157   -13327.319    13333.665    34.171016    38.465511 
172684000    331.00894    663.52058    616.29982   -13348.284     13322.07    47.220755    38.470354 
172688000    292.29297     301.9442    724.68495   -13362.115    13330.671   -422.74075    38.484668 
172692000    297.52648    258.75686    357.00548   -13366.377    13354.363   -98.248616    38.458902 
172696000    306.65495    443.46251    223.21542   -13374.952    13363.882     220.2471    38.424769 
172700000    289.22789     374.3622    190.56507   -13361.496    13365.817    183.79713     38.40945 
172704000    268.26418    236.04071    319.45466   -13356.294    13367.073   -83.413956    38.436405 
172708000    245.53309    317.34662    201.06583   -13374.434     13385.31    116.28078     38.41335 
172712000    286.04383    425.81006    233.00862   -13366.056    13367.219    192.80144    38.405822 
172716000    283.52146     240.4635    148.04017   -13383.416    13373.771    92.423336    38.408492 
172720000     283.3192    442.52849    862.81539    -13389.69    13374.305    -420.2869    38.396066 
172724000    276.42528     350.0181    303.05022   -13387.704    13398.957    46.967876     38.39885 
172728000    281.02415    646.94679    403.44856   -13396.916    13399.856    243.49823    38.400344 
172732000    265.38193     339.6707    358.24061   -13402.608    13396.179   -18.569912    38.375764 
172736000    288.66519    351.23007    380.21544   -13408.249    13406.991    -28.98537    38.354963 
172740000    308.44654     336.7965    179.04695    -13433.82    13415.953    157.74954    38.342651 
172744000    295.52791    395.72524    292.92832   -13436.944    13425.525    102.79692     38.32935 
172748000    299.57132    331.41655    202.98254   -13453.291    13429.365    128.43401     38.33864 
172752000     309.0386    246.64536    194.86695   -13440.654    13437.295    51.778405    38.325671 
172756000     302.5208    467.19289    289.29807   -13454.249    13432.929    177.89482    38.323135 
172760000    298.30186    622.69129     156.8246    -13452.17    13449.677    465.86669    38.327999 
172764000    287.11991    376.79406    270.28487   -13450.314    13435.229    106.50919    38.322865 
172768000    279.32476    570.29564    338.09061    -13454.93    13444.333    232.20502    38.323667 
172772000    280.32776    376.11594    286.57223    -13460.13    13438.825    89.543711    38.336688 
172776000    315.41114    299.86815    370.98422   -13475.631    13442.515   -71.116075    38.324827 
172780000    295.88072    286.27543    273.43423   -13490.312    13477.147    12.841195    38.339211 
172784000    276.59515    377.82147    413.68967   -13479.526    13485.158   -35.868206     38.34627 
172788000    250.30296    271.51188    345.45121   -13489.581    13499.487   -73.939329     38.35293 
172792000    250.30931    328.70823    160.06151    -13485.03    13509.882    168.64672    38.347514 
172796000    277.03274     338.1306    374.83765   -13505.094     13504.09    -36.70705    38.349764 
172800000    266.00199    317.87242    313.74418   -13507.097    13508.985    4.1282381    38.338438 
172804000    282.70564    303.98563    429.25408   -13507.068    13507.812   -125.26844    38.322091 
172808000    263.35334    259.09812    311.65392   -13516.601    13518.507   -52.555802     38.31661 
172812000    265.37755    357.15267     231.9382   -13519.108    13520.914    125.21447    38.334674 
172816000    264.22696    550.42892    309.52477   -13499.909    13523.706    240.90414    38.337199 
172820000    266.58311     211.1966    269.25621   -13509.843    13531.463   -58.059602    38.359203 
172824000    295.09469    379.47912    310.91459   -13528.832    13518.463    68.564529    38.375164 
172828000    270.58574    523.82523    261.94757   -13538.407    13542.857    261.87766    38.373854 
172832000    301.05761     493.1238    302.54998   -13541.176     13540.52    190.57382    38.373108 
172836000    290.14749    564.84852    426.62519   -13547.489    13546.899    138.22333    38.353903 
172840000    267.49343    342.08987    318.92929     -13555.8    13569.062    23.160578    38.364603 
172844000    285.99851    224.13773     266.9964   -13586.412    13589.064   -42.858675     38.37781 
172848000    279.01841    424.77595    233.02178   -13615.481      13613.9    191.75417    38.389067 
172852000    289.63612    418.71732    163.73212   -13622.162    13627.487    254.98519    38.387526 
172856000    281.76889    292.76969    242.78503   -13624.198    13640.847     49.98466    38.397273 
172860000    272.02262    319.61167    204.20191   -13635.918     13648.08    115.40976    38.421903 
172864000    281.13716    258.94282    233.48131   -13628.471    13642.817    25.461517    38.403641 
172868000    289.18568    641.67011    183.70037   -13649.121    13651.206    457.96973    38.406853 
172872000    255.00669    478.84565    179.60383   -13647.479    13663.326    299.24181    38.409426 
172876000    290.66273    354.13188    371.96066    -13657.88      13658.3   -17.828777    38.418087 
172880000    280.70065     386.4328    298.56785   -13680.517    13664.196    87.864944    38.422874 
172884000    250.35132    735.29062    166.44293   -13688.604    13694.121    568.84769    38.436245 
172888000    227.15208    210.89429    221.70665   -13675.095    13713.271   -10.812363    38.444755 
172892000    295.37249    417.46503    416.97233   -13703.112    13700.752   0.49270415    38.441999 
172896000    284.71909    264.36571    344.79511   -13718.044    13706.091   -80.429401    38.441795 
172900000    291.98744    303.50666    341.99488   -13708.893     13690.83   -38.488219     38.44432 
172904000    289.15575    387.67102    287.04297   -13728.222    13705.652    100.62806    38.453111 
172908000    298.47404    283.00656    304.02571    -13726.62    13711.496   -21.019143    38.429828 
172912000     308.7172    405.73337     223.4805   -13743.201    13716.251    182.25287    38.434543 
172916000    315.03439    424.83339    127.56567   -13749.811     13724.16    297.26772    38.434156 
172920000    296.42899    389.44787    487.40424   -13737.625    13724.962   -97.956372    38.444192 
172924000    308.12916    292.53567    331.32529   -13750.612    13732.146   -38.789618    38.447848 
172928000    300.45558    543.07989    308.42082   -13752.612    13738.755    234.65907    38.464139 
172932000    280.01293    369.52639    259.49043   -13747.206    13741.406    110.03596    38.461471 
172936000    286.15428    677.02949    493.67927   -13754.803    13748.852    183.35022    38.447815 
172940000    311.18002    207.54697    385.83229    -13767.39     13744.54   -178.28532    38.456648 
172944000    318.52503    270.42499    519.74228   -13784.158    13765.865   -249.31729    38.462691 
172948000    281.08571    246.39841    273.47296   -13793.813    13787.333   -27.074549    38.462962 
172952000    287.78461    386.75674    269.14084   -13805.226    13797.782    117.61589    38.453527 
172956000    283.84752    338.56457    359.74112   -13801.639    13818.297   -21.176554    38.435912 
172960000    249.08431    285.03483    494.16002   -13811.563    13823.177   -209.12519    38.441901 
172964000    260.03146    572.51285    339.89015    -13816.31    13836.539     232.6227    38.428703 
172968000    295.18299    385.70703    331.63366   -13836.549    13833.281    54.073372    38.431298 
172972000    300.83073    300.71412     445.1356   -13835.098    13821.237   -144.42147    38.408063 
172976000    282.61071    271.22459    339.59425   -13843.054    13838.783   -68.369666    38.385608 
172980000    293.53774    590.99971    265.08458   -13839.247    13824.969    325.91513    38.372934 
172984000    296.19123    368.59941    120.34505   -13849.011    13831.811    248.25436    38.379229 
172988000    278.13741    397.09418    330.98464   -13848.265    13849.711    66.109542    38.377028 
172992000    266.89585    295.03683    163.41119   -13861.607    13862.295    131.62564    38.376516 
172996000    274.24501    310.85115    322.02867   -13871.432    13872.782   -11.177521     38.35835 
173000000    278.69926    704.13588    272.97602   -13904.656    13891.857    431.15986    38.373823 
173004000    308.31856    397.36932    622.67012   -13911.805    13897.589    -225.3008    38.372089 
173008000    265.01015    456.29403    601.60169    -13914.73     13913.82   -145.30766     38.35763 
173012000    273.16531    476.99482     258.4724   -13929.357     13944.77    218.52242    38.360005 
173016000    269.51834    554.45069    389.45281   -13926.306    13944.753    164.99789    38.390224 
173020000    262.42035    292.23066    307.20374    -13942.04    13957.578   -14.973088    38.370787 
173024000    261.23378    413.02422    344.24557    -13956.21    13970.734    68.778654    38.379128 
173028000    284.23322    253.01416    481.90899   -13973.674    13976.039   -228.89483    38.369752 
173032000    323.81205    532.56986    534.90166   -13996.705    13977.788   -2.3317963    38.376746 
173036000    261.99669    241.23703    306.59388   -14001.788    14004.159   -65.356851    38.391811 
173040000    263.80049    236.02428    194.12245   -14002.194    14018.027     41.90183     38.40267 
173044000    301.06494    388.51061    292.25067   -14024.653    14012.088     96.25994    38.398481 
173048000    306.04033    233.51026    312.87512   -14037.878     14004.51   -79.364864    38.400916 
173052000    271.12527    167.49128    427.00884   -14020.222      14019.3   -259.51756    38.398166 
173056000    292.36363    213.68096    200.34979   -14023.548    14018.626    13.331165     38.39527 
173060000    273.48614    340.12635    255.61404   -14040.741    14019.721    84.512308    38.384946 
173064000    272.28517    282.66276    179.59372   -14032.674    14032.385    103.06904    38.389857 
173068000     302.6627     309.0482    470.65488   -14055.859    14045.026   -161.60667    38.389163 
173072000    287.33926     242.8802    428.87976   -14061.941    14053.764   -185.99956    38.378506 
173076000    303.35417    659.46327    459.09008   -14076.407    14066.647    200.37319    38.379157 
173080000    273.96581    228.51268    396.02641   -14076.961    14069.981   -167.51373    38.371098 
173084000    273.89907    429.00782    334.36207   -14088.309    14098.974    94.645749    38.352226 
173088000    269.65631    337.33274    607.39684   -14095.907    14101.102    -270.0641    38.345414 
173092000    281.98286    406.25013    267.54158   -14127.613    14123.378    138.70855    38.345214 
173096000    285.20748    555.43946    228.29788   -14122.776    14134.115    327.14158    38.352653 
173100000    275.15048    514.92852    247.01623   -14135.729    14141.058    267.91229    38.360357 
173104000    281.84063    374.21259    124.35221   -14137.337    14132.698    249.86038    38.366623 
173108000    293.28344     340.3921     428.9162    -14129.92    14119.673     -88.5241    38.365021 
173112000    287.56296    585.39861    287.15209   -14127.834    14115.737    298.24652    38.374168 
173116000    273.27244    313.86342    279.47033   -14135.078    14135.679     34.39309    38.377451 
173120000    284.35516    322.05033    460.26559   -14147.768    14161.319   -138.21526    38.368401 
173124000    266.80925    430.95341    322.59215   -14162.935     14157.63    108.36126    38.354161 
173128000    283.83588     312.4328    226.54169   -14147.361    14158.186    85.891102    38.355079 
173132000     243.9753    402.22166    189.45272   -14172.588    14178.405    212.76895    38.375869 
173136000    293.91509    296.21617    276.44595   -14181.477     14182.95    19.770219    38.364708 
173140000    297.56893       381.12     166.6254   -14201.497    14186.898     214.4946    38.365555 
173144000    282.08109    194.84603     422.5248   -14189.383    14186.386   -227.67877    38.347126 
173148000     277.9336    389.21736     486.6396   -14190.399    14210.503   -97.422242    38.343801 
173152000    278.67994     231.3927    321.57759   -14224.063    14218.489   -90.184893    38.330879 
173156000    284.81254    363.03949     263.1774   -14233.961    14234.253    99.862099    38.330288 
173160000     277.8621    416.61271    279.88877   -14232.779    14234.897    136.72394    38.332394 
173164000    268.10078    163.18498    659.91626   -14239.974    14250.231   -496.73129    38.313278 
173168000    253.05255    264.48061    210.44171   -14250.345    14258.438    54.038905    38.304113 
173172000    291.92492    575.17435    194.49131    -14270.35    14273.883    380.68305    38.306035 
173176000    279.67974    291.42024     327.1214   -14283.139     14294.97   -35.701162    38.321674 
173180000    281.69692    601.42414    346.31959   -14304.531    14295.206    255.10455    38.333334 
173184000    285.99215     472.4963    436.48446   -14307.395    14308.797     36.01184    38.340174 
173188000    297.86854    423.17852    238.43087   -14319.577    14298.212    184.74765    38.330064 
173192000    307.69259    454.23218    494.29461   -14313.837    14302.745   -40.062435    38.352424 
173196000    296.56447    505.14187     322.3275   -14321.781    14327.559    182.81437    38.353864 
173200000    268.38026    484.26534    252.92645   -14318.845    14337.463    231.33889     38.34404 
173204000    280.71011    388.85929     265.5593    -14338.98    14352.221    123.29998    38.354012 
173208000    292.98954    362.25605    423.13145   -14356.455    14342.024     -60.8754    38.371095 
173212000    286.95046    181.89613    257.49909   -14361.986    14360.488   -75.602953    38.358141 
173216000     276.0238    445.67739     321.1093   -14369.421    14352.803    124.56809    38.344535 
173220000    282.36109    427.49612    411.13526   -14367.554    14368.187    16.360856    38.327872 
173224000    276.34977    420.04964    455.45542    -14385.39    14384.121   -35.405773    38.333775 
173228000    259.30035    261.58091    234.15077     -14385.6    14391.057    27.430144     38.34825 
173232000    286.19378    335.03328    362.98195   -14401.145    14379.741   -27.948663    38.363513 
173236000    284.06954    407.05101    285.69883   -14407.438    14397.268    121.35217    38.378127 
173240000    266.22424    223.50016    246.83092   -14416.615    14406.049   -23.330758    38.385947 
173244000    310.42458    405.48227    356.64533   -14433.834    14398.686     48.83694    38.400841 
173248000    326.71779     305.4501    344.30869   -14435.902    14411.805   -38.858587    38.408524 
173252000    292.88933    407.14658    408.51935   -14444.942    14431.734   -1.3727696    38.395319 
173256000    299.22466    316.23856    466.37693   -14438.199    14417.385   -150.13836    38.404856 
173260000    321.87485    370.29595    462.17647   -14450.941    14410.008   -91.880521    38.448345 
173264000    285.67937    320.49383    317.39091   -14436.163    14420.019    3.1029226    38.448707 
173268000    273.96979    457.90241     308.9662   -14417.692     14424.81     148.9362    38.460151 
173272000     312.8034    340.95533    528.41454   -14423.478    14419.698   -187.45921    38.442081 
173276000     260.0702    460.38405    281.41662   -14425.149    14442.711    178.96743    38.441803 
173280000    277.78363    220.53743    405.51249   -14445.863    14443.177   -184.97507    38.436517 
173284000    324.93275    789.66556    265.55795   -14473.309    14445.903    524.10761    38.441547 
173288000    288.99351    224.83944    217.30983   -14463.317    14464.616    7.5296037    38.453897 
173292000    271.56488    362.75022      156.385   -14465.444    14463.058    206.36522    38.443944 
173296000    266.26925    360.44408    356.95265    -14472.75    14496.375    3.4914348    38.428705 
173300000    270.07108    287.01061    416.48545   -14481.883    14490.271   -129.47484     38.45086 
173304000    256.55369    477.12676    231.40327   -14489.361     14516.61    245.72349    38.454836 
173308000     267.1139     431.2008    326.53107   -14504.971    14515.323    104.66973    38.462725 
173312000    305.65488     528.7237     276.4706   -14518.814    14505.142    252.25311    38.455523 
173316000    300.97603    416.75721    265.43502   -14516.453    14504.634    151.32218    38.442205 
173320000    248.43157    195.06073    372.03742   -14519.596    14539.507    -176.9767    38.457876 
173324000    272.18624    308.26379    296.52423   -14529.548    14552.996    11.739561     38.44971 
173328000    275.43477    301.06343    329.63249   -14549.165    14558.435   -28.569054    38.460278 
173332000    265.35973    261.79054    560.42631   -14546.807    14565.561   -298.63577     38.44154 
173336000    303.69753     582.5082    410.76951    -14571.95    14567.727    171.73869    38.454272 
173340000    295.44481    440.45612    165.44947   -14566.606    14564.757    275.00665    38.459297 
173344000    318.92279    311.78279    510.76579   -14592.296    14556.934     -198.983    38.460756 
173348000    297.05202    341.53348    469.37692    -14596.17    14586.198   -127.84344    38.430048 
173352000    318.59876    1027.7089    352.44981    -14626.44    14574.225    675.25907    38.461018 
173356000    294.90205    324.79548    394.30761   -14605.168     14590.28   -69.512131     38.43913 
173360000     324.2263    415.06111    305.54441   -14617.203     14593.41     109.5167    38.414849 
173364000    270.46362    397.91422    189.12467   -14610.936    14610.784    208.78955    38.398341 
173368000    303.47059    539.11951    441.65971   -14614.067    14592.719    97.459798    38.401923 
173372000     286.1697    349.86666    220.09428   -14611.436    14605.737    129.77238    38.409201 
173376000    246.62513    310.62409    254.16345   -14596.204    14614.392    56.460643    38.392715 
173380000    294.55448     381.7341    404.64734   -14627.042    14603.074   -22.913233    38.406176 
173384000    285.26224    695.47026    295.12737   -14629.771    14616.865    400.34289    38.417283 
173388000    278.18576    207.71628    429.25578   -14630.698    14616.638    -221.5395     38.42596 
173392000    299.26129    569.19039    333.90563   -14626.487    14623.569    235.28475    38.420462 
173396000    274.98092    371.52801    471.53472   -14616.866    14616.695   -100.00672    38.423726 
173400000    307.86922    253.60433     291.1542   -14639.455    14612.086   -37.549864     38.40495 
173404000     277.6996     320.0011    362.98197   -14632.278    14627.672   -42.980867    38.412872 
173408000    306.39783    412.40634    400.61031   -14663.971    14645.758    11.796027     38.41787 
173412000     259.8061    425.08222    442.03911   -14661.734    14669.002   -16.956889    38.427045 
173416000    255.08171    209.03268    337.14396   -14659.874     14683.82   -128.11127    38.417181 
173420000    258.46231    301.66169    366.73879   -14678.301    14690.985   -65.077098    38.411355 
173424000    301.39414    427.73791    400.08361   -14680.746     14669.82    27.654304    38.411114 
173428000    305.81775    424.13732    131.33719   -14702.099    14691.824    292.80013    38.407721 
173432000     273.4408    279.04536     528.4296   -14695.496    14708.876   -249.38425    38.383433 
173436000    256.00733    248.86462    195.93112   -14695.909    14707.077    52.933496     38.39279 
173440000    276.26147    435.73719     238.7321   -14709.564    14700.673    197.00509    38.392957 
173444000     286.5408    367.74007    415.43109   -14714.689    14708.234   -47.691029    38.405518 
173448000    288.05224    380.53278    238.47997   -14726.693    14720.376    142.05281    38.389269 
173452000    296.65317    721.52811    205.42097   -14746.225    14742.653    516.10714    38.382073 
173456000    289.92404    320.92477    406.44776   -14750.916    14729.182   -85.522992    38.379304 
173460000     283.2097    513.88902    131.02065   -14756.217    14751.948    382.86837    38.374203 
173464000    292.93362    370.84038    245.98525    -14763.93    14765.743    124.85514     38.37381 
173468000    289.71888    489.58874     538.2948   -14781.296    14767.772   -48.706058    38.360272 
173472000    302.02577    240.77501    345.03365   -14806.019    14779.609   -104.25864    38.350328 
173476000    321.85843     380.5206    251.17781   -14814.989    14789.312    129.34279    38.358083 
173480000    291.13111    425.14808    347.89582   -14806.052    14793.819    77.252259    38.361987 
173484000    300.31731    436.19687    280.97277   -14826.148    14814.988    155.22411    38.371268 
173488000     274.1762    383.41806    347.33484   -14818.147    14823.225    36.083222    38.376148 
173492000    266.43134    316.42875    184.39775   -14816.218    14823.654    132.03101    38.387055 
173496000    236.91829     410.7627    448.07348    -14802.15    14830.794   -37.310781    38.376099 
173500000    252.39702    384.59111    342.61964   -14823.505    14845.437    41.971476    38.370945 
173504000    295.47275    535.19786     310.1114   -14846.757    14820.485    225.08646    38.384947 
173508000    295.30432    546.20954    287.29439   -14846.011    14834.506    258.91515    38.388784 
173512000    294.86405    504.84186    250.94483   -14875.421    14861.105    253.89704    38.361325 
173516000    307.75088    274.06012    440.40719   -14879.178    14871.186   -166.34707    38.351805 
173520000    273.43172    383.40653    287.29802   -14880.776     14867.74    96.108513     38.35042 
173524000    253.09364    456.03473    333.16943   -14884.112    14889.668     122.8653    38.343815 
173528000    259.93377    471.21601    265.73563   -14885.848    14904.107    205.48037    38.357653 
173532000    261.45661    749.38069    425.82504   -14895.679    14897.655    323.55565    38.372764 
173536000     282.5917    318.48736    355.27402   -14898.149    14891.545   -36.786656    38.367075 
173540000    279.24952    639.85562    170.99395   -14916.209    14905.533    468.86167    38.391227 
173544000     289.8158    172.28384    300.02078   -14918.383    14920.978   -127.73694    38.398727 
173548000    265.21334    311.77189    250.90974   -14911.903    14935.882    60.862149    38.384478 
173552000    252.95254    237.46377    158.39833   -14932.015    14928.169    79.065441    38.385584 
173556000    295.36558    406.65072     411.3676   -14930.409    14924.398   -4.7168798    38.408546 
173560000    270.50798    317.36319    302.73338   -14927.303    14941.065    14.629809    38.403618 
173564000    285.58741    500.40825    422.21546   -14927.922    14925.302    78.192797    38.410574 
173568000    275.89183    164.39215    426.61903   -14925.321    14938.265   -262.22688    38.392966 
173572000    270.48069    388.68556    254.02009   -14933.576    14948.077    134.66547    38.393568 
173576000    262.12118    554.32681    371.28759   -14938.076    14949.829    183.03922    38.420236 
173580000    263.40374    434.36488    202.76983   -14937.306    14954.899    231.59505    38.421635 
173584000    270.26898    404.85003    230.85751   -14961.651    14959.092    173.99252     38.40308 
173588000    297.52334     345.8349    269.87982   -14965.954    14968.987     75.95508    38.395469 
173592000    296.93996    464.74964     342.6732   -14980.992    14975.668    122.07644    38.383516 
173596000    266.62482    330.62851    407.04538   -14988.116    14991.265   -76.416873    38.376003 
173600000    299.30884    273.27929    177.48563   -14992.667    14984.085    95.793663    38.371331 
173604000    269.18056    288.02815    339.07105     -14995.9     15005.42   -51.042899    38.357873 
173608000    304.47654    260.50494    532.51554   -15017.481    15000.389    -272.0106    38.335606 
173612000    282.61844    237.25601    392.47109   -15015.472    15014.699   -155.21508    38.323275 
173616000     271.8484      165.484    351.29103   -15022.009    15023.683   -185.80703    38.327196 
173620000    291.67947    250.41752    396.80137   -15034.742    15023.141   -146.38386    38.337199 
173624000    278.11216    488.41719    124.69675   -15050.225    15053.182    363.72044    38.354785 
173628000    250.84563     196.9913    175.83435       -15047    15060.369    21.156948    38.349485 
173632000    279.70739    230.88269    486.32994   -15052.089    15050.184   -255.44725    38.342371 
173636000    276.68237    323.09125    422.09538   -15063.504    15062.313   -99.004126    38.355544 
173640000    279.26449    387.33814    244.58386    -15082.54    15082.507    142.75428     38.34166 
173644000    306.46938     482.9118     253.6473   -15107.294    15087.047     229.2645    38.360368 
173648000    321.94773    462.30026    575.80688   -15107.412    15087.186   -113.50661    38.346973 
173652000    279.70877    378.43891    400.19786   -15081.806    15100.255   -21.758952    38.320882 
173656000    275.43951    337.14289    462.10803   -15100.096    15091.813   -124.96514    38.308854 
173660000    271.31793    175.94492    415.54251   -15095.134    15096.177   -239.59759     38.30107 
173664000    302.27636    537.51688    346.46798   -15100.012    15099.428    191.04891    38.286479 
173668000    272.43367    372.45014    312.62868   -15095.923    15106.623    59.821455    38.281917 
173672000    279.36972    473.75706    443.18786   -15110.736    15117.591      30.5692    38.297606 
173676000    280.66305    563.21512    178.83668   -15114.371     15121.41    384.37845    38.317979 
173680000    302.58739    465.98459    396.58961    -15129.23    15123.582    69.394975    38.335768 
173684000    242.10888    298.66284    304.51929   -15139.703    15140.453   -5.8564511    38.353134 
173688000    296.61301    328.99001    239.32233   -15150.403    15144.498     89.66768    38.360331 
173692000    289.84491    359.92494    429.46341   -15156.275    15138.908   -69.538465    38.387764 
173696000    290.47957     434.2312    280.63377   -15159.245    15155.738    153.59744    38.393171 
173700000    297.53347    416.17598    235.25954   -15174.699    15171.735    180.91644    38.380558 
173704000    248.18659    229.45254    268.25312   -15170.838    15182.053   -38.800582    38.362286 
173708000    277.71252    249.93397    439.10241    -15191.35    15192.527   -189.16844    38.343696 
173712000    314.57765    274.51562    390.94601   -15195.408    15188.091   -116.43039    38.338282 
173716000    283.68788    554.36931    216.47941   -15204.512    15200.602     337.8899      38.3513 
173720000    300.51265    411.91383    342.78699   -15205.141    15196.327     69.12684    38.358367 
173724000    279.59649    260.27936    324.60247   -15201.201    15213.403   -64.323118    38.352601 
173728000    262.55369    264.03352    243.48923   -15213.596    15220.203    20.544291    38.356576 
173732000    298.25766    702.06343    380.37452   -15231.575    15232.585    321.68891     38.33664 
173736000    277.26433    466.98131    395.62763   -15238.065     15245.93    71.353674    38.336384 
173740000    281.28972    593.29575    394.84945   -15232.143    15235.057    198.44629    38.350788 
173744000    267.31793     334.0784    363.79014   -15218.855    15229.677   -29.711742    38.335372 
173748000    279.35029     682.5203    371.76835   -15218.274    15230.251    310.75195    38.339303 
173752000    259.24501     356.8695    323.75231   -15221.015    15232.143    33.117198    38.357067 
173756000    262.25293    361.26299    334.35808   -15235.052    15237.485    26.904912    38.366561 
173760000    276.82333    464.20907    497.42063   -15241.887    15234.242   -33.211568    38.385941 
173764000    259.29314    381.03672    404.23546   -15250.546     15262.36   -23.198745    38.384633 
173768000    295.39924     466.9286    156.28037   -15273.304    15274.027    310.64823    38.378833 
173772000     277.1625    498.88431    233.34983   -15285.551    15284.272    265.53448    38.389964 
173776000     265.3151    460.24772    163.36902   -15271.017    15288.619     296.8787    38.384632 
173780000    290.82378    487.63398    254.49265    -15294.71     15288.35    233.14132    38.379089 
173784000    301.87453    522.43932    296.62902   -15293.502    15297.269     225.8103    38.400336 
173788000     296.4748    281.96213    520.50849    -15303.88    15289.862   -238.54637    38.395383 
173792000    288.56525    282.38842    237.45215   -15304.223    15310.559    44.936275     38.40674 
173796000    282.42894    380.21748    274.77815   -15316.792    15331.161    105.43932     38.40503 
173800000    253.36105    263.40538    279.04858   -15336.659    15339.065     -15.6432    38.394905 
173804000    296.45365    425.53152    411.34604   -15330.528    15340.285    14.185483    38.387637 
173808000    309.91737    308.66223    143.28452   -15355.115    15343.148    165.37771     38.39763 
173812000    320.90812    488.90392    857.32896   -15357.819    15339.927   -368.42504    38.404578 
173816000    303.82832    358.42968    240.94766   -15351.551    15345.853    117.48201    38.417245 
173820000    294.65628    302.21345    442.62132    -15352.19    15343.968   -140.40787    38.417329 
173824000    284.76209    470.71815    310.18583   -15362.422    15344.957    160.53232    38.405129 
173828000    314.84003    388.19639    609.01282   -15360.603    15339.308   -220.81643    38.399144 
173832000    305.84714    662.05205    480.78825   -15365.238    15341.976    181.26381    38.410933 
173836000    280.96062    206.82363    289.55995    -15362.71    15338.322   -82.736322    38.409523 
173840000    298.58883     191.8812     279.5005   -15361.438    15337.307     -87.6193     38.40571 
173844000    295.92289    444.90153    100.52485   -15352.371    15342.701    344.37668    38.416094 
173848000    290.82024    310.73987    223.68625   -15360.986    15338.285    87.053622    38.417538 
173852000    284.70628    261.59496    305.35823   -15364.371    15375.033   -43.763266     38.43043 
173856000    292.80373    497.69229    157.22318   -15380.246    15369.589    340.46911    38.425649 
173860000    312.37347    335.47781     512.1278   -15379.907    15357.836   -176.64999    38.431453 
173864000    278.07809    490.29171    219.83167   -15383.134    15359.416    270.46004    38.444941 
173868000    257.48639    341.21339    490.32792   -15376.709    15387.457   -149.11452    38.438744 
173872000    245.57958    519.80809    199.83563   -15373.872    15404.286    319.97246    38.425442 
173876000    280.88652    306.83509    233.37464   -15385.187     15396.84    73.460449    38.432608 
173880000    278.56973    300.25929    376.81469   -15394.741    15396.958   -76.555399    38.427078 
173884000    280.48453    507.66396    336.80157   -15396.946    15404.064     170.8624    38.436798 
173888000    263.08629     367.5436    98.589984   -15419.674     15420.54    268.95362    38.428609 
173892000    292.01422    439.02156    150.77729   -15433.238    15408.294    288.24427    38.430099 
173896000    276.79593    355.83729    205.29741   -15432.465    15431.008    150.53988    38.433484 
173900000    283.19232    385.49311    229.80137   -15432.667    15443.184    155.69174    38.445582 
173904000    247.49044    282.96977    327.23392   -15421.971     15462.18   -44.264145    38.455287 
173908000    278.12906     526.4261    622.69417   -15459.536    15446.863   -96.268067    38.437892 
173912000    276.58381    247.68395    308.92233    -15460.47    15456.338    -61.23838    38.423122 
173916000    314.10571    449.31127    330.36612   -15478.633    15457.117    118.94515    38.430008 
173920000     306.8405    221.31673     340.9583   -15490.422    15462.292   -119.64157     38.40932 
173924000    269.89674    307.08155    297.28582   -15482.726     15487.74    9.7957229    38.389913 
173928000    288.93341    415.32381     299.2408   -15498.046    15497.153    116.08301    38.395043 
173932000    289.97136    340.66031    365.19257   -15504.526    15495.131   -24.532259     38.36689 
173936000    302.83726    529.39998    325.92974   -15529.909    15527.086    203.47025    38.365016 
173940000    284.76266    538.65345    480.43006   -15547.107    15541.601    58.223394    38.368685 
173944000    261.43808    185.09903    181.59897   -15551.954    15554.283    3.5000553    38.363156 
173948000    290.59459    360.33891    298.81982   -15570.902    15539.897    61.519092    38.363924 
173952000    262.26098     442.0196    201.39434   -15574.855    15569.939    240.62526    38.373356 
173956000     302.7006    225.09378    166.05574   -15574.161    15566.094    59.038036     38.36103 
173960000     278.3688    308.64959    263.05299   -15573.947    15591.448    45.596597    38.358466 
173964000    291.81325    578.07153    282.00956    -15597.68    15591.728    296.06197    38.349853 
173968000    272.54819    253.36593    416.97445   -15603.011     15608.94   -163.60852    38.338484 
173972000    301.26469    326.69602     313.5734   -15623.326    15596.268    13.122624     38.33652 
173976000    302.92841    366.84984    524.86204    -15606.09    15596.509    -158.0122    38.326766 
173980000    286.43842    357.16219     301.7951   -15594.682    15593.338    55.367096    38.316149 
173984000    276.20393    528.98349    313.64567   -15614.923     15615.76    215.33782    38.313795 
173988000    277.54567    470.68698     345.1903   -15630.468    15628.363    125.49668    38.309276 
173992000    267.97461    290.50329     409.5687   -15640.194    15636.724   -119.06541    38.288332 
173996000    271.91419    329.55426    273.65833   -15631.727    15640.283    55.895932    38.257895 
174000000    279.40923    446.73558    211.29583   -15647.906     15651.32    235.43975    38.257008 
174004000    289.92381    342.29971    213.97818    -15649.02    15637.057    128.32153    38.254963 
174008000    296.78241       176.12    407.65242   -15633.136     15648.27   -231.53241    38.270564 
174012000    289.16285    531.61146    208.88242   -15657.483    15647.503    322.72904    38.259456 
174016000    296.64881    215.89245    429.88885   -15640.282    15651.491    -213.9964    38.283767 
174020000    305.83943    613.08375     418.2411   -15673.328    15655.201    194.84265    38.282911 
174024000    303.67269    515.56599    324.36748   -15686.093    15672.866    191.19851    38.261911 
174028000    233.84312    387.60095     563.6223   -15666.553    15687.962   -176.02135    38.266132 
174032000    304.92252    488.51589    261.83037   -15692.574    15671.276    226.68552    38.281599 
174036000    260.28296    252.20531    355.33011   -15682.492     15691.27   -103.12481    38.298102 
174040000    280.05852    270.05117    240.63879   -15691.114    15693.301    29.412377    38.273524 
174044000    276.80538    409.76128    385.59613   -15706.992    15693.959    24.165156    38.268501 
174048000    263.97265    451.83791    207.82927   -15698.296    15705.893    244.00865    38.280784 
174052000    279.68811    245.95321    348.56624   -15703.551    15719.063   -102.61303    38.275999 
174056000    252.26033    365.78888    542.38819   -15721.996    15720.328   -176.59931    38.272722 
174060000    262.66781    567.16791    253.62964   -15733.364    15744.557    313.53827    38.276127 
174064000    256.32711    314.32746    196.15936   -15739.577    15752.274     118.1681    38.290869 
174068000    253.96194    362.45217    465.14748   -15741.832    15770.194   -102.69531     38.29469 
174072000     252.7071    269.18095    308.58505    -15744.06    15773.222   -39.404099    38.320133 
174076000    274.22561    176.80205    238.83052   -15764.428    15765.133   -62.028473    38.328661 
174080000    282.39519    374.68092    327.38098   -15771.874    15780.387    47.299947    38.333546 
174084000    266.04207     492.4514    199.94431   -15771.836    15788.363    292.50709    38.333384 
174088000     274.3824    247.35557    261.92931   -15781.443    15795.304   -14.573747    38.318735 
174092000    285.84216    427.17779    288.58269   -15825.386    15801.805    138.59511    38.336303 
174096000    271.48863    267.61174    379.91019   -15809.353    15800.212   -112.29845    38.333545 
174100000    269.16786    252.64302    277.31768   -15825.094    15813.974    -24.67466    38.338269 
174104000    270.61713    433.87308    587.93776   -15834.384    15841.715   -154.06468    38.365827 
174108000      278.538    527.64996    175.26449   -15856.749    15858.324    352.38547    38.364033 
174112000    279.18524    519.65627    486.44951    -15863.83    15851.338    33.206762    38.338704 
174116000    302.39656    246.61307    453.57728   -15868.631    15869.161   -206.96421    38.345277 
174120000    299.91734    248.19981    344.25767   -15878.543    15870.178   -96.057867    38.349207 
174124000    321.84122     280.1186    493.36946    -15888.69     15868.08   -213.25086    38.357755 
174128000    290.12029    618.66369    283.06906   -15883.619    15886.523    335.59462    38.345029 
174132000    291.23725    361.39518    311.74072   -15907.832    15904.204    49.654459    38.368043 
174136000    259.94434    468.08026    352.82317   -15888.073    15923.363    115.25708    38.376326 
174140000    274.92874    509.63832     466.8465   -15909.368    15915.938     42.79182    38.378579 
174144000    271.41335     505.3822    380.97959   -15913.085    15932.648    124.40261    38.389954 
174148000    283.97703    382.38562    416.94986   -15912.144    15927.662    -34.56424     38.39479 
174152000    274.12814    192.10669    367.12495   -15927.034     15938.07   -175.01826    38.404443 
174156000    256.63002    362.64056    284.11912   -15917.117    15947.556    78.521448    38.414139 
174160000    290.80256    228.88186    400.46769    -15937.71    15929.084   -171.58583    38.413175 
174164000    251.65224    210.25334    224.22444    -15923.63    15954.724   -13.971102     38.42319 
174168000    304.94125    410.25098    326.90793   -15951.556    15944.323    83.343052    38.427287 
174172000    282.64817    202.52497    501.83751   -15953.903    15949.119   -299.31253    38.421204 
174176000    291.71045     385.7111    322.80101   -15970.985    15958.132    62.910081    38.408752 
174180000    266.10857    307.46501    216.69399   -15967.514    15973.031    90.771021    38.398518 
174184000    268.31223    395.07239    147.13724     -15976.2    15987.681    247.93515    38.391616 
174188000    279.75294    376.71643    405.71962   -15993.415    15979.353   -29.003194    38.399979 
174192000    307.09621    247.87262    396.97768   -15999.688    15988.405   -149.10506    38.396141 
174196000     285.8681    389.74344    327.70426     -15997.1    15996.363    62.039178    38.391302 
174200000    291.82319    447.03854    304.43526   -16019.478    16011.269    142.60328     38.41026 
174204000    263.12879    440.36116    202.77532   -16008.653    16017.371    237.58584    38.429721 
174208000     259.7998    623.05584    324.77853   -15988.633    16009.725    298.27732    38.429693 
174212000    271.83438    392.42551    216.50986   -15996.289    16008.531    175.91565    38.426793 
174216000    286.21596    360.36045     363.5672   -16001.274    16005.665   -3.2067462    38.413976 
174220000    297.74485    588.47154    377.36922   -16014.746    16006.193    211.10233     38.39681 
174224000     287.8899    685.23843    243.77013   -15999.877    15994.863     441.4683    38.404766 
174228000    287.94287    482.33226    159.92576   -16017.505    16002.768     322.4065    38.416064 
174232000    273.95305    212.41584    162.49299   -16004.617    16013.586    49.922847    38.386886 
174236000    303.96433    407.58827    241.81954   -16022.296    16005.984    165.76873    38.409194 
174240000    333.04626    306.34021    282.97831   -16018.065    15996.143    23.361901    38.399882 
174244000    282.81361    383.34195    365.44674   -16001.285    16006.142    17.895209    38.405431 
174248000    281.63978    395.87267    197.96982   -16014.151      15989.7    197.90285     38.41413 
174252000    306.66559    418.78057    168.66642   -16021.025    15993.767    250.11415    38.432169 
174256000    289.63615    388.24252    356.20184   -16010.577    15997.863    32.040683    38.428473 
174260000    275.38582    412.64358    243.29208   -16005.259    16014.832     169.3515    38.436025 
174264000    282.93076    488.55986    230.53456   -16025.975    16015.115     258.0253    38.448762 
174268000    288.46596    174.01885    270.52044   -16038.113    16018.589   -96.501595    38.448195 
174272000    287.31767    369.04504    303.34604   -16049.013      16057.6    65.699001    38.456594 
174276000    266.94804    238.06555    490.45303   -16059.973    16072.974   -252.38748    38.452916 
174280000    291.74293    475.33423    300.32433   -16080.682    16085.258    175.00989    38.454331 
174284000    278.33478    468.63322    122.67651   -16074.205    16079.752    345.95671     38.46834 
174288000    275.31563    513.60904    411.59608   -16062.589    16069.496    102.01296    38.470482 
174292000    278.32945     359.9683    277.86012   -16075.869    16076.449     82.10818    38.474667 
174296000     271.1461    384.59776    643.24667   -16067.822    16078.578    -258.6489    38.479797 
174300000    250.72817    287.09285    307.28359   -16070.608    16078.472   -20.190735     38.48708 
174304000    287.83887    357.40913    359.31175   -16086.073    16084.195    -1.902624    38.475697 
174308000    264.74053    255.36983     200.4243   -16086.082     16097.91    54.945528    38.492107 
174312000    257.72712    443.70336    317.52515   -16097.251    16095.187     126.1782    38.487201 
174316000    268.50617    356.20062    223.40007   -16112.155    16090.612    132.80055    38.485716 
174320000    293.50854    330.69831    176.88119   -16092.696     16090.84    153.81712    38.487833 
174324000    272.72951    258.23261    179.54777   -16116.944    16104.828    78.684838    38.485786 
174328000    288.87461     231.9143    455.61327   -16112.744     16115.47   -223.69897    38.492088 
174332000     285.7193    350.86538    147.64318   -16116.509    16113.655     203.2222    38.473911 
174336000    274.75782    309.10231    289.44334   -16132.923     16142.04    19.658975     38.47912 
174340000    275.47252    413.70537    311.28224   -16126.592    16145.236    102.42313    38.487323 
174344000    270.98577    291.06927    475.65294   -16144.413    16152.246   -184.58367    38.505023 
174348000    270.64763    357.45375    438.05773   -16142.167    16156.645   -80.603971    38.524796 
174352000    268.90969    356.65588    193.01954   -16147.744     16166.62    163.63635    38.516207 
174356000    275.07603       584.66    304.74185   -16164.694    16159.164    279.91815    38.504403 
174360000    289.81996    309.01548    356.49877   -16169.402    16162.207   -47.483288    38.512939 
174364000    287.92128    283.96686    440.26241   -16168.039    16148.005   -156.29555    38.539391 
174368000    302.87941    215.53739    275.37578   -16186.336    16158.924   -59.838391    38.525747 
174372000    345.51955    630.74752    406.32423   -16200.679    16164.956     224.4233     38.52614 
174376000    321.76239    717.78237    479.87142   -16206.578    16171.855    237.91095    38.513407 
174380000    307.78205    259.67771    312.94647   -16214.418    16173.466   -53.268764    38.515085 
174384000    321.61873    299.93253    488.03442    -16209.54    16186.205   -188.10189    38.508777 
174388000    335.88559    590.79538    464.64232   -16231.946    16193.761    126.15306    38.497762 
174392000    286.88722    335.42538    107.80932   -16232.008    16214.821    227.61607     38.49656 
174396000    284.06995    482.94406    312.51689   -16232.422    16232.974    170.42717    38.492066 
174400000    272.16426    524.54733    300.99482   -16208.528    16218.196     223.5525    38.511851 
174404000    295.01239    314.51912    235.70682   -16209.655    16203.512    78.812299     38.53685 
174408000    299.61384    254.74225    332.72457   -16221.659    16203.719   -77.982322    38.541501 
174412000     290.4924    592.85887    320.44516   -16218.678    16207.109    272.41371    38.539265 
174416000    264.48797    397.96715    253.72535   -16213.854    16215.707    144.24181    38.523877 
174420000    287.66676    409.34785    281.76692   -16231.519    16223.861    127.58093    38.514331 
174424000    281.67005    323.69474    222.54105   -16245.221    16233.606    101.15369    38.536502 
174428000    292.27768    268.96929    240.95341   -16247.424    16246.497    28.015878    38.538415 
174432000    240.56559    396.44205    397.16331   -16232.171    16262.303  -0.72125834    38.506247 
174436000    274.12734    260.17292    201.82573   -16257.839    16253.665    58.347189    38.497014 
174440000    283.87173    425.30977    387.65259   -16249.784    16251.639     37.65718    38.502352 
174444000    305.88248    307.90954    259.87401   -16261.488    16240.435    48.035527    38.481486 
174448000    292.78239    488.00789    190.96754   -16286.399    16256.908    297.04035    38.487255 
174452000    291.52442    527.74321    410.52608    -16284.41    16281.123    117.21713    38.484952 
174456000    277.75254    371.14155    417.77665   -16280.634    16269.972   -46.635099    38.493656 
174460000    287.86181     187.5317    482.91374    -16280.52    16270.005   -295.38204    38.490752 
174464000    287.13517     197.7714    386.19177   -16290.786    16285.576   -188.42038    38.499707 
174468000    267.61973    371.71895    442.94452   -16296.604    16312.588   -71.225565    38.511304 
174472000    279.20962    318.56545     469.5129   -16311.811    16333.474   -150.94745    38.511621 
174476000     288.5482    639.13463    393.99126   -16339.991    16337.875    245.14338    38.497206 
174480000    285.62578    305.24346    279.03457   -16333.577    16341.741    26.208887    38.504198 
174484000    274.34189    342.57889    574.23489   -16348.755    16338.367     -231.656    38.501808 
174488000    258.03393    284.80893    476.41732   -16326.533    16354.183    -191.6084     38.51154 
174492000    229.00374    415.20593    296.65409   -16338.466    16369.469    118.55184    38.520994 
174496000    273.12399    323.11412    449.80778   -16352.702    16375.928   -126.69366    38.531222 
174500000    253.18546    166.77295    227.31384   -16371.323    16387.434   -60.540893    38.536862 
174504000    264.21249    292.25635    261.90159   -16380.173    16401.881    30.354758    38.539688 
174508000    280.71755    359.49996    219.68272   -16388.587    16398.555    139.81724    38.525124 
174512000    279.81569     475.9569    206.79704   -16412.122    16404.303    269.15986    38.519521 
174516000    297.45248    611.50701    385.87249   -16423.229    16421.577    225.63453    38.527109 
174520000    267.45779    242.00317    323.60426   -16412.576    16415.565   -81.601083    38.526107 
174524000    295.10029    264.89599     865.7464   -16412.842    16401.347   -600.85041    38.513739 
174528000    288.09603    509.47664    400.90232   -16426.234    16415.229    108.57432    38.506012 
174532000     282.0364    321.32018    653.29105   -16420.494    16424.255   -331.97087    38.487245 
174536000    297.61894    373.52544    207.77862   -16435.005     16442.98    165.74682    38.495812 
174540000    275.59203    172.40009    148.29013   -16443.688    16440.512    24.109958    38.491558 
174544000    267.66225    306.67396    282.45671   -16439.008    16460.137    24.217247     38.49937 
174548000     254.9722    397.93901    314.89618   -16446.669    16459.872    83.042824     38.50526 
174552000    285.36904    358.92993    545.58793   -16452.004    16454.804     -186.658    38.508569 
174556000    250.03427    204.14961    265.02405   -16453.302    16456.339   -60.874439    38.500871 
174560000    284.60936    238.81188    386.93103   -16452.829    16457.969   -148.11915    38.486864 
174564000    263.18709    242.24499    236.03057   -16465.776     16471.57    6.2144219    38.477149 
174568000    304.72364    348.84358     347.0402    -16484.19    16482.652    1.8033779    38.474529 
174572000    264.11553    364.43176    188.40637    -16481.28    16491.817     176.0254    38.483826 
174576000    309.09532    303.91125    226.12739   -16505.991    16511.486    77.783865    38.486278 
174580000    293.79401    428.91564     328.6196   -16533.048    16525.136    100.29604    38.497375 
174584000    281.68604    299.84132    307.04841   -16562.831    16541.152   -7.2070908    38.502571 
174588000    298.85968    355.73018    474.45114   -16555.306    16546.268   -118.72095    38.490562 
174592000    270.90181    297.46028    443.93555   -16552.307    16560.701   -146.47527    38.469169 
174596000     277.3947    231.33756     303.9015   -16558.007     16547.44   -72.563946    38.488509 
174600000    308.61552    259.10341    331.62109   -16560.909    16543.002   -72.517677    38.482731 
174604000     271.4023    401.38724     410.0746   -16553.374    16546.081   -8.6873605    38.495328 
174608000    280.66119    179.38711    356.86665   -16556.958    16555.539   -177.47954    38.484311 
174612000     272.0767    345.14772    378.34157    -16569.49    16569.953   -33.193842    38.483866 
174616000    303.37918    465.96979    341.26609   -16583.138    16578.576     124.7037    38.476231 
174620000    295.14995    323.35331    303.46774   -16593.679    16588.357    19.885561    38.478808 
174624000    266.12333    408.66353    268.24883   -16600.575    16596.513     140.4147    38.476164 
174628000    299.78629    271.65142     424.4949   -16622.085    16604.931   -152.84347    38.471791 
174632000    282.13362    400.88446    350.55572   -16641.778    16641.736    50.328745    38.480456 
174636000    290.09947    241.41749    307.78291   -16652.432    16661.791   -66.365425     38.48952 
174640000     277.9959    410.67284    328.24026   -16663.441    16669.488    82.432582    38.495562 
174644000    285.33643    415.29569    259.47578   -16660.484    16681.725     155.8199    38.500564 
174648000    272.60573    464.55769    224.74645   -16669.689    16680.243    239.81124    38.507791 
174652000    258.34744    492.20081    463.17438   -16662.801    16689.141    29.026424    38.520958 
174656000    281.29764    295.09825    487.63679    -16669.21    16681.245   -192.53854    38.527139 
174660000    259.87168    244.34824    295.33085   -16682.439    16687.732   -50.982613    38.530984 
174664000    292.94089     180.8343    349.31904   -16673.422    16682.789   -168.48474    38.500229 
174668000    273.22663    255.14066    346.12988   -16685.329    16683.489   -90.989219    38.485391 
174672000    280.15849    492.62519    223.31345   -16709.225    16693.047    269.31174    38.475981 
174676000    284.78533    373.81318    349.68138   -16713.168     16697.03    24.131801    38.483673 
174680000    285.02098    434.61212    471.18169   -16713.761    16711.201   -36.569562    38.478923 
174684000    289.30469    391.53346    218.82433   -16713.506    16720.306    172.70913    38.476164 
174688000    284.66148    491.83393    305.50312   -16710.184    16715.544    186.33082    38.470463 
174692000     309.6631    482.42922    306.87648   -16714.433    16710.205    175.55275    38.489866 
174696000    253.11587    317.45523    197.06575   -16706.831    16714.917    120.38947    38.514003 
174700000    288.58139    443.51807    322.93853   -16720.242    16719.465    120.57954    38.508315 
174704000    259.60907    343.32817    316.15945    -16691.17    16728.303    27.168723    38.503172 
174708000    261.91253     319.6106    319.69592    -16700.52    16718.093 -0.085317144     38.52332 
174712000    279.08865    422.33865    241.13009   -16708.852    16712.661    181.20856    38.528076 
174716000    291.99531    98.071042    604.78666   -16709.573    16720.794   -506.71562    38.507038 
174720000    295.02016    792.52364    207.88326   -16734.058    16720.601    584.64039    38.506595 
174724000    275.94401    151.89724    309.91488   -16739.914    16717.144   -158.01764    38.514303 
174728000     276.8848    288.10541    453.13979   -16722.076    16725.708   -165.03438    38.514657 
174732000    293.46801    445.77982    264.36095   -16721.256    16723.865    181.41887    38.506267 
174736000    261.28923    559.98518    259.84967   -16736.126     16736.51     300.1355     38.50554 
174740000    295.54219    365.90771    222.10964   -16754.108    16740.708    143.79806    38.513076 
174744000    300.04084    312.61047    446.49813   -16752.125    16734.984   -133.88765    38.498835 
174748000    303.33814    415.19301    553.27269   -16754.329    16740.704   -138.07969    38.495352 
174752000      283.091     286.3407    298.18056   -16746.791    16746.599   -11.839858    38.512241 
174756000    287.83343    384.66086    236.61537   -16745.235    16743.735    148.04549    38.498942 
174760000      308.778    353.12111     335.1251   -16776.262    16737.563     17.99601    38.490103 
174764000    299.19312    477.25255    341.63204   -16798.516    16776.937     135.6205    38.477047 
174768000    271.72343    215.45368    675.38973   -16785.234    16777.952   -459.93605    38.469591 
174772000    287.82348    415.18065    453.98338   -16795.132    16789.659   -38.802727    38.453278 
174776000    296.38734    344.58443    446.85615   -16786.329    16788.842   -102.27171    38.447222 
174780000    267.07472    542.59764    298.30429   -16789.703    16793.574    244.29335    38.451908 
174784000    256.25012    449.86471    377.15681   -16793.971    16810.246    72.707908    38.448097 
174788000     268.8884    296.95033    602.52661   -16794.807    16797.763   -305.57628    38.433537 
174792000    268.23863    532.42384    344.73641   -16805.853    16805.263    187.68743     38.42895 
174796000    273.79434    271.66548    342.12246   -16811.665    16819.929   -70.456979     38.43047 
174800000    284.53008    317.28875     280.4256   -16830.073    16826.309    36.863158    38.415642 
174804000    301.02776    654.15646    285.57883   -16849.585    16832.318    368.57763     38.43077 
174808000    316.36565    299.66305    375.80275   -16841.564    16827.914   -76.139693    38.451167 
174812000    294.90656    297.63585    431.91805   -16848.092    16831.398    -134.2822    38.451584 
174816000    338.88611    596.40628    295.81961   -16879.277    16851.622    300.58666     38.44076 
174820000    298.50531    382.21825    240.03585   -16888.236    16854.713     142.1824    38.436933 
174824000    286.69577    417.41554    326.46112   -16875.736    16882.967    90.954422    38.451775 
174828000    261.80009    515.23422    259.21562   -16888.276    16892.237     256.0186    38.468622 
174832000    259.34755    262.40853    231.30718   -16876.473    16885.308    31.101346    38.471999 
174836000    277.89014    431.66097    441.15004   -16901.071     16893.69   -9.4890635    38.469078 
174840000    303.40718    381.19315     616.3678   -16921.523    16894.687   -235.17466    38.480871 
174844000    276.01227    460.59368    200.02745   -16906.186    16905.955    260.56623    38.491557 
174848000    260.63582    313.64845    309.49145   -16886.934    16899.876    4.1570009    38.492117 
174852000    290.91996    512.25599    472.70595   -16926.352    16909.194    39.550042    38.487342 
174856000    281.00591    301.49373    315.35084   -16925.898    16925.501   -13.857107    38.494001 
174860000    277.20161    643.22622    354.87334   -16933.583     16918.23    288.35287    38.482816 
174864000    272.49997    157.23428    240.93679   -16927.949    16927.982   -83.702504    38.475938 
174868000     267.4917    197.06241    299.53472   -16933.736    16929.533    -102.4723    38.457136 
174872000    271.61188     425.1561    194.80174   -16949.544    16951.573    230.35436    38.460692 
174876000    267.89543    352.21853    401.33846   -16947.101    16973.302   -49.119925    38.464475 
174880000    294.95014    454.24885    139.53832   -16969.585    16972.827    314.71053     38.46227 
174884000    279.74299    398.34524    398.68187   -16982.986    16974.243  -0.33663709     38.46484 
174888000    257.31116    269.37079    322.01074   -16988.944    17013.315   -52.639948    38.460768 
174892000    285.98366    363.24193    282.00263   -17008.098    16996.331    81.239297     38.45896 
174896000     281.3376    390.04102    223.48211   -17009.968    17000.444    166.55891    38.466989 
174900000    312.01055     448.4273    502.68299   -17035.321     17010.94   -54.255694    38.478621 
174904000    307.48029    349.72707      357.529   -17049.326    17034.422   -7.8019388    38.495913 
174908000    284.90062    336.84137    355.04057   -17056.148    17056.703   -18.199196    38.485367 
174912000    276.73074    335.56839    296.09838   -17063.696    17062.831    39.470003    38.480839 
174916000    301.35406    205.62244    225.13486   -17076.319    17054.023   -19.512419    38.489028 
174920000    251.46389    195.20875    383.74685   -17070.767    17074.118    -188.5381    38.510554 
174924000    266.64358    104.62687    316.26955   -17071.066    17068.982   -211.64268    38.517356 
174928000    284.47488    432.34501    435.59997   -17093.588    17091.488    -3.254964     38.53889 
174932000     293.7526    342.46586    305.42003   -17122.719    17117.761    37.045835      38.5397 
174936000    295.82243    620.34505    391.92837   -17142.156    17115.035    228.41668    38.538698 
174940000    252.25273    170.07101    269.91944   -17119.753    17134.689   -99.848428    38.529423 
174944000    286.40781    446.03069    362.57567   -17137.879    17135.201    83.455025    38.533321 
174948000    278.35502    173.94449     277.1554   -17131.762    17137.219   -103.21091    38.509183 
174952000    313.50437    431.45448    309.76452   -17152.923    17136.311    121.68997    38.524311 
174956000    303.94011     248.9344    368.29169   -17152.739    17131.688   -119.35728    38.518438 
174960000    288.96921     316.3234    268.28682    -17167.81    17157.803    48.036584    38.530911 
174964000    284.74693    196.97213    324.12026   -17150.051    17166.839   -127.14813    38.534382 
174968000    292.76453    200.03326    237.58037   -17182.112    17166.134   -37.547114    38.553333 
174972000    285.95065    473.91037    519.80733   -17183.731    17178.642   -45.896962     38.53793 
174976000    276.04221    474.14588    203.18351   -17183.708    17198.706    270.96237    38.550364 
174980000    316.49694    532.83104    342.87409   -17188.816    17185.358    189.95696    38.574493 
174984000    269.08344    429.17236    233.08759   -17198.106     17191.78    196.08476    38.581885 
174988000    263.91504     198.6416    418.61301   -17183.917    17195.545    -219.9714    38.569881 
174992000    287.69452    486.36989    373.39774   -17203.884    17193.897    112.97216    38.552598 
174996000    274.61741    549.85991    406.28863   -17198.798    17211.002    143.57128    38.547125 
175000000    270.11749    399.55781      426.943   -17215.197    17217.676   -27.385195    38.538226 
175004000    264.42121    372.26963    112.32572   -17235.175    17234.155    259.94391    38.538296 
175008000    283.20676    351.51739    321.22721   -17235.615    17232.231    30.290187     38.55671 
175012000    264.77921    177.47443    276.72035    -17236.72    17252.112   -99.245918     38.54786 
175016000    289.63997    593.32023    523.69985   -17254.185    17250.841    69.620379    38.545395 
175020000    276.62989    499.19856    178.23538   -17285.568    17260.684    320.96318    38.550948 
175024000    274.57621    223.04269     218.4647    -17269.42    17261.189    4.5779941    38.559177 
175028000    290.50654    453.07562     503.9054   -17281.226    17285.895   -50.829776    38.561673 
175032000    290.41336    332.86367    489.78009   -17279.998    17287.423   -156.91642    38.582811 
175036000    292.55445     389.6158    380.67947   -17284.218    17281.417     8.936328    38.556657 
175040000    302.23065    383.71689    358.96307   -17291.615    17290.112    24.753818    38.580321 
175044000    310.81147    302.66844    326.42599   -17303.479    17288.146   -23.757558    38.564322 
175048000    292.40046    491.71646    377.77053   -17304.149     17292.62    113.94593      38.5553 
175052000    289.58213    293.89539    220.24239   -17310.162    17320.163    73.652993    38.550586 
175056000    257.95373      208.134     382.2056   -17303.145    17319.309    -174.0716     38.55816 
175060000    273.68159    256.43311    283.75862   -17308.465    17316.687   -27.325515    38.548101 
175064000    268.46799    138.28361     349.4301   -17303.261    17320.043   -211.14649    38.548604 
175068000    295.04982    261.98344     246.3707   -17325.547     17305.61     15.61274    38.529847 
175072000    259.33519    334.20498     289.7139   -17317.291    17319.772    44.491083    38.543713 
175076000    272.71456    333.53389    505.07112   -17309.483     17327.36   -171.53723    38.564732 
175080000    274.71511    263.42029    310.16412   -17324.707    17329.055   -46.743825    38.565499 
175084000    272.00254    549.65015    283.64513   -17339.799    17340.567    266.00502    38.569606 
175088000    283.23543    497.73558    241.46766   -17339.979     17351.74    256.26793    38.572144 
175092000    297.28731    252.46707    460.77967   -17351.612    17347.227   -208.31261    38.586845 
175096000    291.16503    496.66841    348.53579   -17357.851    17346.744    148.13262    38.602125 
175100000    273.15979    568.08425     326.5962   -17353.354    17344.705    241.48804    38.595878 
175104000    304.23602    932.05416     401.6673   -17362.876    17354.248    530.38686    38.603556 
175108000    268.53223    411.66623    280.42746   -17373.577    17366.313    131.23877    38.599896 
175112000     293.3675    340.15137    229.74887    -17387.13    17376.437     110.4025    38.594096 
175116000    289.57949    372.08899    412.77524     -17396.1    17377.882   -40.686251    38.613608 
175120000    298.07889    631.57738    284.21195   -17390.738    17369.342    347.36543    38.592982 
175124000    303.17008    391.76315    235.30119   -17385.762    17379.869    156.46196    38.617231 
175128000    267.99103    350.85017    255.51018   -17401.508    17381.444    95.339986    38.616679 
175132000    261.75649    482.63593    213.21582   -17407.044    17398.834    269.42011    38.623483 
175136000    296.04664    247.51303    419.37289   -17414.517    17396.673   -171.85986    38.614412 
175140000     295.1258    495.54672    402.31994   -17408.023    17407.135    93.226783    38.627839 
175144000     271.9446    230.14921      231.813   -17399.837    17413.686   -1.6637927    38.621069 
175148000    260.73233    283.58636    351.32971   -17410.194    17427.539   -67.743357    38.609848 
175152000    263.86219    180.65482    473.97757   -17416.426    17422.337   -293.32275    38.588723 
175156000    287.35737    527.59723    346.35666   -17431.627    17411.921    181.24057    38.595747 
175160000    250.42978    398.82914    206.06414   -17428.523    17428.578    192.76499    38.578895 
175164000    315.59723    344.01796    328.65946     -17447.9    17426.645    15.358495    38.571353 
175168000    266.39565    569.64652     249.4656   -17443.115     17436.92    320.18092    38.583985 
175172000    265.19428     450.2821     278.9119   -17446.683    17440.697     171.3702    38.599934 
175176000    290.04277    392.83897    410.19821   -17447.193    17446.389   -17.359246    38.606583 
175180000    284.84109    774.53675    476.93376   -17460.869    17469.535    297.60299    38.603178 
175184000    275.46156    528.34421    312.65597   -17477.896     17483.72    215.68824    38.601169 
175188000    276.11321    323.34434    522.17472   -17477.081     17489.28   -198.83037    38.600454 
175192000     242.4197    508.79299    174.47845   -17478.959    17513.124    334.31454    38.606443 
175196000    284.00037    376.20367    142.58153    -17501.17    17518.027    233.62214      38.6139 
175200000    277.64404    420.38561    289.46781   -17506.049    17519.865     130.9178    38.629827 
175204000    275.81052    231.02761     280.1896   -17513.948    17532.266    -49.16199     38.62425 
175208000    278.40755     213.6467    195.88118   -17538.493    17541.145    17.765523    38.631761 
175212000    275.51162    226.81978    416.71643   -17529.529    17539.656   -189.89665    38.627253 
175216000    282.81625    342.79331    570.04244   -17559.996     17564.02   -227.24913    38.635257 
175220000    275.67324    608.67072    315.31496    -17554.91    17556.484    293.35576    38.641351 
175224000    294.96857    364.46575    626.73577   -17563.071    17558.954   -262.27002    38.642456 
175228000    284.48087    290.55999    439.84238   -17580.206    17576.897   -149.28239    38.662434 
175232000    294.16949    474.36107    160.78314   -17592.589    17602.066    313.57793    38.666009 
175236000    261.06636    365.15118    234.44315   -17600.892    17603.654    130.70803    38.673145 
175240000    286.32154    305.55331    244.07158   -17619.662    17603.461    61.481734    38.667484 
175244000     282.9184    383.37476    209.26207   -17618.018    17618.031    174.11269    38.661797 
175248000    291.95033    318.13736    382.96731   -17635.695     17621.75   -64.829951    38.670403 
175252000    263.21488    190.80967     268.3261    -17649.73    17662.034   -77.516429    38.652735 
175256000    290.70049    467.07116    430.04611   -17674.572    17667.344    37.025048    38.646933 
175260000    301.47308    416.84752    367.44252   -17680.394    17662.353    49.404993    38.644357 
175264000    282.22405    366.43036    209.48572   -17692.892    17677.028    156.94464    38.645489 
175268000     275.7111     282.2209    485.10001   -17672.824    17680.164   -202.87911    38.647901 
175272000    272.52357    401.93709    253.88283   -17677.729    17684.138    148.05426    38.649988 
175276000    270.63165    509.44145    269.84866   -17681.614    17678.651    239.59279    38.670689 
175280000    302.04771    375.50116    236.13972   -17678.587    17664.201    139.36144    38.671625 
175284000     277.9456    491.24564    201.44306   -17677.142    17672.903    289.80258     38.66538 
175288000    262.24908    364.94727    153.03258   -17688.705    17696.064    211.91469    38.660604 
175292000    288.64494    349.54832    318.52849   -17690.372    17688.491    31.019827    38.663188 
175296000    292.80558    229.36854    575.85272   -17699.471    17686.993   -346.48418    38.649723 
175300000    294.76702    591.45143    501.26205   -17712.789    17697.917     90.18938    38.645059 
175304000    282.49635    317.58765    343.52587   -17715.332    17700.247   -25.938224    38.658734 
175308000    276.45773    282.91251    329.81065   -17726.435    17725.044   -46.898142    38.660356 
175312000    272.06689    342.78665    379.06395   -17735.797    17724.254   -36.277301    38.646714 
175316000    298.54541    358.07596    311.32711   -17726.988    17726.294    46.748852    38.641803 
175320000    289.25635    213.12622    275.61519   -17745.885    17750.473   -62.488975    38.640212 
175324000    296.42128    223.71035    258.16246   -17769.957    17760.202   -34.452102    38.629994 
175328000     299.4251     190.7323    528.52835   -17786.411    17761.542   -337.79605    38.610609 
175332000    273.10176    209.63448    299.61348   -17773.463    17761.115      -89.979    38.596431 
175336000    265.76784    459.94212    369.70085   -17768.155    17786.217     90.24127     38.58859 
175340000    315.08808    564.21024    315.55908   -17815.005     17789.62    248.65116    38.580242 
175344000    274.41398    199.79775    236.83274   -17803.716    17808.094   -37.034991     38.58156 
175348000    254.24878    204.18495    174.57378   -17803.789    17818.322     29.61117    38.582522 
175352000    286.90638    333.41417    352.67809   -17811.312     17814.09   -19.263925    38.588378 
175356000    266.90579    349.12732    512.84835   -17802.018    17817.356   -163.72103    38.576354 
175360000    264.09607    379.45944    322.73649   -17801.713    17809.656    56.722945    38.570362 
175364000    291.97082    307.29932    143.13985   -17813.991    17807.306    164.15947    38.551999 
175368000    275.22244    241.37731    459.59167   -17799.064    17806.597   -218.21436    38.554325 
175372000    258.80608    246.65062    484.25906   -17812.542    17819.823   -237.60844    38.553136 
175376000    282.07126    375.53412    166.61286   -17812.825    17820.325    208.92126    38.550025 
175380000     266.0639    275.51783    310.32558   -17814.268    17832.875   -34.807754    38.554649 
175384000    275.83846    342.58164    645.76845   -17824.636    17836.584    -303.1868    38.562089 
175388000    289.52639     358.3113    360.76125   -17826.576    17829.954    -2.449945     38.56266 
175392000    264.04772    355.84151    183.98457   -17821.892    17840.362    171.85695     38.56314 
175396000    301.69334    289.18007    259.65701   -17824.347    17826.125    29.523055    38.560444 
175400000    282.53105    349.48138    290.22696    -17840.51    17842.492    59.254419    38.565493 
175404000    301.58241    413.17161    466.00698   -17855.462    17860.111   -52.835366    38.574027 
175408000    319.04676     466.6285     235.8825   -17870.181    17856.799    230.74599     38.55846 
175412000    307.11878    391.60187     182.1728   -17887.588    17853.219    209.42907    38.570104 
175416000    294.94334    340.19588    350.63032    -17892.72    17857.069    -10.43444    38.570574 
175420000    301.37408    420.09843    253.92238   -17898.201    17879.575    166.17605    38.546233 
175424000     289.9093     407.6878    489.50485   -17895.411    17887.085   -81.817055    38.539201 
175428000    265.11884    195.75887    205.21261   -17911.847    17922.309   -9.4537346    38.528456 
175432000    284.83957    278.02949     402.7407   -17930.204    17923.908    -124.7112    38.502128 
175436000     270.7866    618.07965     307.2946   -17934.435    17937.652    310.78505    38.509199 
175440000    290.33421    367.20049    668.66296   -17940.973    17928.317   -301.46247    38.514301 
175444000    309.74704    290.79032    265.98142   -17972.419    17930.425    24.808906    38.512879 
175448000    312.76653    232.14601    344.83116   -17977.473    17943.966   -112.68515    38.512775 
175452000    280.20772    337.31631    302.09035   -17956.805    17969.792     35.22596    38.504519 
175456000    283.56187    421.44054     273.2686   -17964.061    17968.753    148.17194    38.516355 
175460000    278.91554    344.97425    252.74645   -17979.041    17977.546    92.227797    38.515743 
175464000    278.76483     459.2655    266.64832   -17986.901    17979.708    192.61718    38.537136 
175468000    299.83405    491.96425    394.83207   -17985.338    17972.398    97.132184    38.540856 
175472000    313.00793    536.76404    483.39105   -18004.279    17977.293     53.37299    38.548816 
175476000    291.34137    300.35973    303.72024   -18006.977    17998.977   -3.3605145    38.545451 
175480000    284.67319     408.5829    404.57957   -18007.316    18009.723    4.0033297    38.543837 
175484000    270.87622    424.43374    445.31445   -18011.481    18018.976   -20.880713    38.544856 
175488000    281.52239    281.60123    299.85963   -18018.996    18006.738   -18.258394    38.552301 
175492000    263.44892    172.49778    329.43514   -18020.846    18033.952   -156.93735    38.558271 
175496000    280.52634     491.2449    309.11266   -18043.765    18032.311    182.13224    38.565863 
175500000    283.66253    359.37403    389.18426   -18047.499    18032.342   -29.810226    38.562083 
175504000    278.46616    258.57184    327.91388    -18050.59    18057.596   -69.342033    38.560969 
175508000    291.01025    235.96582    356.42871   -18075.156    18068.061   -120.46289    38.561447 
175512000    262.13963    289.57688    472.39784   -18080.092    18091.074   -182.82096    38.560036 
175516000    302.29827    359.59001    106.65988   -18122.609    18112.342    252.93013    38.550387 
175520000    299.54147    386.80793    420.83776   -18144.404    18118.505   -34.029829    38.550124 
175524000     308.7195     388.0802     355.4627   -18152.516    18126.233    32.617494    38.539952 
175528000    289.58852    514.13351    382.07302   -18148.228    18147.723    132.06049    38.547004 
175532000    278.40724    294.80548    188.93913   -18175.285    18174.395    105.86635    38.533416 
175536000    284.33146    361.98253    531.87413   -18174.617    18180.752   -169.89161     38.52884 
175540000     272.4374    315.76227    205.50194   -18179.782    18200.021    110.26033    38.522767 
175544000    283.75398    489.33827    360.79211    -18189.91    18195.858    128.54616     38.53278 
175548000    263.87175    228.27439    208.97688   -18196.385    18202.195    19.297513    38.532114 
175552000    284.34484    192.73487    411.11772   -18211.055    18193.545   -218.38285    38.534622 
175556000    280.11531    338.05503    179.01331   -18217.248    18222.899    159.04173    38.537217 
175560000    261.06315    390.90015    163.56393   -18207.646    18229.969    227.33622    38.547161 
175564000    290.34562    331.89101    461.57288   -18222.181    18226.618   -129.68187    38.538802 
175568000    274.25025    262.98644    427.68053   -18240.643    18233.239   -164.69409     38.53651 
175572000    305.89482    444.41304    321.15842   -18249.943    18235.854    123.25461     38.55644 
175576000    305.87917    522.26576    195.99888   -18256.637     18243.14    326.26688    38.562425 
175580000    281.02935    443.64346    263.89301    -18253.95    18232.006    179.75045    38.553846 
175584000    270.85353    641.38313    297.62536   -18246.168    18241.447    343.75778    38.543154 
175588000     301.2347    510.62742    347.20699   -18242.584    18235.034    163.42043    38.545043 
175592000    289.94417     408.8464    346.49506   -18248.264    18244.507    62.351335    38.544739 
175596000    278.39272     328.1234       213.09   -18241.481    18250.264     115.0334     38.56358 
175600000    254.90927    277.05981    267.60629     -18245.1    18275.474    9.4535203    38.553435 
175604000    283.34312    604.51768    240.51261   -18263.362    18264.972    364.00507    38.565289 
175608000     282.0421    438.97515    309.18423    -18273.36    18271.642    129.79092    38.553267 
175612000    268.06449     125.9521    221.19332   -18276.942    18288.933    -95.24122     38.55147 
175616000    256.02112    514.49199    319.23978   -18283.272    18306.529    195.25221    38.565975 
175620000    269.57988    358.79029     328.4764   -18290.146    18296.153    30.313893    38.579542 
175624000    268.20222    509.68935    468.57855   -18301.021    18302.291    41.110807    38.571687 
175628000    279.94777    298.60425    226.43414   -18308.997    18318.584    72.170104    38.562466 
175632000    288.39032    339.83391    327.38806    -18306.14    18307.711    12.445849    38.551934 
175636000    270.54729     406.4113    314.87125   -18326.863    18325.077    91.540046    38.560272 
175640000    274.14546    467.43621    400.46606   -18323.592    18312.955    66.970149    38.551605 
175644000    251.83189    259.36989    147.78297    -18312.93    18336.109    111.58692    38.560693 
175648000    290.29458    335.38981    435.37058   -18334.986    18331.277   -99.980769    38.562859 
175652000    249.42276    398.72051    201.57801   -18324.878    18357.595     197.1425    38.558054 
175656000    309.77674    382.47368    261.78171   -18366.834    18354.549    120.69196    38.575287 
175660000    282.57669    462.92851    259.62244   -18356.538    18358.823    203.30606    38.575305 
175664000    277.52229    632.66606    267.10642   -18377.033    18372.698    365.55965    38.578275 
175668000     273.2849    304.73283    379.86479   -18366.842    18380.675   -75.131963    38.571911 
175672000    262.29963    420.57113    288.06553   -18402.735    18405.253    132.50561    38.585532 
175676000    269.33848    266.08515     331.7752   -18407.478     18414.49   -65.690055    38.584975 
175680000    264.22407    159.76413    341.28056   -18399.768    18410.027   -181.51643     38.58419 
175684000    256.54835    328.86712    387.24142   -18408.882    18420.794   -58.374305    38.592042 
175688000    254.47652    221.52771    308.55424   -18431.196    18428.518   -87.026535    38.595935 
175692000    281.52473    313.71176    261.17985   -18437.566    18445.086     52.53191    38.604221 
175696000    286.97984    395.01352    212.04949   -18453.019     18452.09    182.96403    38.609534 
175700000    305.61807    514.60954     319.1849   -18455.492    18445.799    195.42463    38.603695 
175704000    287.75388    205.67083    350.65667   -18445.545    18439.168   -144.98584    38.599391 
175708000    288.00833    366.43058     263.0493   -18442.912    18439.597    103.38128    38.600952 
175712000    291.02242    332.75683    301.91866   -18456.785    18452.514    30.838167    38.616494 
175716000    261.40449    316.95655    187.64446   -18456.939    18465.965    129.31209    38.619498 
175720000    258.00082    353.66635    279.17342   -18459.206    18472.535    74.492934    38.625965 
175724000    269.61468    273.29871    488.79062   -18473.942    18480.149   -215.49191    38.605387 
175728000    245.44817    218.36994     257.2477   -18471.932    18479.748    -38.87776    38.608568 
175732000    290.37356    643.14143    645.15055   -18467.148    18465.403   -2.0091135    38.606321 
175736000    298.80609    317.90318    330.08909   -18483.865     18475.88   -12.185912    38.595522 
175740000    263.55862    339.60477    207.79305   -18488.438    18487.799    131.81172    38.591913 
175744000    284.99673    496.63565    300.31892   -18506.149    18483.373    196.31673    38.587667 
175748000    270.76858    279.02601    417.98039   -18472.256    18490.284   -138.95438    38.583903 
175752000    294.71418    239.67822    430.27826   -18493.424        18485   -190.60004    38.563792 
175756000    313.84614    736.34151    383.52723   -18517.845    18483.252    352.81429    38.550044 
175760000    286.25417     429.0731    390.37188   -18519.337    18484.423    38.701222    38.548732 
175764000    276.46201    350.94876    316.56066   -18509.538    18500.006    34.388102     38.53912 
175768000    273.63427    490.71029    309.58461   -18510.998     18515.56    181.12568    38.563424 
175772000    299.67356    193.07165    239.94287   -18531.716    18514.624   -46.871227    38.558204 
175776000    318.96109    223.13158     285.7886   -18542.449    18514.111    -62.65702    38.563111 
175780000     300.1118    340.95687    230.27225   -18540.918    18522.891    110.68462     38.58219 
175784000    285.21944    344.71644    358.41045   -18524.562    18524.267   -13.694006    38.594262 
175788000    287.11784    419.58565    333.43553    -18523.93    18520.701    86.150124    38.587605 
175792000    290.83275    322.32241    364.39093   -18525.908    18522.002   -42.068521    38.582378 
175796000    279.75908    394.73186    390.25159   -18542.183    18548.445     4.480266    38.576002 
175800000    263.78266    183.70858    270.36191   -18553.713    18563.134   -86.653324    38.563301 
175804000    296.80801    265.19716    411.04191   -18570.679    18568.801   -145.84475    38.564972 
175808000    263.62515    176.08338    438.87855   -18582.238    18587.129   -262.79517    38.567751 
175812000    293.50352    694.07595    338.04092   -18599.641    18589.704    356.03503    38.574929 
175816000    269.18926    244.02054    257.02771   -18587.613    18582.402   -13.007173    38.576347 
175820000    294.08368    651.54997    199.79038   -18606.126    18603.747    451.75959    38.582489 
175824000    278.27841    295.04857     368.4323   -18606.751    18620.063    -73.38373    38.587274 
175828000      298.095    225.61638      469.424   -18624.494    18622.572   -243.80762    38.581277 
175832000    285.23832    418.40138    303.27884   -18638.493     18645.57    115.12254    38.582704 
175836000    259.69439    476.19909    480.82274   -18627.735    18641.789   -4.6236458    38.585224 
175840000    297.45927    434.37155    196.49017   -18643.016    18634.279    237.88139    38.589428 
175844000    272.37071    543.55244    254.87365   -18630.525    18636.535    288.67878    38.600631 
175848000    278.29724    342.79303    305.16899   -18656.928    18652.477    37.624047    38.601694 
175852000    277.45525    246.38498     161.1614   -18651.422    18662.747    85.223588    38.589764 
175856000    258.55956    389.22125    378.14511   -18651.189    18675.535    11.076139    38.583141 
175860000    254.14759    293.64061    176.73608   -18659.287    18669.136    116.90453    38.584416 
175864000    292.46005    606.94452    331.80832   -18670.198    18670.216    275.13621    38.576256 
175868000    292.47071    471.41681    265.96381   -18677.176    18663.593      205.453    38.581451 
175872000    289.17153    385.80253    473.81182   -18682.632    18662.153   -88.009298    38.579158 
175876000    288.24585    527.86601    614.22464   -18696.704    18685.334   -86.358627     38.56787 
175880000    295.77405    572.85082    288.17967   -18704.645    18688.493    284.67115    38.578708 
175884000    273.27803    343.92932    294.19868   -18699.522    18703.505    49.730647    38.582031 
175888000    285.76139    396.74143    278.67266   -18700.855    18717.817    118.06877    38.587589 
175892000    262.83175    482.40282    265.61356   -18701.855    18724.711    216.78925    38.599746 
175896000    263.10963    296.34415    394.56342   -18707.204    18720.806   -98.219265    38.586984 
175900000    304.79477    512.35519    340.01264   -18728.198    18716.195    172.34255    38.556931 
175904000    273.96488    181.10533    466.02555   -18717.106      18724.1   -284.92022    38.559544 
175908000    277.07255    194.16141    214.70192   -18736.469    18732.238   -20.540511    38.559403 
175912000    279.57074    436.23329     349.7407   -18742.574    18730.136    86.492594    38.547098 
175916000    273.19782    305.08986    308.93185   -18746.265    18745.973   -3.8419921    38.541836 
175920000    293.20213    554.00286    322.02921   -18746.115    18750.929    231.97365    38.541564 
175924000    267.69413    351.11578    400.28877   -18758.232     18762.15   -49.172996     38.52578 
175928000    279.73109    525.28076    265.99781   -18764.409    18756.239    259.28295    38.522254 
175932000    272.90343    466.23135    289.85975   -18765.174    18768.432    176.37159    38.545999 
175936000    254.49767    478.40867    333.25115   -18780.163    18784.235    145.15752    38.548253 
175940000    283.48797    200.83585    267.09743   -18786.253    18774.099    -66.26158    38.563098 
175944000     303.2008    283.65402    608.87663   -18800.201    18790.378   -325.22262    38.562076 
175948000    279.24787    374.74369    289.65366   -18833.859    18799.193    85.090035    38.556967 
175952000    308.59918    573.01376    372.34337   -18804.241    18777.777    200.67039    38.545406 
175956000    306.58877     348.9531    254.44278   -18813.435    18777.405    94.510318    38.549919 
175960000    299.54875     246.8879    126.82633   -18808.054    18790.513    120.06157    38.558981 
175964000    315.84975    515.72784      396.428    -18831.17    18813.213    119.29983    38.542693 
175968000    263.11878    541.82251    219.99143    -18818.56    18835.166    321.83108    38.542758 
175972000    279.75318    194.97387    288.25965   -18832.937    18836.366   -93.285782    38.532628 
175976000    308.99432    415.24892    219.84633   -18853.048    18818.464    195.40259    38.537254 
175980000    274.83369    418.66855    290.78113   -18866.198    18852.137    127.88741    38.553262 
175984000     270.4453    345.24281    245.49107   -18875.404    18877.404    99.751738    38.555689 
175988000    297.26834    420.45984    212.58996   -18907.393    18887.369    207.86989    38.556677 
175992000    290.36059    529.04446     377.3136   -18916.618    18891.398    151.73086     38.58098 
175996000    270.16088    193.21158    210.58411   -18889.659     18895.94   -17.372523     38.57996 
176000000    266.30772    334.69105    381.86843   -18885.211    18901.757   -47.177376    38.582695 
176004000    301.40932    334.99164    301.04315   -18894.094    18892.027    33.948493    38.583118 
176008000    280.88717    531.80021    389.49085   -18914.505    18902.299    142.30936    38.577547 
176012000     274.1721    490.19023     636.1841   -18900.419    18912.347   -145.99387    38.576267 
176016000    246.39041    435.68813    209.63011    -18908.02     18931.31    226.05802    38.581327 
176020000    271.64453    427.01896    384.70832   -18938.007     18947.49    42.310639    38.583345 
176024000    261.27369    440.73732    302.90519   -18920.784    18941.683    137.83213    38.594469 
176028000    273.43208    540.36993    297.10073   -18942.155    18946.109     243.2692    38.595378 
176032000    305.38728    414.18234    230.92459   -18960.416    18959.049    183.25775    38.606793 
176036000    265.29488    316.40712    200.61142   -18965.842    18963.699    115.79569    38.614715 
176040000      269.563    392.65816    152.57816   -18965.678    18967.488       240.08    38.610436 
176044000     280.6766     324.2656      335.423   -18971.219    18964.736   -11.157398    38.626958 
176048000    280.25198    392.51606    474.88485   -18979.921    18986.199   -82.368785    38.606421 
176052000    270.58195    555.21081    230.74349   -18977.449    18989.551    324.46732    38.610245 
176056000     281.6641    243.67659    307.71035   -18993.617     18983.72   -64.033753    38.595929 
176060000    293.89358     452.1568     344.9947   -19005.684    18990.504     107.1621    38.593632 
176064000    277.75243    506.30852     309.2746   -19010.738    19001.842    197.03392    38.581341 
176068000    283.89507     497.3597    346.77932   -19001.761    19004.523    150.58039    38.583665 
176072000    264.02276    475.00912     278.0669   -18991.036    19007.739    196.94222     38.59329 
176076000     285.1264    314.10196    288.17294   -19025.411    19018.574    25.929023     38.60738 
176080000    276.09609    258.62681    238.32421   -19030.135    19028.922    20.302601    38.622812 
176084000    287.62379    394.13272    415.76312   -19035.147    19047.962   -21.630401    38.616206 
176088000    269.15702    128.25798    390.75258   -19058.615    19038.643   -262.49461    38.608234 
176092000    284.89996     563.4924     309.2055    -19052.79    19052.323     254.2869    38.602478 
176096000    287.21009    335.72477    175.64143   -19056.853    19058.494    160.08334    38.627882 
176100000      263.272    264.74216    418.73277   -19052.789    19068.662   -153.99061    38.628217 
176104000     292.9964    375.72511    347.28698   -19087.434    19082.383    28.438133    38.628275 
176108000    300.23962    325.32944    344.88234   -19101.584    19090.029   -19.552903    38.639737 
176112000    275.98521    281.04311    255.29301   -19112.137    19111.957    25.750095    38.637417 
176116000    273.48805    283.12617    400.74784   -19120.723    19126.685   -117.62166    38.643104 
176120000     254.6087     361.1357    329.40402    -19130.81    19121.611     31.73168    38.636113 
176124000    300.58077    364.41587    304.90566   -19144.171    19127.887    59.510211    38.640732 
176128000    297.54985    289.03112    472.61342   -19139.622    19136.051    -183.5823    38.636901 
176132000     277.8984    183.43433    619.89352   -19140.888    19139.948   -436.45919    38.623782 
176136000    263.21259    226.09156    346.87901   -19151.915    19176.519   -120.78746     38.63089 
176140000    261.69069    365.32681    434.28387   -19174.955    19195.033    -68.95706     38.63004 
176144000     286.5877    668.88794    327.76977   -19210.525    19204.615    341.11817     38.63048 
176148000    296.20068    517.75123    613.11659   -19197.037    19209.961   -95.365366    38.631765 
176152000     254.9194    212.19893    360.70848   -19199.673    19226.945   -148.50955    38.628063 
176156000     258.1325    358.77962    342.85397   -19209.971     19230.33    15.925649    38.628573 
176160000    258.29611     576.7231    228.69303   -19224.801    19240.874    348.03006    38.621078 
176164000    293.27202    408.99501    389.89571   -19221.689    19220.403    19.099303    38.614838 
176168000    273.68556    273.03962    327.31921   -19239.396    19230.626   -54.279588    38.614308 
176172000    300.87629    277.90574    603.89638   -19241.188     19228.06   -325.99064    38.597099 
176176000    272.18021    154.74726    268.87895   -19231.016    19229.375    -114.1317    38.594372 
176180000    250.57402    409.88768     233.3245   -19222.336    19234.911    176.56318    38.596995 
176184000    260.48263    335.38919     258.8428   -19226.926    19237.828    76.546389    38.593738 
176188000    274.65592    294.98447    299.61598   -19212.186    19225.845   -4.6315088    38.592004 
176192000    291.33822    129.37633     456.5945   -19244.732    19229.876   -327.21816    38.591162 
176196000    293.49421      482.072    393.53119    -19233.51    19233.073    88.540818    38.591418 
176200000    272.82379    387.41884    469.62882   -19230.022    19250.622   -82.209975    38.596933 
176204000    268.60468    652.85592    430.36826   -19246.604    19252.018    222.48766    38.607205 
176208000     303.2913    254.38436     653.0617   -19274.244    19271.868   -398.67735     38.60198 
176212000    304.37788    523.24874    263.56024     -19289.2    19290.413    259.68851    38.611171 
176216000    267.87462    419.89845     290.1449    -19290.46    19291.856    129.75355    38.622806 
176220000    303.18166    356.91541    430.73161   -19306.833     19283.12   -73.816206    38.618422 
176224000    283.23228    211.16369    290.61621   -19305.054    19295.505   -79.452522    38.631521 
176228000    302.17753     436.3087    331.89128   -19326.985    19313.799    104.41741    38.629429 
176232000     314.7698       501.19    486.12039   -19322.563    19300.742    15.069611    38.620171 
176236000    296.90445     450.7477    578.13484   -19322.474    19319.904   -127.38714    38.625646 
176240000    288.64632    391.22598    397.84102   -19344.385    19327.673   -6.6150384    38.635895 
176244000     316.2574    358.57064    351.56251   -19339.722    19307.178    7.0081317    38.641349 
176248000    301.17176     304.7074    316.01979   -19341.736    19319.533   -11.312393    38.640546 
176252000    306.43481    367.23954    431.47074   -19352.408    19320.399   -64.231202    38.643913 
176256000    271.87625    191.58752    343.13868   -19333.602    19341.789   -151.55116    38.643127 
176260000    304.69775    436.08783    313.39984   -19341.845    19343.272    122.68798     38.62555 
176264000    284.03187    490.31409    249.02277   -19335.753    19334.264    241.29133    38.627048 
176268000    274.20894    262.54054    200.21346   -19339.692    19334.039    62.327076    38.632782 
176272000     297.8081     202.8622    240.52598   -19342.333    19347.454   -37.663777    38.632723 
176276000    280.19675     367.1657    474.71423   -19356.221    19355.708   -107.54853    38.614866 
176280000     313.9517    221.05077    349.44856   -19368.354    19348.929   -128.39779     38.60463 
176284000    285.65443    372.68765    416.57382   -19385.733    19367.613   -43.886173    38.590105 
176288000    272.39065    326.86453    341.87658   -19388.589    19386.937    -15.01205    38.596929 
176292000    295.61613    199.92255    346.16248   -19395.767     19396.46   -146.23993    38.578279 
176296000    280.04316    483.46057    438.66735   -19410.786    19400.547    44.793216    38.561469 
176300000    258.31051    225.69863    315.69578   -19403.598    19412.093   -89.997152    38.563151 
176304000    258.49921    328.69364    156.04608   -19420.607    19411.675    172.64756    38.570745 
176308000    267.62295     453.6101    278.47428   -19427.913    19422.407    175.13582    38.574234 
176312000    301.06811    316.47623    574.24481   -19437.649    19427.999   -257.76858    38.580963 
176316000    272.68825    464.32425    246.97632   -19443.461    19458.619    217.34792    38.579513 
176320000     272.2075    603.12644    384.01926   -19453.652    19460.665    219.10718    38.577468 
176324000    284.03403    360.19846    516.86216   -19442.317     19447.37   -156.66369     38.58159 
176328000    302.90228    595.40138    281.65438   -19455.922      19452.1      313.747    38.577245 
176332000    274.01678    779.05271     180.0308   -19452.773    19451.517    599.02191    38.584389 
176336000    302.42826    273.45711    538.77422   -19453.886    19449.859    -265.3171    38.585226 
176340000    270.24382    506.23132    262.84887   -19463.744    19472.459    243.38244    38.589719 
176344000    236.09179    180.70553    174.24001   -19459.527    19486.604    6.4655178    38.587092 
176348000    296.23181    223.66289    181.10238   -19476.874     19456.67    42.560513    38.574851 
176352000    261.34882    446.95734    328.33992   -19459.911    19479.527    118.61742     38.55458 
176356000    282.12991    460.07904    320.05528   -19472.391    19472.085    140.02376    38.545991 
176360000    286.10905     290.6934    161.97244   -19492.056    19483.096    128.72097    38.544049 
176364000    275.54825    331.68695    288.47117   -19479.912    19486.617    43.215777    38.547956 
176368000    306.00733    741.30441    338.92578   -19488.855    19489.419    402.37863    38.550405 
176372000    263.40767    514.33403    270.54662   -19475.227    19488.622    243.78741    38.562786 
176376000    280.22513    278.37768    255.74283   -19498.949    19500.063    22.634857    38.559935 
176380000    271.91668    483.69363    187.39245   -19503.858    19507.027    296.30118    38.560657 
176384000    312.49982    390.62174    306.09122   -19514.546    19509.881    84.530527    38.559883 
176388000    265.05135     284.2675    372.72856   -19527.154    19528.377   -88.461053    38.553459 
176392000     257.9217    252.67293    228.16026   -19527.198    19537.295    24.512668    38.557142 
176396000    272.75572    472.78988    216.22605   -19532.903    19536.216    256.56383    38.559236 
176400000    289.44964    256.28178    368.86498   -19540.819    19541.271   -112.58321    38.545756 
176404000     285.4435     364.2422     389.8533   -19549.861    19543.913   -25.611096    38.532429 
176408000    277.96355    358.33481    138.59301   -19548.057    19551.417     219.7418    38.523231 
176412000    281.42244    352.19477    270.54709   -19551.837    19544.933    81.647679     38.52729 
176416000    304.23203    544.75405    470.32431   -19562.608     19553.61    74.429746    38.539956 
176420000    283.03911    170.51133    192.55612   -19553.413    19564.356   -22.044792     38.52896 
176424000     280.3698    426.87041     449.1238    -19570.95    19574.787   -22.253386    38.536565 
176428000    279.49267    409.78959    195.19665   -19561.278    19571.366    214.59294    38.538515 
176432000    272.02294    240.13607     310.6819   -19570.045     19582.43   -70.545834    38.543198 
176436000    285.65932    208.04961    358.53799   -19587.004    19581.141   -150.48838    38.545888 
176440000    280.27968    337.32683    485.26903   -19588.562    19591.784    -147.9422    38.555396 
176444000    255.53041    236.64614    246.61062   -19601.244    19611.823   -9.9644836    38.566489 
176448000     276.8652    329.88078    285.54259   -19630.482    19609.714    44.338193    38.568895 
176452000    284.89118    359.61509    397.39476   -19638.874    19625.622   -37.779665      38.5711 
176456000    299.17715    520.27567    351.29095   -19643.584    19642.207    168.98472     38.57488 
176460000    304.43562    383.20687    452.69056    -19654.06    19632.104   -69.483684    38.569611 
176464000    287.17293    368.60757    219.97523   -19651.946    19638.752    148.63234    38.563721 
176468000    280.74795    193.59801    316.42761   -19641.945    19659.095   -122.82961    38.569963 
176472000    309.35009    609.68636    351.43487   -19662.957    19652.896    258.25149    38.565216 
176476000    280.09855    356.43233    304.34901   -19669.869    19668.114    52.083322    38.562309 
176480000    292.77953    287.79222    266.34785   -19673.719     19673.48    21.444368    38.587195 
176484000    290.77519    430.91481    348.44255   -19677.628    19681.365    82.472267    38.593963 
176488000    279.19527    318.14551    398.82302   -19673.706    19683.587   -80.677505    38.600764 
176492000    289.70509    276.23523     599.8732   -19679.991    19686.458   -323.63797    38.590737 
176496000    308.68736    351.94149      299.941   -19696.136    19679.327    52.000496     38.60447 
176500000    325.04788    817.91502    466.05445   -19711.869    19679.789    351.86057    38.603375 
176504000    340.12953     504.3934    383.90242   -19712.702    19679.602    120.49098    38.592936 
176508000    269.41407    230.92671    357.85806   -19703.323    19708.823   -126.93135    38.588646 
176512000    278.86241    261.21578    195.34587   -19699.367    19695.539    65.869917    38.601589 
176516000    297.30191    314.14444    370.28327   -19715.273    19702.656   -56.138828    38.617572 
176520000    302.10549    292.32376    207.55297   -19742.992    19734.619    84.770796    38.624355 
176524000    264.89072    470.09456    217.63274   -19730.446    19741.502    252.46182    38.609866 
176528000    289.85384    286.07293    434.29406   -19727.855    19715.334   -148.22113    38.613898 
176532000    301.76532     532.8532    213.92869   -19746.305    19728.486    318.92451    38.622132 
176536000    294.50241    352.58906    339.45611   -19740.672    19746.745    13.132949    38.622653 
176540000    256.65868    216.72969    326.84891   -19722.945    19752.029   -110.11922    38.620039 
176544000    283.60488    380.87409    602.72296   -19764.298    19750.496   -221.84886    38.620356 
176548000    274.28887    395.67498    518.91091   -19778.552    19766.366   -123.23593    38.625807 
176552000    312.55897    498.59044    268.34784   -19797.022    19781.466     230.2426    38.625496 
176556000    276.36662    379.71314    184.90888   -19792.498    19790.123    194.80426    38.630358 
176560000    308.39526    520.77477    512.25745   -19805.867    19777.743    8.5173178    38.628551 
176564000    295.48274    338.86528    377.40011   -19807.415    19795.981   -38.534829    38.619125 
176568000    287.91638    362.42531     413.9266   -19813.771    19819.425   -51.501297    38.607287 
176572000    285.10915    565.24564    428.02768   -19829.537    19823.365    137.21796    38.607013 
176576000    305.95433    247.26106    446.68095   -19839.702     19822.54   -199.41989    38.620905 
176580000    304.18814    673.86251    401.61625   -19860.104    19837.145    272.24627    38.641632 
176584000    300.55263    288.27555    345.80024   -19856.047    19844.139    -57.52469    38.621016 
176588000    291.30015    388.94875    572.57512   -19863.781    19838.836   -183.62637    38.626845 
176592000     279.5671     260.7919    236.76715   -19861.263    19854.839    24.024748    38.635512 
176596000    293.19496    442.54184    324.21961   -19878.544    19850.659    118.32223    38.632435 
176600000    267.26792    299.20705    526.45919   -19866.058        19872   -227.25214    38.634638 
176604000    275.85055    430.39616    381.24808   -19894.264    19896.384    49.148077    38.635285 
176608000    281.41849    614.35209     565.7268   -19899.745    19894.741    48.625291    38.635496 
176612000    291.01065    509.64603    325.26592    -19907.33    19906.114     184.3801    38.648477 
176616000      252.741    369.99421    271.21399   -19910.946    19925.696    98.780221    38.647445 
176620000    280.57109    659.14907    213.02392   -19911.911    19916.723    446.12514    38.648034 
176624000    301.07625    413.74105    213.61693   -19937.953    19909.941    200.12412    38.664345 
176628000     299.7305    336.47284    246.90846   -19935.772      19909.5    89.564386    38.673545 
176632000    295.93334    257.70796    453.07968   -19926.571    19931.373   -195.37172    38.683824 
176636000    288.21869    261.77815    493.38146   -19940.919    19934.133   -231.60332    38.678422 
176640000    320.34898    393.61875    523.71959   -19961.142    19933.123   -130.10084    38.672762 
176644000    276.27494    286.51346    214.61571   -19959.205    19972.271    71.897748     38.67758 
176648000    281.34754    283.55015    185.70558   -19971.302    19968.979    97.844572    38.672158 
176652000    300.00805    394.12011    443.71193   -19988.045    19976.801   -49.591817    38.655314 
176656000    279.36613    468.92965    228.48531   -19988.448    19992.006    240.44434    38.660746 
176660000    282.68961    348.07407    548.42074   -19988.923    19982.505   -200.34667    38.648529 
176664000    306.01392    362.88625    551.35044   -20012.979    19987.756   -188.46419    38.651818 
176668000    294.46105    352.60452    427.44874   -20025.694    20008.073   -74.844228    38.660996 
176672000    294.37376    472.80663     209.1974   -20023.348    20013.059    263.60923    38.649789 
176676000     296.1883    250.76136     307.8427   -20038.629    20014.488   -57.081337    38.668393 
176680000    306.91006    473.62099     385.0778   -20044.827    20032.958    88.543198    38.653303 
176684000    291.74594    270.23745     401.2013   -20046.828    20034.275   -130.96385    38.645537 
176688000    306.86534    237.34167    325.39047   -20069.179    20045.791   -88.048806     38.64045 
176692000    294.04938    375.90815    231.69355   -20071.916    20049.756     144.2146    38.641253 
176696000    292.46941    679.71633    326.99754   -20062.742      20057.6    352.71879    38.650556 
176700000    288.20077    477.71728    286.63774   -20060.228    20062.411    191.07954    38.664618 
176704000    271.44713    542.76965     225.7335   -20066.717    20074.079    317.03615    38.668655 
176708000    284.75685    509.44397     382.6453   -20061.318    20063.406    126.79867    38.665195 
176712000    282.42301    460.44463    275.25982   -20075.966    20076.963    185.18481    38.657666 
176716000    272.43447     173.5632    352.83731    -20075.49    20092.096   -179.27411    38.656722 
176720000    295.56314     130.6126    312.94338   -20086.078    20083.832   -182.33078    38.661453 
176724000    295.56835    249.61334    330.90058   -20089.281    20102.728   -81.287238    38.651627 
176728000    278.13574     386.8068    329.92998   -20107.284    20116.993    56.876815    38.658935 
176732000    274.37027    244.69395    185.59977    -20126.31    20121.426    59.094172    38.647065 
176736000    266.69583    246.97988     432.1767   -20134.041    20129.659   -185.19682    38.638567 
176740000    276.41896    569.15398    275.06683    -20137.43    20129.296    294.08715     38.63861 
176744000    253.80631    174.21484    418.32883   -20138.353    20156.792   -244.11399    38.639374 
176748000    261.59404     393.5488    273.85037    -20153.36    20159.767    119.69843    38.648545 
176752000    282.45543     353.5062    231.87881   -20171.195    20172.439    121.62739    38.643839 
176756000    287.61668    291.29035    292.54242   -20192.036    20162.498   -1.2520748    38.648571 
176760000    280.16361    466.67315    199.90324   -20172.813    20171.947    266.76991    38.655455 
176764000    283.67015    316.40025    335.87694   -20191.243    20185.409   -19.476697    38.661166 
176768000    281.48305    478.90682    210.59515   -20209.092    20210.955    268.31167    38.662657 
176772000    267.21369     219.7338    407.90286   -20220.466    20225.783   -188.16906    38.647665 
176776000    294.39317    498.25925    300.83589   -20224.503    20226.516    197.42336    38.646412 
176780000    257.83892    347.47915    483.18193   -20231.793    20245.432   -135.70277    38.648128 
176784000    295.66453    513.86343    336.87367   -20244.757    20239.705    176.98977    38.663769 
176788000    278.93036    452.41089    196.19232   -20247.951    20250.167    256.21857    38.642612 
176792000    291.05838    216.91809    518.45944   -20247.571    20250.443   -301.54135    38.646594 
176796000    269.31292    365.11581    379.62308   -20246.747    20254.295   -14.507273    38.618025 
176800000     285.7209    603.32509    390.08401   -20263.798    20260.493    213.24107    38.626688 
176804000     276.4925    393.84969    426.47435   -20270.726    20267.667   -32.624655    38.620959 
176808000    292.06993     488.6313    255.37999   -20281.758    20268.245    233.25131    38.615391 
176812000    290.09645    478.18636    278.31392   -20307.188    20289.004    199.87243    38.625664 
176816000    319.89919    435.41234    218.34639   -20310.952    20282.744    217.06595    38.622619 
176820000     299.7765    387.27167     647.8118   -20296.452    20283.158   -260.54013    38.621566 
176824000    275.87484    305.37213    313.98783   -20298.152    20299.531   -8.6156978    38.633184 
176828000    294.32864     400.3866    468.51295   -20309.278    20296.349   -68.126346     38.65406 
176832000    309.67368    267.89863    486.03299   -20312.566    20277.182   -218.13436    38.654431 
176836000    301.68692    538.73717    256.54374   -20319.628    20308.916    282.19343    38.659122 
176840000    287.69561    410.41015    353.49321   -20328.581    20308.669    56.916935    38.662209 
176844000    311.77345    310.28598    478.08438   -20325.405    20297.673    -167.7984    38.663315 
176848000    276.26643    362.63747    185.82074   -20316.007    20331.565    176.81673    38.668805 
176852000    297.58681    328.28899     473.5221   -20316.502      20325.5   -145.23311    38.679402 
176856000    281.82497    283.25387    315.56019   -20332.443     20351.36   -32.306324     38.68298 
176860000    293.58606    292.03009    333.91102   -20331.161    20339.757   -41.880924    38.683686 
176864000    283.48534    443.19622    325.12317    -20341.76    20355.509    118.07305     38.67794 
176868000    296.30332    430.90319    547.68156   -20347.619    20353.555   -116.77837    38.672963 
176872000    236.10591    273.18028     349.7417   -20358.665    20369.171   -76.561412    38.698764 
176876000     288.5726    420.02366    512.71191   -20384.049    20361.204   -92.688252    38.689775 
176880000    273.01111     300.3487    217.20474   -20383.959    20380.609    83.143964     38.69087 
176884000    279.58613    414.42948    436.03098    -20385.63    20385.283   -21.601499    38.689633 
176888000    275.09807    302.08235    201.36828   -20413.108    20388.644    100.71406    38.693351 
176892000    295.25463    298.36342    245.35546   -20419.894    20396.946    53.007959    38.687443 
176896000    294.91236    233.58763    187.95753   -20422.472    20400.694    45.630105    38.686837 
176900000     285.8182     292.5709    577.99487   -20429.557    20416.352   -285.42397    38.678173 
176904000     271.5371    176.70581    297.04407   -20433.632    20444.108   -120.33825    38.672144 
176908000    279.33956    447.27773    339.82418   -20443.113    20449.561    107.45355    38.678266 
176912000    278.95469     367.3567    204.83094   -20453.239    20453.795    162.52576    38.673392 
176916000     273.1446    263.65201    366.25697    -20463.55    20462.129   -102.60496    38.666456 
176920000    311.53605    418.74689    151.83177   -20503.995    20482.847    266.91512    38.673467 
176924000    296.27408    312.05241    311.67756   -20508.371    20500.211    0.3748511    38.683217 
176928000    308.61395    240.04737    597.12509   -20517.726    20503.751   -357.07772    38.662151 
176932000    299.52163    413.10924    345.38229   -20537.266    20516.038    67.726959    38.668386 
176936000    275.35399    478.80073    277.67068   -20526.625    20536.223    201.13005    38.676905 
176940000    277.22513    307.61716    397.08883   -20525.598    20531.788   -89.471674    38.686212 
176944000    271.94677    374.89892    242.87328   -20521.093    20535.737    132.02565    38.685977 
176948000    276.21118    578.39213     451.1025   -20537.038    20534.476    127.28963     38.67838 
176952000    296.31439    295.07662    296.41897   -20552.821    20540.508   -1.3423539    38.689239 
176956000    282.82329    304.27023    297.81256    -20566.14    20560.737    6.4576773    38.683191 
176960000     275.8335    591.83623    369.54948   -20579.659     20587.47    222.28676    38.673846 
176964000    281.95551    323.37849    361.06973   -20570.024    20581.142   -37.691247    38.665636 
176968000    287.32265    569.15993    263.72624    -20595.89    20601.632    305.43369     38.67742 
176972000    272.94953    252.35578     365.5341   -20584.953    20594.025   -113.17832    38.670838 
176976000    255.55878    364.07511    260.74496    -20594.08    20600.327    103.33015    38.670082 
176980000    316.19641    400.57193    331.19523    -20615.22    20593.945    69.376697    38.678074 
176984000    292.38126    312.97136    244.01717   -20616.875    20606.391    68.954192    38.693478 
176988000    279.33787    513.43468    303.32533   -20622.048    20612.834    210.10935    38.689704 
176992000    288.39948    437.24068    245.85509   -20616.858    20624.571    191.38559    38.685581 
176996000    291.03744    272.95385    369.98586   -20644.024    20638.988   -97.032005    38.686982 
177000000    276.18944    258.39799    298.84726   -20628.469    20620.722   -40.449277    38.680736 
177004000    266.00045    366.42067    300.67607   -20644.344    20637.485    65.744601    38.675185 
177008000    288.43634    566.39467    293.96116   -20652.534    20638.182    272.43351     38.67345 
177012000    279.35899    444.10539    425.54249   -20653.801    20630.135      18.5629    38.681869 
177016000    293.83571    381.24473    398.00981   -20645.692    20630.766   -16.765085     38.69504 
177020000    276.63157    379.07532    273.33845   -20648.144    20639.465    105.73687    38.678667 
177024000    294.90628    521.00282    359.86431   -20645.981    20641.522    161.13851     38.66762 
177028000    307.38198    359.13509    365.46908    -20654.81    20634.141   -6.3339917    38.670689 
177032000    268.66013    380.40661    212.42399    -20657.04    20660.081    167.98263    38.671532 
177036000    293.23997    282.40023    445.85791   -20677.535    20663.812   -163.45768     38.67136 
177040000    281.11964    394.68846    226.01741   -20683.265    20667.844    168.67105    38.664786 
177044000    270.81792    612.15153    225.16238    -20685.36    20684.447    386.98915    38.663545 
177048000    295.98506    313.44766    387.95571   -20686.358    20697.108   -74.508048    38.658565 
177052000    297.67376    379.51375    240.34023   -20690.254    20700.589    139.17353    38.670425 
177056000    276.93337    395.55496    432.12047   -20709.996    20700.569   -36.565513    38.674037 
177060000    278.49331    297.66315    558.23008   -20704.851    20709.475   -260.56693     38.65913 
177064000    291.17697    346.21737    333.61225   -20711.354    20727.979    12.605119    38.660346 
177068000    274.06245    494.19739    449.12303   -20732.626    20729.883    45.074357    38.658114 
177072000    281.19645    480.19342    303.57307   -20748.225     20731.07    176.62035    38.658609 
177076000    307.10689    205.68826    459.48027   -20744.204    20734.017   -253.79201    38.662477 
177080000    289.46981    456.01523    312.16187   -20753.107    20744.522    143.85336    38.653504 
177084000    282.48762    451.13512    377.11211   -20771.063    20764.923    74.023013    38.660356 
177088000     297.0318    348.10977    344.66843   -20776.854    20766.137    3.4413334    38.643387 
177092000    299.74163    395.60656    268.55448   -20790.511    20778.229    127.05208    38.644764 
177096000    307.06422    336.77802    190.25527   -20811.968    20786.374    146.52275    38.637592 
177100000    280.62724    235.78923    242.84202   -20821.892    20803.688   -7.0527931    38.642138 
177104000    286.10993    522.58389    472.63979   -20826.858    20793.511    49.944101    38.642515 
177108000    284.10842    408.34039    259.23594   -20824.671    20824.401    149.10445    38.638004 
177112000    284.60457    408.77818    304.51913    -20830.96    20834.607    104.25905    38.624727 
177116000    265.68603    239.76575    276.61297   -20821.071    20842.885    -36.84722    38.618611 
177120000    272.36969    507.01625    387.12831   -20836.657    20842.353    119.88794    38.624961 
177124000    299.55631    516.32443    438.18943   -20839.415      20838.5       78.135     38.63353 
177128000    273.29068    303.47607    206.67163    -20860.04    20859.369    96.804433    38.615301 
177132000    261.24903     234.6691    307.91807   -20863.831      20876.1   -73.248977    38.602722 
177136000    290.07196    199.42309    183.08937   -20874.455     20872.32    16.333715    38.598086 
177140000    275.13617    374.72863    522.75394   -20880.712    20883.156   -148.02531    38.593038 
177144000    277.10746    356.11851    190.09097   -20887.188    20895.305    166.02755    38.594792 
177148000    296.01654    520.13108    346.75835   -20895.428    20891.929    173.37273    38.585131 
177152000    280.59894    318.73634     308.4351   -20908.622    20905.621    10.301245    38.597257 
177156000     288.3654    404.65104    149.34734   -20918.009    20922.768     255.3037    38.591949 
177160000    285.94469     275.0642    456.88935   -20940.708    20924.027   -181.82515    38.571352 
177164000    286.63754    335.87016    392.15567   -20934.268    20927.839   -56.285501    38.563667 
177168000    285.31174    395.58374    391.07969     -20933.4    20929.274    4.5040435    38.557072 
177172000     297.5664    375.67987    513.29846    -20929.28    20932.603   -137.61859    38.549488 
177176000    264.28405    243.91206    353.65616   -20933.137     20926.58    -109.7441    38.544199 
177180000    243.83653     360.1431    246.04246   -20920.936    20933.806    114.10064    38.539243 
177184000    283.07101    134.46678    538.66611   -20933.752      20933.5   -404.19933    38.533327 
177188000    291.08062    291.03868     641.2431   -20930.716    20936.546   -350.20442    38.525793 
177192000    306.26707     403.7614    246.37487   -20960.783    20947.628    157.38654    38.531743 
177196000    273.84537      317.765    380.37061    -20958.34    20958.295   -62.605601    38.525742 
177200000    286.49419    256.32158    267.33972   -20968.392    20971.576   -11.018144    38.526747 
177204000    268.26196     452.8191    319.73562   -20981.107    20989.051    133.08348    38.535452 
177208000     255.8994     240.3903    402.49418   -20977.845     20995.74   -162.10388    38.538899 
177212000    280.39527    381.41845    188.69639   -21010.497    21005.531    192.72206    38.548086 
177216000    249.38548    387.66071    285.13468   -20995.464    21009.603    102.52603    38.562516 
177220000    314.15454    540.33904    261.93734   -21015.891    20995.587     278.4017    38.577244 
177224000    293.45272    274.98036    204.17594   -21016.634    21001.222    70.804421    38.566204 
177228000    276.87018    464.97042    186.16425   -21026.471    21032.748    278.80617    38.584335 
177232000    279.29597    334.65681    151.17274   -21047.156    21036.766    183.48407    38.572103 
177236000    288.25686    391.42781    321.88325   -21051.315    21019.889    69.544564    38.575106 
177240000    324.50554    706.84745     177.8721   -21058.975    21044.079    528.97536    38.583338 
177244000    286.38025     340.9926    191.98466   -21059.093    21059.776    149.00794    38.579608 
177248000    302.21931    432.91154     240.9964   -21066.275     21065.59    191.91514    38.577671 
177252000     293.9638    516.06647    395.06602   -21063.967    21054.965    121.00046    38.585215 
177256000    297.11443    269.68694    673.81977   -21075.903     21068.76   -404.13283    38.589589 
177260000    292.21204    253.37045    451.99219   -21096.502    21070.985   -198.62174     38.59014 
177264000    304.37405    322.30427    323.49617   -21116.196    21088.963    -1.191903    38.590888 
177268000     308.9813    451.44765    292.35173   -21111.986    21092.767    159.09592    38.602851 
177272000    263.42657    387.55299    224.26036   -21095.514    21103.581    163.29263    38.602337 
177276000    274.45584    558.85057    372.67245   -21109.152    21108.288    186.17811    38.598601 
177280000    299.74043    392.18236    302.63214   -21132.293    21106.471    89.550217    38.593971 
177284000    309.02685    713.77551       246.96   -21139.214    21128.209    466.81551    38.591474 
177288000    268.20071    382.66776    517.12043   -21130.359    21138.543   -134.45267      38.5751 
177292000    270.97412    423.52548    246.58263   -21136.466    21151.225    176.94285    38.595484 
177296000    274.90688    485.32029    323.94214    -21155.09    21166.052    161.37815     38.60342 
177300000    279.76202    580.17518    533.49485   -21179.559    21160.571    46.680333    38.612169 
177304000    289.52917    230.94495    253.53115   -21170.655    21180.349   -22.586198    38.624703 
177308000    295.58795    434.57491    375.23531   -21189.747    21173.397    59.339594    38.631468 
177312000    289.74556    495.58355    390.19654   -21208.464    21199.274    105.38701    38.640515 
177316000    271.23674    216.58812    338.41583   -21202.513    21218.705   -121.82772    38.650754 
177320000    261.64922    409.53104    325.59292   -21202.822    21219.373     83.93812    38.664588 
177324000    268.17956    551.02878    501.69869   -21215.321    21222.538    49.330094    38.678528 
177328000    282.85644    381.12314    218.85297   -21248.201    21243.146    162.27018    38.665472 
177332000    276.47313    278.93699    295.30536   -21242.661    21232.176   -16.368363    38.673738 
177336000    273.88817    625.67106    517.26873    -21239.28    21239.668    108.40233    38.669215 
177340000    265.92416    302.38838    329.08191   -21235.215    21258.416   -26.693533    38.667824 
177344000    269.38171    393.39018    369.95974   -21234.869    21257.229    23.430443    38.682962 
177348000    288.44224    394.74142    346.01534   -21257.409    21252.604    48.726082    38.677734 
177352000    312.75011    284.41226     284.2187   -21273.613    21252.965   0.19356646    38.672964 
177356000    303.42934    428.73702    219.12811   -21287.703    21277.415    209.60891     38.67336 
177360000    297.08978    490.54766    205.18181   -21293.248    21281.813    285.36585    38.665435 
177364000    292.69561    540.24269    536.04134   -21302.407    21290.176    4.2013471    38.649985 
177368000    272.43351    422.03693    286.07892   -21307.639    21314.388    135.95801    38.662512 
177372000    249.82622    192.23342    178.03065   -21306.735      21333.2    14.202764    38.676258 
177376000    278.39657    208.67571    355.06148    -21321.62    21329.952   -146.38577    38.669385 
177380000    267.39142     376.5905    373.61186    -21333.41    21336.596    2.9786403    38.663423 
177384000    266.34451     277.8526    328.99564   -21328.346    21336.593    -51.14304    38.666986 
177388000    303.94671    462.81805    281.52121   -21364.269    21337.125    181.29684    38.666093 
177392000    285.42685    276.80006    186.85231   -21338.448    21348.307    89.947746      38.6655 
177396000    283.34008    480.46848    424.23388   -21344.057    21331.216    56.234598    38.664747 
177400000     293.5835    344.32637    360.96808   -21339.523    21323.762   -16.641705    38.666999 
177404000    328.73146     349.0605    351.44362   -21354.835    21322.939   -2.3831151    38.654274 
177408000    324.72215    297.61986    617.72319   -21366.785    21345.427   -320.10334    38.637348 
177412000    322.36261    469.34584    555.70572   -21367.897    21359.233   -86.359882    38.636058 
177416000    279.96752     416.8469    211.33262    -21393.69    21385.475    205.51428    38.631856 
177420000    264.46343     409.6278    208.13852   -21407.311    21407.594    201.48928    38.629394 
177424000    275.82221    381.63406    282.90235   -21404.617    21406.251    98.731714    38.621508 
177428000    285.85374    401.79168    465.62532   -21424.737    21390.251   -63.833635    38.612624 
177432000    284.09373    391.81336    287.81065   -21420.546    21413.064    104.00271    38.600885 
177436000    287.18862    325.89447    331.22331    -21434.19    21423.604   -5.3288396    38.619009 
177440000    301.66583    450.99076    344.92805   -21466.486    21448.833    106.06272    38.620233 
177444000    302.54501    391.04851    358.00963   -21476.655    21456.283    33.038879    38.609987 
177448000    272.62393    178.32624    195.75985   -21480.717    21482.138   -17.433609    38.612173 
177452000     293.9854    687.65817    162.79071   -21505.787    21500.245    524.86746    38.621387 
177456000    287.93548    122.38531    460.07678   -21508.969      21508.5   -337.69147    38.620362 
177460000    333.91078    477.08402    734.89738   -21531.093    21507.999   -257.81336    38.623767 
177464000    282.07347     274.7763    249.77294   -21539.607     21524.16    25.003362    38.624621 
177468000    290.11945    489.52355    397.33689   -21534.921    21527.727    92.186653    38.631383 
177472000    275.08618    419.21237    290.06945   -21529.479    21543.631    129.14292    38.632716 
177476000     279.0556    256.59241    378.36151   -21549.917    21549.483    -121.7691    38.627504 
177480000    283.98024    391.38332    181.08748   -21566.126    21561.113    210.29585    38.645724 
177484000    326.46164    487.63228    251.45201   -21585.853    21544.934    236.18027    38.649496 
177488000    297.61111    358.87976    732.47824   -21571.308    21563.576   -373.59848    38.646865 
177492000    294.23434    231.83758    394.04023   -21590.441    21586.282   -162.20265    38.654326 
177496000    280.89347    350.42263    230.85858   -21605.039    21597.913    119.56404    38.662082 
177500000    281.26998    455.38859    313.82488   -21614.519    21592.252     141.5637     38.66526 
177504000    310.80287    524.73711    363.27404   -21614.863    21598.223    161.46307    38.674354 
177508000     289.4088    527.47609    333.39745   -21616.065    21617.474    194.07863    38.684993 
177512000    276.06958    417.22102     310.0098   -21628.894    21636.438    107.21123    38.694475 
177516000    276.08674    411.23909    232.12847   -21638.123    21651.445    179.11062    38.694354 
177520000     262.2779    531.98336    243.96589   -21651.453    21655.974    288.01748    38.705332 
177524000    255.06347    197.24633    496.54019   -21647.922    21668.774   -299.29386    38.694047 
177528000    296.57625    260.18157    322.90188    -21684.92    21672.526   -62.720313    38.696563 
177532000     314.6746    356.86489    272.17395   -21698.718    21681.413    84.690939    38.690227 
177536000    300.94942    215.83373    398.66804   -21699.026    21680.857   -182.83431    38.688369 
177540000    296.00508    337.09355    329.96592   -21704.115    21683.834    7.1276304    38.704045 
177544000    321.55018    342.29074    702.80664   -21722.841    21688.414    -360.5159    38.718544 
177548000    335.25664    413.42958    277.35521   -21729.697    21694.253    136.07437    38.720775 
177552000    282.12478    389.13614    278.18455   -21735.366    21735.682     110.9516    38.716044 
177556000    279.20013    395.49045    159.42835   -21743.879    21752.643    236.06209    38.724034 
177560000    271.81985    282.99474    241.37849   -21758.159    21746.312     41.61625     38.72732 
177564000    278.66219    406.29032    297.42639   -21771.652    21758.723    108.86393    38.741324 
177568000    282.47517    669.98088    216.56405    -21801.85    21790.416    453.41683    38.741486 
177572000    288.87532    301.88589    301.76936   -21795.088    21799.136   0.11653231    38.738905 
177576000    250.50385    197.59694    177.08431   -21782.685    21823.353    20.512628    38.730962 
177580000    273.96946    312.07243    373.25497   -21812.698    21830.675   -61.182538    38.714244 
177584000    288.69399     399.7402    312.46817   -21829.987     21830.07    87.272023    38.715464 
177588000    264.43388    396.27862     232.0293   -21834.299    21850.843    164.24932    38.728766 
177592000     289.9933    319.13651    230.62313   -21835.579    21845.873     88.51338    38.728124 
177596000    254.16312    362.86066    364.81773   -21827.958    21856.196   -1.9570673    38.736292 
177600000    278.60406    281.85423    523.27614   -21826.154    21849.991   -241.42191    38.732353 
177604000    290.90743    429.75002    377.82647   -21843.939    21852.288    51.923552    38.724809 
177608000    311.54055    461.01936    237.81483   -21872.204    21856.589    223.20453    38.731592 
177612000       279.93    382.96103    336.32392   -21871.069    21863.877    46.637109    38.724752 
177616000    270.64424    434.96589    241.78716   -21877.915    21881.057    193.17873    38.724912 
177620000    271.43317       396.94    221.94533   -21878.175    21884.636    174.99467    38.725736 
177624000    279.10356     187.7766    231.49439   -21892.623    21890.298   -43.717783    38.710446 
177628000    298.77691    149.22886    265.71977   -21910.978    21887.195   -116.49091    38.720784 
177632000    283.43161      325.623     247.0979   -21898.576    21890.905    78.525101    38.723416 
177636000    290.40681    319.02402    350.35415   -21928.432    21935.866    -31.33013    38.713036 
177640000     309.4805     289.0193    472.48316    -21941.07    21930.699   -183.46386    38.712416 
177644000    295.14091    572.78421    494.79926   -21950.941    21944.711    77.984951    38.713859 
177648000    291.34274     243.3873    424.82147   -21973.673    21957.377   -181.43418    38.715839 
177652000    285.78018    512.28243    218.36668   -21985.527    21972.007    293.91575    38.711349 
177656000    265.71993    394.28542    234.88306   -21973.361    21982.832    159.40235    38.702888 
177660000    295.66168    497.72397    411.25254   -21991.233    21978.001    86.471428    38.703723 
177664000    263.01691    380.90806    421.90813   -21986.337    22001.395   -41.000064    38.714917 
177668000      274.961    339.31798    518.93925   -21991.826    21992.969   -179.62127    38.713117 
177672000    279.25289    466.54951    261.62888   -22000.361    21995.104    204.92064    38.729759 
177676000    300.17651    528.72879    874.88245   -22002.016    21998.878   -346.15366    38.726596 
177680000    295.61024    545.92888    252.33265   -22018.914    22009.759    293.59623    38.725594 
177684000    291.54899    325.96324    509.89326    -22043.23    22032.606   -183.93001    38.730231 
177688000    316.92951    418.99245    367.73516   -22067.067    22051.179     51.25729    38.727267 
177692000    275.69675    454.07175    416.76561   -22065.418    22054.692    37.306142    38.736688 
177696000    285.67305    244.78917    272.99834   -22066.809    22059.335   -28.209169    38.742434 
177700000    360.66678    358.73712    498.06141   -22085.124    22052.823   -139.32428    38.751153 
177704000    297.99666    319.66245    359.85297    -22079.04    22067.792   -40.190518     38.73587 
177708000    299.29684    474.08967    390.15307    -22105.43     22072.85      83.9366      38.7511 
177712000    278.35859     461.1123    309.54409    -22095.33    22081.414    151.56821    38.748523 
177716000    287.12615    350.02857    446.48829   -22105.947    22093.911   -96.459715    38.760133 
177720000    271.57378    276.02923    482.78255   -22099.808    22105.811   -206.75332    38.767686 
177724000    276.88147    374.41503    325.14872   -22106.121    22109.067    49.266315    38.755445 
177728000    298.02294    187.82896    201.65028   -22100.156    22090.075   -13.821319    38.755337 
177732000    280.56705    386.32569    355.31892   -22102.646    22094.878    31.006769     38.75646 
177736000    262.21241    321.02141    241.99703   -22115.293    22123.518    79.024376    38.755753 
177740000    295.99066    323.81518    390.36679    -22124.76    22144.059   -66.551613    38.758915 
177744000    269.58827    577.11714    499.56461   -22142.819    22152.678    77.552537    38.759723 
177748000    271.90254    271.69641    307.74513   -22142.992    22156.572   -36.048719    38.763193 
177752000    285.65673    318.46322    350.95348   -22150.318     22154.01   -32.490262    38.758549 
177756000     274.7072    430.60441    223.81244    -22163.46    22168.665    206.79197    38.755109 
177760000    300.80524    403.04372    380.80541   -22177.873    22151.772    22.238308    38.760696 
177764000    262.64022    316.73369    372.63257   -22171.542    22162.167   -55.898884    38.752781 
177768000    264.46315    347.05016    349.60937   -22173.985    22187.646   -2.5592114    38.754163 
177772000    295.55495    265.09825    142.96092   -22211.368    22201.846    122.13733    38.756536 
177776000    297.89101    392.15293    393.53065   -22233.368    22204.849   -1.3777271    38.756125 
177780000    255.05906    214.73612    175.48127   -22224.345    22228.953    39.254845    38.741641 
177784000    316.76228    348.49117    412.99645   -22245.358    22221.695   -64.505281    38.744481 
177788000    290.13939    156.18571    256.56826   -22230.794    22218.218   -100.38255    38.748284 
177792000        280.9    325.21359     474.3547   -22243.016     22238.61    -149.1411    38.750766 
177796000    300.36259    381.16178     281.0679   -22248.798    22236.355    100.09388    38.753315 
177800000    296.47804     594.9237    271.12085   -22284.234    22245.414    323.80284    38.760982 
177804000     299.1046    497.36083    265.93709   -22272.723    22265.284    231.42374    38.757372 
177808000    278.21228    602.62539    430.68499   -22271.023    22275.833     171.9404    38.759641 
177812000    271.83341    220.73156    646.94402   -22266.747    22276.208   -426.21247    38.758975 
177816000     291.1895    348.00542    309.22565   -22278.667    22280.408    38.779773     38.75491 
177820000    287.20895    234.93273    260.03202   -22279.645    22284.844   -25.099291    38.756023 
177824000    303.69444    430.68035    271.17273   -22289.212     22281.49    159.50762     38.76658 
177828000    296.62474    657.30394    231.59172   -22287.358    22283.775    425.71221    38.752818 
177832000    242.78611    197.70367    164.17942   -22287.431    22303.251    33.524251    38.744533 
177836000    289.32466    374.38608    212.27235   -22292.061    22303.569    162.11372    38.750934 
177840000    272.24067    372.28918    366.60718   -22310.642    22311.834    5.6819985    38.746697 
177844000     279.4116     357.0715    275.94782   -22326.453    22343.948     81.12368    38.745917 
177848000     273.3727    319.09252    381.36161    -22331.56    22337.469   -62.269089    38.746854 
177852000    298.13005     433.5513    285.90928   -22340.341    22336.973    147.64202    38.747675 
177856000    267.97856    386.63541    367.51253   -22343.695    22344.016    19.122875    38.753061 
177860000     264.7216    525.72671    323.28255   -22337.431    22349.785    202.44416    38.761761 
177864000    253.78931    413.95462    131.66723    -22344.28    22374.942    282.28739    38.758886 
177868000    265.36565    259.62766    332.83308   -22365.572    22375.853   -73.205414    38.761945 
177872000    297.86871    342.96939    314.05027   -22368.417    22361.381    28.919126    38.769434 
177876000    302.47131    436.97072    202.71165    -22366.55    22370.202    234.25906    38.782991 
177880000    273.23829    239.85491    174.83828   -22373.677    22378.863    65.016632    38.787845 
177884000     282.2093    297.65205     324.3681    -22393.33    22384.018   -26.716057    38.789329 
177888000      323.176    531.63922    343.91469   -22420.045    22395.159    187.72453    38.783153 
177892000    316.90294    335.78214    529.70434   -22420.794    22401.653   -193.92219    38.800489 
177896000    292.86548    274.47761    291.37302    -22420.69    22420.749   -16.895409    38.802381 
177900000     291.2443    218.33285    163.27319   -22432.983    22433.431    55.059662    38.799375 
177904000    288.64068    487.85022    246.67872   -22443.156    22430.588     241.1715    38.806135 
177908000    287.18428    322.72144    343.26425   -22441.765     22452.75   -20.542816    38.784248 
177912000    276.97365    431.77743     239.6816   -22446.374    22457.525    192.09583    38.790168 
177916000    253.60378    244.67724    399.12797   -22439.633    22449.451   -154.45072    38.777098 
177920000    259.73562    331.33365    250.91475   -22459.095    22468.722    80.418901     38.77543 
177924000     312.2842    510.60985    198.52862   -22474.351     22466.03    312.08123    38.771763 
177928000    272.29349    220.95465    311.29467   -22458.087    22463.656   -90.340014     38.77749 
177932000    274.76391    421.08502     179.9825   -22473.003    22468.062    241.10253     38.79181 
177936000    249.65016    270.63175    284.91196    -22455.99    22471.428   -14.280204    38.789818 
177940000    277.78338    426.19468    214.62812   -22465.572    22479.229    211.56656    38.798389 
177944000    275.57265    334.71986    354.90826   -22472.613    22474.293   -20.188397    38.791432 
177948000    280.77891    272.91232     247.5202   -22493.377    22487.332    25.392126    38.796565 
177952000    303.73469    314.74993     340.0568   -22499.568    22493.715   -25.306877    38.808289 
177956000    292.06463    477.69022    270.09423   -22516.284    22521.736    207.59598    38.809436 
177960000    269.38672    384.54327    516.96928   -22520.249    22524.066     -132.426    38.803623 
177964000    271.53538    269.00394    226.44827   -22523.229    22541.156    42.555667    38.801294 
177968000    263.60691    179.43259    312.12245   -22533.912    22544.686   -132.68986    38.802169 
177972000    274.99391     308.3226    211.17158   -22524.334    22527.631    97.151023     38.79074 
177976000    259.01279    308.40421    261.19918   -22529.362    22534.648    47.205032    38.776781 
177980000    287.31964    379.79545     251.8188    -22522.91     22530.82    127.97665    38.786335 
177984000    280.48542    692.08391    373.07513   -22523.138    22534.805    319.00878    38.792339 
177988000    287.69324    511.55457    458.97347     -22523.3    22514.055    52.581105    38.805797 
177992000    303.21658    309.44197    271.36248    -22527.82     22516.28    38.079488    38.821793 
177996000    262.77189    249.26956    349.37378    -22494.95    22513.759   -100.10423    38.830446 
178000000    298.96599    402.32969    341.76789   -22506.806    22505.831    60.561793    38.836892 
178004000    310.30091    200.69204    491.07606   -22507.469    22486.047   -290.38402    38.848754 
178008000    266.37593    289.21898    483.61079    -22491.09    22497.579   -194.39182    38.848146 
178012000    302.64643    377.74397    309.76009   -22504.084    22512.621     67.98388     38.86587 
178016000      252.967    495.50094    211.17172   -22512.407    22517.862    284.32922    38.874247 
178020000    282.57323    489.10648    361.81754   -22507.742    22524.102    127.28894    38.879927 
178024000    281.13123    419.99186    213.52056   -22518.992      22515.1     206.4713    38.884472 
178028000    306.80453    302.96053    212.67327   -22524.127    22523.787    90.287256    38.881464 
178032000    296.43013    385.46894    434.71411   -22533.399    22518.913   -49.245166    38.888708 
178036000    295.95913    734.18983    239.62677    -22550.64    22532.675    494.56306    38.885385 
178040000    297.09915    369.24632    382.23885    -22543.14    22543.171   -12.992526    38.883593 
178044000    279.55451    658.19361    418.50361    -22534.54    22535.437       239.69    38.874446 
178048000    270.54657    648.04195    422.82434   -22527.189    22534.105    225.21761    38.872023 
178052000    276.77012    462.53518    343.52922   -22541.504     22543.68    119.00596    38.865514 
178056000    317.75829    477.66827     492.7181   -22556.288    22541.743   -15.049825    38.863075 
178060000    285.41498    294.84079    282.79928    -22563.97    22546.056     12.04151    38.859725 
178064000    283.68952    172.01701    535.97019   -22560.303    22566.282   -363.95318    38.879103 
178068000    273.93993    402.18099    342.86838   -22567.324    22560.951     59.31261    38.879469 
178072000    278.94599    155.35181    396.76208   -22562.008     22567.49   -241.41027    38.880584 
178076000    262.61967    276.52822    263.75981   -22576.189    22593.056    12.768415    38.889545 
178080000    261.51991    301.71866    231.62683     -22584.4    22595.745    70.091827    38.892207 
178084000    270.81412     493.6828    470.26059   -22573.206    22582.452    23.422213    38.886252 
178088000    272.04071    309.41897    229.41511   -22574.785    22600.395    80.003861    38.890389 
178092000    268.72133      373.666     443.0276   -22577.341    22590.472   -69.361599     38.88237 
178096000    311.89028    430.54843    247.83143   -22613.694    22597.029      182.717    38.891913 
178100000    291.77385    400.42789    259.15053   -22614.636    22621.256    141.27736    38.896246 
178104000    294.43773    425.37856    392.59146   -22619.302    22625.069    32.787099    38.890942 
178108000    289.09033    514.04235    380.23859   -22632.449    22626.989    133.80376    38.888235 
178112000    291.62456    414.62947     217.8628   -22645.499    22636.684    196.76667    38.895511 
178116000    329.18443    425.98405    189.64976   -22650.655    22622.126    236.33429    38.897506 
178120000    257.66172    261.39466    171.76659   -22641.512      22634.5    89.628069    38.911931 
178124000    285.22861    207.29064    488.12281   -22641.256    22641.557   -280.83217    38.903012 
178128000    313.63461    223.79489    339.59596    -22652.35    22636.153   -115.80107    38.895106 
178132000    279.39455    404.86106    219.72846   -22639.719    22644.228     185.1326    38.890545 
178136000    259.85636    277.86133    254.71379   -22644.709    22652.177     23.14754     38.89057 
178140000    282.88906    461.40165    332.13061     -22666.7    22655.957    129.27104    38.893641 
178144000    260.15775    376.96375    318.25939   -22657.902    22664.384    58.704358    38.886061 
178148000    271.72384    194.65289    277.45213   -22666.403    22666.608    -82.79924     38.88503 
178152000    287.18209    214.90953    330.92048    -22665.07    22665.569   -116.01096    38.882153 
178156000    294.79412    463.95417    430.44289   -22673.577    22677.555    33.511282    38.879648 
178160000    277.20621    458.53861    312.40105   -22660.459    22670.775    146.13755    38.869749 
178164000    314.23981    258.57307    482.61861   -22664.178    22648.985   -224.04554    38.866968 
178168000    286.54766    266.02851    296.09895   -22662.295    22656.225   -30.070443     38.86996 
178172000    276.75542      357.913    400.44227   -22679.836    22669.421   -42.529268    38.860479 
178176000    282.76977    488.55908    326.21339   -22693.254    22700.173     162.3457    38.871307 
178180000    286.70399    283.92788     345.2951   -22687.913    22698.852   -61.367219    38.869407 
178184000    268.78475    300.65508    236.65334   -22703.174    22709.076    64.001738    38.866616 
178188000     290.6705    335.36421    359.21323   -22733.931    22717.945   -23.849014    38.875831 
178192000    296.78358    314.38218    215.26924   -22740.173    22737.753    99.112946    38.851623 
178196000    287.09997    247.83615    468.48736   -22750.778    22754.006   -220.65121    38.845917 
178200000     269.6645    218.54567    247.96258   -22763.136    22770.061    -29.41691    38.846815 
178204000    266.37635    279.48165    257.73581   -22762.589     22767.83     21.74584     38.86229 
178208000    310.33235    508.29661    510.67346   -22776.784    22762.224   -2.3768522     38.86138 
178212000    296.78942    392.73845    158.72914   -22781.021    22778.259    234.00931    38.863729 
178216000    264.52049     348.9671    379.56499   -22776.184     22785.13   -30.597888    38.865232 
178220000    286.06561    341.54151    281.67899   -22805.362    22792.988    59.862525    38.874877 
178224000    295.91063     568.6101    492.11428   -22818.663    22809.698    76.495822    38.875884 
178228000    305.08773    405.44561    327.17102   -22821.044    22809.823    78.274588    38.861442 
178232000    293.10679    377.37219    379.27813   -22818.943    22813.323   -1.9059409    38.862037 
178236000    281.26756    295.65344     356.4846   -22822.459    22818.284   -60.831155    38.867933 
178240000    255.57563     298.5927    174.47072   -22842.564     22856.33    124.12198    38.880363 
178244000    260.44029    565.69706    422.55034   -22829.709    22850.146    143.14672    38.887933 
178248000    294.52519    265.18012    234.84752   -22858.429    22858.538    30.332596    38.876822 
178252000    289.97372    505.44066    256.44772   -22889.176    22880.317    248.99295    38.880088 
178256000    310.70732    447.52384    368.14441   -22917.717    22892.589    79.379422    38.875999 
178260000    297.24706    495.08841     610.0631   -22913.502    22908.619    -114.9747    38.872747 
178264000    255.92976    394.71618    375.00578   -22916.369    22930.017    19.710406    38.867245 
178268000    261.04736    399.24872    254.13434   -22917.111    22935.583    145.11439    38.852199 
178272000     287.8404      263.532    272.32834   -22948.697    22941.675     -8.79634    38.861192 
178276000    291.95878    224.64132    184.60524   -22959.303    22947.033    40.036082    38.860707 
178280000    268.31611    401.81764    301.72747   -22931.416    22951.001    100.09017    38.850082 
178284000    256.05107    479.77539    317.41321   -22950.654    22963.891    162.36218    38.845225 
178288000    258.82745    525.20307    402.78347   -22955.598    22971.774     122.4196    38.841336 
178292000    280.03239    567.70363    418.97761   -22955.919    22963.881    148.72603    38.846343 
178296000    266.11585    265.31436    327.92644   -22968.829    22985.604   -62.612079    38.839701 
178300000    272.76174    457.66362    358.41203   -22962.189    22979.698    99.251588    38.839136 
178304000    290.78115     378.1825    252.13546   -22981.124    22969.348    126.04704    38.844384 
178308000    256.67833    289.69947    156.90657   -22984.314    22977.163    132.79291    38.830431 
178312000    271.62958    276.56539    406.56793   -22994.177    22984.038   -130.00254    38.818465 
178316000    269.96025    355.53737    277.38108   -23001.196    22999.201    78.156293    38.809406 
178320000    307.70612    347.08829    279.63668   -22994.721    22993.859    67.451605    38.808394 
178324000    307.39307    705.81271      282.866   -23024.976     23010.83    422.94671    38.810872 
178328000    286.78473    402.08439    255.03767   -23019.783    23012.902    147.04672    38.802294 
178332000    268.11144    512.64314    307.47805    -23026.64    23021.884     205.1651    38.794943 
178336000     287.1321    534.51752    687.52459   -23048.053    23031.439   -153.00707    38.808325 
178340000    285.95743    421.24102    164.87761   -23041.152    23038.667    256.36342    38.809975 
178344000    302.15254    531.42488    454.70888   -23055.649    23044.566    76.716003    38.812333 
178348000    284.34562    227.21837    304.49764   -23056.979    23043.605   -77.279268    38.810509 
178352000    303.92617    382.93284    221.70889   -23075.209    23045.488    161.22395    38.819998 
178356000    256.11776    494.79673    376.29856   -23054.847    23067.385    118.49818    38.818556 
178360000    279.30714    304.67358    393.97708   -23072.799    23064.951   -89.303495    38.833074 
178364000    241.96029    432.30819    157.98592   -23068.562    23074.916    274.32227    38.818874 
178368000    279.74005     341.6611    292.71783   -23088.793    23079.096    48.943266    38.821101 
178372000    266.66963    493.93147     233.2244   -23100.541    23096.886    260.70707    38.821942 
178376000    298.06283    205.00925    463.10385   -23104.371    23089.551   -258.09461    38.821765 
178380000    299.49962     471.5447    265.47067    -23106.39    23103.219    206.07403    38.833767 
178384000    254.05017    359.13016    222.19647   -23111.336    23125.187     136.9337    38.828865 
178388000    250.74827    410.33896    181.68184   -23118.533    23134.699    228.65712    38.828461 
178392000    307.05517    494.62936    232.31954    -23137.58    23140.391    262.30982    38.821166 
178396000      255.294     626.2086    330.48202   -23126.569    23152.524    295.72658    38.831879 
178400000    256.35745    187.15381    341.60266   -23139.152    23161.243   -154.44885    38.839183 
178404000    267.96288     193.9333    231.32466   -23156.852    23157.505   -37.391353    38.841904 
178408000    288.62894    458.76723    240.40584   -23145.572    23164.315    218.36139    38.844934 
178412000    276.17785    499.97309       457.89   -23165.056    23175.808    42.083098    38.845019 
178416000    275.93312    338.66782    282.63659   -23159.544    23168.091    56.031226    38.840056 
178420000    293.67098    452.14433    269.74997   -23184.808    23167.729    182.39436    38.838248 
178424000     306.6553    286.88585    236.97991   -23178.502    23167.735    49.905937    38.835659 
178428000     331.9405    543.61876    341.49232   -23204.001    23175.732    202.12645    38.836357 
178432000    310.32712    489.92195    389.45658   -23221.878    23182.259    100.46538    38.826535 
178436000    298.90636    426.56091    518.89836   -23209.407    23192.716   -92.337454     38.82938 
178440000    277.56325    323.35865    328.87797   -23218.743     23213.13   -5.5193192    38.834919 
178444000    326.27977    539.83856    367.49716   -23243.066    23226.865     172.3414    38.827505 
178448000    279.56905    513.39177     229.7572   -23250.452    23251.357    283.63457    38.824557 
178452000    259.64449    214.17461    264.35194   -23264.073    23267.189   -50.177324    38.824419 
178456000    286.26824    289.31926    274.55809   -23258.037    23264.218    14.761172    38.815652 
178460000    274.68062    219.33607    425.93369   -23272.142    23272.192   -206.59762    38.818902 
178464000    278.45396    578.90435     410.2831   -23290.736    23307.819    168.62125    38.809395 
178468000    267.21932    217.29702    236.13303   -23297.973    23320.705   -18.836014    38.801139 
178472000    294.66888     389.5342     454.1661   -23305.203    23316.775   -64.631908    38.789167 
178476000    261.35066    247.80915    308.35713   -23324.609    23325.767   -60.547971    38.787296 
178480000    284.28437    163.50061    312.68744    -23322.25    23334.754   -149.18683    38.804783 
178484000    298.23661    333.69255    187.56977   -23341.754    23333.219    146.12278    38.813586 
178488000    291.51378    500.01412    307.49083   -23362.911    23344.342    192.52328    38.804963 
178492000     274.5352    302.07295    365.08928   -23349.586    23339.133   -63.016334    38.813329 
178496000    299.65894    420.53836    458.18943   -23359.375     23348.34   -37.651069    38.812242 
178500000    280.20267    333.84569    260.05611   -23359.012    23353.841     73.78958    38.829583 
178504000    297.64242    353.97264    367.29621   -23362.798    23347.756   -13.323573    38.832771 
178508000     269.2039    321.31678    374.86322   -23360.951    23366.782   -53.546449    38.834931 
178512000    258.40303    410.05131    209.93943   -23379.546    23393.834    200.11188    38.836953 
178516000    273.65991    188.31933    203.76451   -23389.816    23376.618   -15.445189    38.842495 
178520000    276.77423    655.93296    358.14733   -23377.825    23380.822    297.78563    38.851879 
178524000    251.57853    215.07866    384.88351   -23380.837    23395.793   -169.80484     38.85767 
178528000    247.18966    517.62968    410.53043   -23394.614    23412.573    107.09925    38.866922 
178532000    250.57377    221.17968    393.91424   -23398.349    23416.575   -172.73456    38.866896 
178536000    255.62978    191.40165    314.81201   -23401.716    23414.278   -123.41036    38.867192 
178540000    284.23163    344.10139    389.47421   -23400.184    23400.378   -45.372818    38.862586 
178544000    270.10783    273.89522    614.74508   -23396.369    23409.407   -340.84987     38.85756 
178548000    303.59622    567.29854     398.0241   -23410.947     23412.62    169.27444     38.86916 
178552000    273.71154     294.2578    423.20985   -23424.963    23431.791   -128.95204    38.871174 
178556000     284.9377    331.02007    348.61652   -23433.201    23432.887   -17.596451    38.868834 
178560000    301.79774     445.4294    260.42242   -23434.177    23446.511    185.00698    38.865019 
178564000    261.38445    459.59181    282.98862   -23426.165     23443.69    176.60319    38.858559 
178568000     269.4179    267.20319    373.20188   -23443.164    23446.531   -105.99869    38.852574 
178572000    287.04381    711.97284    109.62515   -23450.305    23444.031    602.34769    38.858973 
178576000    310.90613    326.63788    372.16963    -23468.94    23438.872    -45.53175    38.859253 
178580000    281.61316     252.0323    255.21299   -23478.831    23468.701   -3.1806907    38.852222 
178584000    265.61037     405.9023    231.53945    -23496.52    23498.579    174.36285    38.849503 
178588000    286.93796    484.25718    253.89212   -23504.079    23493.721    230.36506    38.850182 
178592000     244.1529    309.48814    520.79585   -23490.022    23512.789   -211.30771    38.844459 
178596000    273.57585    121.34844    118.86302   -23512.125    23520.255    2.4854144    38.855899 
178600000    296.36852    382.60561    375.19898   -23525.103    23521.971    7.4066219    38.847784 
178604000    263.49516    512.09243    189.70111   -23527.725    23533.751    322.39132    38.856641 
178608000    259.72343    602.18316    317.44479    -23524.39    23539.602    284.73836    38.864736 
178612000    276.74583    278.18974    290.56234   -23548.474    23554.586   -12.372603    38.862806 
178616000    268.44179    330.24773    237.66897   -23559.416    23561.152    92.578753    38.869072 
178620000    283.66835    440.60388    410.31104   -23575.139    23564.265    30.292847    38.869451 
178624000    278.96465    292.54798     226.0971   -23584.147    23588.275     66.45088    38.881769 
178628000    282.67677    482.64033    523.08253   -23588.326    23580.637   -40.442201    38.873171 
178632000    285.92801    421.94254    250.31354    -23565.54     23587.08      171.629    38.869551 
178636000    276.63221    340.42121    470.60096   -23588.068      23573.9   -130.17975    38.865875 
178640000     293.8865    256.97842    367.33636   -23588.728    23595.293   -110.35794    38.860668 
178644000     264.5843    344.34425    180.51483   -23594.877    23603.472    163.82942    38.874799 
178648000    290.03684    272.69131    529.61276   -23594.724    23600.819   -256.92145    38.859414 
178652000    283.19392     404.3587     235.8035   -23600.704     23604.48     168.5552    38.866796 
178656000     314.1771    325.00935    378.83836    -23628.17    23608.571   -53.829004    38.863614 
178660000    281.02143    414.52106     476.8419   -23620.905    23618.008   -62.320837    38.861101 
178664000    298.45795    225.82545    328.80415   -23621.123    23610.093    -102.9787    38.867487 
178668000    272.85758     263.5074    512.76735   -23627.487     23614.44   -249.25995    38.877334 
178672000    333.71551    457.83661    206.66948   -23639.909    23596.318    251.16713     38.87815 
178676000    321.42696     541.9649    364.20348   -23626.954    23616.088    177.76142    38.870714 
178680000    278.28196    375.11793    416.47298   -23631.132    23645.633   -41.355048    38.862486 
178684000    284.26707    412.92258    410.40972   -23634.682    23641.213    2.5128578     38.86244 
178688000    276.37901    353.64247    188.35756   -23641.827    23655.188    165.28491     38.86029 
178692000    276.81174    505.25703    358.76457   -23641.135    23643.393    146.49246    38.858142 
178696000    276.59525     256.1284       345.03    -23656.39    23646.954   -88.901599    38.850256 
178700000    285.21482    357.44046    300.91444   -23651.888      23650.3    56.526021    38.842956 
178704000    254.05189        336.6     373.6235   -23640.996    23661.119   -37.023503    38.846095 
178708000    252.52917    224.61969    205.81564    -23656.37    23664.977    18.804051    38.847868 
178712000    295.31544    172.57819    254.84226   -23673.297    23673.532   -82.264069    38.829782 
178716000    276.77689     374.2738    280.34276   -23699.509    23698.842    93.931045    38.829198 
178720000    309.11318    305.74742    261.72759   -23716.522     23707.59     44.01983    38.833416 
178724000    291.63449    485.52641    256.76055   -23712.027    23706.307    228.76586    38.826278 
178728000    289.93508    336.39014    320.51481    -23713.42    23718.448    15.875326    38.820111 
178732000     289.3106    534.44834    641.93885   -23727.466    23721.104   -107.49051    38.819816 
178736000    271.73453     338.6571    312.92678   -23731.466    23734.283     25.73032    38.828723 
178740000    329.43519    306.90239    348.74061   -23736.927    23721.411   -41.838225    38.834938 
178744000     258.8871    291.72976    277.17967   -23738.593    23755.261     14.55009    38.852555 
178748000    275.99931    293.00105    250.18489   -23755.526     23750.57    42.816153    38.854301 
178752000    256.32821    477.01611    234.24282   -23745.059    23772.005     242.7733    38.860461 
178756000    304.57077    362.21302    409.44412   -23796.036    23777.224   -47.231098    38.865399 
178760000    292.18678    313.17289    291.87145   -23794.975    23791.614    21.301442    38.865996 
178764000    278.12929    217.51052    160.12136    -23790.79    23793.828    57.389152    38.865152 
178768000    259.21028    262.52942     368.2036    -23783.38    23786.489   -105.67418    38.867946 
178772000    268.12393    254.01749    206.04561   -23796.091    23796.084    47.971873    38.866996 
178776000    271.80064    364.79734     609.6043   -23794.825    23807.813   -244.80695    38.858373 
178780000    293.26664     350.3908     548.2659   -23801.924    23820.877    -197.8751     38.85716 
178784000    261.98915    432.44685    225.46993   -23806.747    23839.023    206.97691    38.857843 
178788000    284.52016    419.14081     498.1131   -23823.154    23819.191   -78.972286    38.857803 
178792000    263.79702    385.58297    335.17358   -23810.686    23837.703    50.409398    38.862774 
178796000    282.82013    456.29423    475.99972   -23821.905    23823.878   -19.705498    38.859614 
178800000    300.07328    274.00401    368.68225   -23833.158    23836.769   -94.678241    38.845047 
178804000    258.22155     238.7146    488.24899   -23839.993    23842.355    -249.5344    38.851401 
178808000     287.9268    386.03235    284.25952   -23836.478    23846.928    101.77283    38.839537 
178812000     268.3249    303.01733    310.74053   -23846.039    23845.959   -7.7231957    38.846589 
178816000    268.85535    276.05742     104.1682   -23848.067    23861.432    171.88923    38.830506 
178820000    264.41547    332.50461    476.73955   -23862.576    23855.972   -144.23494     38.82385 
178824000    299.32802     362.1779    339.89358   -23872.899    23861.203    22.284321    38.826671 
178828000    287.74426    277.61991      245.027   -23885.159    23879.566    32.592912    38.821972 
178832000    265.31687    377.61027    318.47171   -23882.544    23884.438    59.138559     38.81942 
178836000    295.82049    437.25747    395.10569    -23892.06    23894.582    42.151781    38.828715 
178840000     301.3631    443.47165    436.90331   -23907.144    23880.046    6.5683394    38.834025 
178844000    303.99996    268.73129    370.72122   -23916.067    23890.981   -101.98992    38.824562 
178848000    297.95849    339.30107    117.57979   -23914.893    23902.299    221.72128    38.827193 
178852000    268.72912    298.63417    318.83412   -23917.434    23924.946   -20.199954    38.830293 
178856000     279.3573    393.98602     258.5305   -23922.346    23914.651    135.45552    38.833064 
178860000    293.70465    335.32152    443.68112   -23922.561     23913.64    -108.3596    38.835665 
178864000    282.37532    369.01379    352.61944   -23929.585    23910.262    16.394344    38.836338 
178868000    296.47816    435.68855    293.26128   -23932.716    23923.901    142.42727    38.841686 
178872000    272.08729    321.63657    456.73518   -23913.859    23912.318    -135.0986    38.834753 
178876000    256.21842    278.22882    262.78719   -23921.991    23934.647    15.441623    38.841564 
178880000    282.72802    385.32741     202.5015   -23942.315      23929.1    182.82591    38.857026 
178884000    278.54762    432.61899    351.43726   -23926.274    23932.029     81.18173    38.862806 
178888000    272.91534    559.60411    300.11232   -23916.829    23922.849    259.49179    38.866206 
178892000     280.7619    271.70709    427.04442    -23920.55    23911.065   -155.33733    38.878065 
178896000    249.46809    351.81287    227.33256   -23933.624    23928.477    124.48031    38.882337 
178900000    301.34156    394.84775     405.9215   -23941.984    23936.734    -11.07375    38.894879 
178904000    260.48899    314.26358    131.23124   -23941.256    23945.254    183.03234    38.896721 
178908000    282.90927    529.60646    371.93874   -23960.146    23952.045    157.66773    38.899047 
178912000     289.5493    271.50652    229.85801   -23966.569    23969.442    41.648518    38.893407 
178916000    286.90161    595.70406    273.84923   -23970.715    23974.942    321.85483    38.906073 
178920000    268.37658    362.11243    227.95613   -23974.729    23981.405    134.15629    38.909516 
178924000    286.05475    745.68205    368.27895   -23999.495    23984.167     377.4031    38.911369 
178928000    283.49178    246.14799    675.86523   -23985.108    23988.225   -429.71724     38.89692 
178932000     246.5326    431.84859    199.54904   -23984.941    24008.699    232.29955    38.890275 
178936000     292.2856    440.16656    649.58052   -24013.996    23998.343   -209.41396    38.872452 
178940000    273.27303    326.51363    214.76022   -24030.134    24035.742    111.75341     38.88506 
178944000    277.67354    561.43295    240.49719   -24051.862    24051.882    320.93576    38.888386 
178948000    260.86625    385.01261    320.58441   -24051.334    24068.086    64.428207    38.894261 
178952000    268.21932     528.5454    239.99531   -24050.068    24068.093     288.5501    38.902085 
178956000    276.95593    263.98631    343.20733   -24066.742    24066.814   -79.221022    38.902278 
178960000     288.0482    270.57233     405.0214   -24084.539    24079.692   -134.44906    38.891464 
178964000    263.22852    257.83965    321.41775   -24083.933    24100.155   -63.578106    38.888072 
178968000    267.94478    446.29464       445.88   -24111.627     24114.64   0.41464516    38.899263 
178972000    276.68463    309.01104    120.60335   -24129.807    24129.225    188.40769    38.909227 
178976000    299.86515    342.85045    539.02124   -24140.027    24131.014   -196.17079    38.897712 
178980000    310.86389    448.16655    374.08765   -24141.134    24140.758    74.078899    38.896536 
178984000     269.6015    163.79748    443.82462   -24137.488    24150.065   -280.02714    38.887362 
178988000    286.86557    601.02986    384.15203   -24173.932    24156.092    216.87783    38.891991 
178992000    296.94068    436.32461    401.00777   -24183.434     24175.07    35.316843    38.887439 
178996000    302.26535    367.98867    303.49641   -24176.191     24181.25    64.492262    38.878317 
179000000    284.96566    205.15958    197.58063   -24192.395    24179.241    7.5789506    38.883772 
179004000    282.67307    381.38535    352.50276   -24189.465    24176.595    28.882592    38.886773 
179008000    275.59415    364.89095    316.88497   -24198.411    24198.916    48.005981    38.893376 
179012000    300.26614     584.4594    283.48269   -24209.443    24197.947     300.9767    38.901102 
179016000    274.35648    417.47131     411.7174   -24215.626    24225.855    5.7539038    38.900329 
179020000    254.96664    430.15696    292.26689   -24219.926    24219.378    137.89007    38.909077 
179024000    268.85331    590.16191    242.79991   -24239.033    24248.816      347.362    38.915001 
179028000    299.53714    319.96659    250.03059   -24239.901    24235.704    69.935993    38.909917 
179032000    267.99086    223.32842    416.80719    -24230.24    24233.977   -193.47877    38.912432 
179036000    293.92628    294.19355    534.09604   -24240.451    24233.415   -239.90249    38.901901 
179040000     271.3599    330.20382    418.31355    -24222.24    24235.278   -88.109731    38.897039 
179044000    288.37798    313.84174    367.14966   -24239.911    24230.394   -53.307925    38.896288 
179048000    298.05563     340.7507    213.51035   -24250.757     24227.21    127.24035    38.897142 
179052000    291.96854    177.64009    285.43765   -24236.663    24234.956   -107.79756    38.897267 
179056000    264.46452    330.91584    192.38061   -24235.168    24256.592    138.53523    38.889663 
179060000    270.36862    338.78022    217.16526   -24245.631    24270.501    121.61496    38.888291 
179064000    286.65215    252.87031    271.96156   -24259.003    24251.479   -19.091254    38.888071 
179068000    299.21321    352.21588    225.25327   -24268.527    24245.903    126.96261    38.900644 
179072000    301.08591    493.48003    383.21035   -24268.515    24254.526    110.26968    38.897149 
179076000    307.87218    522.29629    254.27698   -24285.217    24272.146    268.01931    38.899311 
179080000      298.464    454.37637    370.64193   -24285.733    24266.862     83.73444    38.900092 
179084000    294.03372      245.647    418.11821   -24284.318    24277.349   -172.47121    38.895705 
179088000     278.0926    477.32366    440.57855   -24287.466    24281.412    36.745109    38.904121 
179092000     279.0329    465.72224    312.96073   -24284.622    24284.304    152.76151    38.891836 
179096000     288.8516    362.61755    783.83808   -24304.698    24301.461   -421.22052    38.898529 
179100000     299.6231    548.78822    187.79085   -24325.006    24313.501    360.99737    38.907813 
179104000    304.06072    341.29952    595.23163   -24328.378    24297.289    -253.9321    38.897265 
179108000    279.12146    449.95902    533.08321   -24319.299    24330.733   -83.124189    38.914051 
179112000    274.34945    501.33548    283.44934   -24342.205    24348.374    217.88614     38.91677 
179116000    293.73898    340.35802    396.22447   -24353.679    24338.879   -55.866447    38.923609 
179120000    294.32514    440.45074    366.81238   -24360.865    24342.423    73.638364    38.921457 
179124000    277.01118    331.45476    338.12527   -24386.255    24367.807   -6.6705084    38.918209 
179128000    297.52394    388.91238    217.98324   -24376.488    24365.998    170.92915    38.920206 
179132000    293.64727     441.5544    416.56512   -24376.626     24368.51    24.989275    38.925831 
179136000    267.30463    432.12672    532.55649   -24369.815    24383.099   -100.42978      38.9277 
179140000    258.93172    314.36117     173.7115   -24376.906    24391.971    140.64967    38.923132 
179144000    261.16839    363.82702    199.10619   -24367.878    24396.527    164.72083    38.925386 
179148000    268.20149    274.16266    235.99943   -24370.945     24397.42    38.163226     38.92771 
179152000    264.06139    365.24358    341.67289   -24378.563    24396.036    23.570688    38.932882 
179156000    272.69344     418.0814     327.3362   -24411.412    24397.676    90.745192    38.919478 
179160000    275.18174     459.6358    318.48472   -24404.547     24421.32    141.15108    38.918409 
179164000    296.08968    396.08936    494.91997   -24421.592    24415.588   -98.830601    38.913103 
179168000    265.81454    311.07921    301.66253    -24423.31    24437.194     9.416684    38.921484 
179172000    267.41419    284.38398    280.18825   -24427.026    24440.893    4.1957299    38.916595 
179176000    285.25713    516.73064    340.88369   -24457.285    24436.443    175.84696    38.913318 
179180000    324.38642    339.48227    282.24221   -24454.123    24425.904    57.240059    38.932603 
179184000     291.4075    433.99536    173.10507   -24453.934    24444.406    260.89029    38.934729 
179188000    249.27924    240.32026    557.55346   -24435.575     24449.49    -317.2332    38.930638 
179192000    290.06003    337.85513    308.96077   -24447.919     24455.89    28.894364    38.917585 
179196000    264.43765    600.35165    230.03166    -24455.44    24454.105    370.31999     38.92727 
179200000    297.61107    396.61651    184.95311   -24466.123     24466.02     211.6634    38.934207 
179204000    268.36819    497.52896    455.86291   -24456.246    24474.793    41.666044    38.938505 
179208000     283.1364    382.61509    267.37906   -24484.606    24471.407    115.23603     38.93406 
179212000    234.70589    472.41556    238.77903   -24470.086    24501.361    233.63653    38.926241 
179216000     272.3601     270.3155    473.06075   -24482.402    24499.814   -202.74526    38.915731 
179220000    274.65601    590.00445    505.38321    -24511.03    24504.747    84.621241    38.907534 
179224000    250.90373    280.42508    235.43874   -24522.826    24523.812    44.986331    38.906105 
179228000    296.77996    301.14848    424.89671   -24527.421    24519.939   -123.74823    38.890357 
179232000    298.06246    496.16428    365.68347    -24538.19    24528.335    130.48081    38.887091 
179236000    282.59378    496.24124    403.54932   -24548.499    24541.177    92.691922    38.875406 
179240000    314.21812    214.07069    363.66986   -24571.801    24542.964   -149.59917     38.88148 
179244000    283.82126     286.0364    451.97307   -24562.575    24555.766   -165.93666    38.881947 
179248000    296.16143    500.22028    334.21883   -24586.564    24550.202    166.00144    38.870151 
179252000    282.72958    197.09684    367.60245   -24570.821     24569.38   -170.50562     38.88288 
179256000    285.32489    491.22768    461.21907   -24566.124     24573.02    30.008612    38.877364 
179260000    285.16562    289.17536    506.51384   -24576.198    24569.071   -217.33847    38.866245 
179264000    298.42411    386.81314    225.08385    -24582.88    24581.552    161.72929    38.870928 
179268000    275.94994    541.83525    384.44291   -24597.126    24596.666    157.39235    38.859978 
179272000    286.22908    630.56604    544.10628   -24609.082    24616.482    86.459756    38.853843 
179276000    285.94608    408.15216    401.22746   -24618.486    24631.161    6.9246978    38.854722 
179280000      271.098    365.01651    400.39848   -24625.887    24640.315    -35.38197    38.864777 
179284000    253.81303     419.6154    272.28052   -24640.693    24649.009    147.33488    38.859738 
179288000     261.2262    346.30316    252.97847    -24667.58     24674.37    93.324684    38.884798 
179292000    304.16646    262.71316    389.45029    -24696.62    24663.293   -126.73713    38.884119 
179296000    258.53905    233.36444    251.39112   -24684.818    24676.158   -18.026685    38.897133 
179300000    311.55497     470.6323    238.08373   -24715.267    24700.069    232.54857    38.906688 
179304000    308.41228    492.38565    406.68571   -24727.098    24704.557    85.699938    38.901147 
179308000    292.96337     435.4931    364.54723   -24730.571    24702.217    70.945871    38.908973 
179312000    285.01726    508.22625    362.35562   -24747.722     24728.62    145.87062    38.904669 
179316000    284.18021    269.50655    504.84124    -24723.83    24732.457   -235.33469    38.903054 
179320000    287.39293    499.53047    491.56003   -24717.975    24731.297    7.9704472    38.897168 
179324000    302.05265    493.28971    205.49692   -24749.129    24730.928    287.79279      38.9032 
179328000     268.2408    331.26905    215.34276   -24751.444    24744.757    115.92628    38.907824 
179332000    289.75883    345.01633    169.68621   -24764.822    24749.277    175.33012    38.915278 
179336000    281.09336    393.26122    409.86238   -24770.296      24762.3   -16.601155    38.922593 
179340000    285.00366    394.99049    377.37835    -24787.35    24779.105    17.612142    38.921219 
179344000    262.04342    264.19864    430.19171   -24789.861    24785.147   -165.99307    38.915227 
179348000    282.64237    231.29931    249.89085   -24785.178    24788.027   -18.591541     38.91399 
179352000    277.61818    196.68679    261.14935   -24784.363    24784.574   -64.462559    38.903928 
179356000    298.61912    185.15859    405.10256   -24803.588     24785.18   -219.94397    38.901188 
179360000    303.30067    265.77737    390.49384    -24811.63     24797.17   -124.71647    38.889691 
179364000    280.94698    219.98875    238.34527   -24812.181    24819.999   -18.356524    38.890631 
179368000    312.10048    327.27328    328.90867   -24827.653    24818.635   -1.6353887    38.881807 
179372000    286.34316    661.77313    289.97691   -24847.613    24838.256    371.79622    38.885965 
179376000    265.99982    244.89349    231.36616   -24849.001    24852.481    13.527337    38.889908 
179380000    278.49106    413.61852    451.81507   -24860.451    24861.369   -38.196542    38.893424 
179384000     280.4299    228.69169    556.96119   -24886.881    24872.136    -328.2695    38.880734 
179388000    299.66254    311.45975    289.69188   -24897.655    24885.719    21.767868    38.873066 
179392000    277.77141    561.27058    309.00812   -24890.561    24886.058    252.26246    38.881273 
179396000    273.25435    320.69822    356.18313   -24893.311    24886.546   -35.484908    38.874002 
179400000    282.54687    449.47065    241.95001   -24895.953    24896.354    207.52065    38.869796 
179404000    264.98058    493.77092    299.15167   -24899.234    24910.622    194.61925    38.869292 
179408000    272.78267    321.87358    210.94714   -24890.909    24908.848    110.92644    38.867726 
179412000    268.17318     185.7328    350.93272    -24924.67    24923.295   -165.19992    38.871354 
179416000    289.83086    343.43002    461.90992   -24932.669    24929.717   -118.47989    38.872356 
179420000    294.18333    436.13253     330.8871   -24930.597    24928.738    105.24543    38.877506 
179424000    266.83863    319.30331     262.9148   -24931.757    24927.572    56.388513    38.889556 
179428000    291.72338     323.2559    153.56446    -24940.55    24932.528    169.69145    38.883184 
179432000    293.71182    411.16136    227.42851   -24933.861    24924.482    183.73284    38.878545 
179436000    269.62787    280.90128     413.8038   -24942.376    24936.668   -132.90252    38.885025 
179440000    280.30631    330.15737    308.32457   -24954.332    24946.909    21.832797    38.887569 
179444000    312.46645    234.60339     390.4886     -24970.5    24951.065   -155.88521    38.900144 
179448000    276.51387    438.97032    326.20831   -24971.788    24978.524    112.76201    38.901125 
179452000    261.66854    280.55717    413.25581   -24969.209     24974.93   -132.69864    38.900166 
179456000    296.49574    288.52598    328.41674   -24960.915    24955.903   -39.890761    38.896325 
179460000    256.26686    382.45431    228.75719   -24978.119    24995.024    153.69713    38.902796 
179464000    281.42445    383.46956    444.34291   -24982.874    24985.052   -60.873358    38.901585 
179468000     266.7334    398.23664    249.57462    -24985.02     24999.93    148.66202    38.906438 
179472000    294.04887    371.73189    547.40158   -24983.491    24976.067    -175.6697     38.90707 
179476000    262.25437    449.47697    489.72543   -24990.339    25004.589    -40.24846    38.901393 
179480000    281.78991    372.69651    426.53414    -24987.47    24989.653   -53.837635    38.885043 
179484000    301.32323    573.72803    288.18123   -24991.912    24992.149     285.5468    38.873349 
179488000    298.82033     307.1152    310.10072   -24986.869    24984.749   -2.9855278    38.866066 
179492000     274.2468     406.9114    289.57939   -24980.334    24995.686      117.332    38.869593 
179496000    278.76155    236.18971    536.48726   -24997.697    24982.909   -300.29756    38.861547 
179500000    281.94471    531.23687     408.7126   -25008.811    24999.783    122.52427    38.852183 
179504000    293.61093    402.65218    388.50235   -25007.579    24998.269    14.149836    38.848641 
179508000    289.48294    335.42122    472.00983   -25010.622    24998.884   -136.58862    38.840004 
179512000    290.49705    348.93626    273.18075   -25022.104     25030.89    75.755517    38.845509 
179516000    289.87565    462.19685    504.32459   -25058.368    25038.112   -42.127738    38.838793 
179520000    302.23032    294.57806    237.70375   -25070.149    25049.814    56.874306    38.836325 
179524000    318.30209    426.74724    479.24016   -25060.764    25047.739   -52.492921    38.840104 
179528000    252.02875    394.35091    347.39228   -25046.798    25063.091    46.958624    38.837885 
179532000     263.7023    260.41599    256.90848   -25060.414    25069.448    3.5075094    38.822916 
179536000    291.70224    307.92882    359.95554   -25070.233    25068.597   -52.026717    38.819579 
179540000    281.64622    230.65721    306.54904   -25085.663    25079.601   -75.891831    38.827947 
179544000    282.50034    390.25454      526.951   -25091.073    25081.694   -136.69646    38.819119 
179548000    305.24035     308.0536    397.61024   -25109.148    25087.561   -89.556639    38.810004 
179552000    256.79428     363.5346    217.39274   -25097.502    25111.056    146.14186    38.807712 
179556000     278.9268    367.51198    267.81664   -25114.424    25115.862    99.695344    38.814055 
179560000     274.4729    203.34369    612.71813   -25100.923    25114.268   -409.37443    38.815858 
179564000    274.11868     519.0568    280.33423   -25106.395    25126.402    238.72257    38.822199 
179568000     283.8663    192.54339    460.22088   -25117.343    25129.139   -267.67749    38.815764 
179572000    279.71381    447.32206    348.58151   -25127.337    25144.778    98.740545    38.814263 
179576000    268.95651    553.33983    346.75341   -25126.693    25147.929    206.58642    38.806778 
179580000    285.91872    324.42113    306.21666   -25153.121    25143.207    18.204462    38.808099 
179584000     252.6686    328.24369    266.25559   -25127.849    25157.796    61.988105    38.816799 
179588000    275.36137    239.93416    202.18651   -25142.566    25158.989    37.747656    38.830363 
179592000    280.31846    397.40411    451.87017   -25152.775    25152.284    -54.46606    38.830887 
179596000    276.88517    371.36385    151.73974   -25157.586    25161.878    219.62411    38.829836 
179600000    283.93024    356.21988    454.40627   -25173.059    25170.709   -98.186385    38.828843 
179604000    268.46015    339.92364    372.49868   -25177.356    25171.585   -32.575038    38.824564 
179608000    286.52107    133.51107    233.03551   -25201.524    25200.586   -99.524431    38.813759 
179612000    278.06522    549.84948    369.83057   -25212.781    25221.055    180.01891    38.814798 
179616000    236.16233    317.65329     384.5017   -25191.373    25241.019    -66.84841    38.810504 
179620000    239.29245     574.6588    307.71201   -25201.648    25248.514    266.94679    38.824896 
179624000    245.12785    397.50954     434.7878   -25204.102    25246.013   -37.278265    38.828112 
179628000    264.14074    223.35766    217.88973   -25219.223    25244.059    5.4679327    38.827674 
179632000    253.50917    234.75653    256.07526     -25225.4    25238.489   -21.318729    38.826998 
179636000    290.60462    649.51107    502.53715   -25237.814    25240.357    146.97393    38.823946 
179640000    278.14732    403.12847    304.91175   -25241.384    25257.663    98.216718     38.81979 
179644000    299.96065    322.95411     502.4836   -25245.508    25253.381   -179.52949     38.81013 
179648000    300.50871    415.62332    319.17637   -25243.913    25250.196    96.446944    38.809455 
179652000     273.6528    151.47547    233.87464   -25232.938    25245.718   -82.399174    38.814978 
179656000     284.8004     559.0418    440.27138   -25240.362    25251.572    118.77043    38.827089 
179660000      273.218    305.91874    127.81928   -25253.747    25251.471    178.09946    38.835683 
179664000    290.11955    248.82662    289.55451   -25262.895    25264.553    -40.72789    38.825164 
179668000    275.93888    427.29517    295.77141   -25259.888    25258.807    131.52375    38.825652 
179672000    267.87785    456.43864    485.86926   -25259.945    25264.838   -29.430611    38.834676 
179676000    256.11015    137.64582    282.12806   -25255.245    25280.017   -144.48224    38.844765 
179680000    283.06228     362.4051    355.55473   -25273.594    25268.893    6.8503713    38.856253 
179684000    275.82093    477.93575    304.95995   -25278.655    25284.958    172.97579    38.861836 
179688000    277.31452    305.56817    257.29465   -25306.587    25300.598    48.273518    38.858119 
179692000    275.74766     368.2351    403.33359   -25306.978    25316.601   -35.098495     38.86842 
179696000    270.36144    305.24092    265.86898    -25311.78    25320.427    39.371939    38.878073 
179700000     249.8348    395.43028    272.59264   -25304.781    25322.781    122.83764    38.882743 
179704000    306.57455    435.83028    283.94755   -25319.422    25318.257    151.88273    38.892318 
179708000    277.77466     689.4984    366.96913    -25334.13    25331.381    322.52927    38.891724 
179712000    281.64658      385.667    247.16955   -25328.192    25316.926    138.49744    38.886286 
179716000    270.61139    364.00421    185.04426   -25321.095    25333.882    178.95994    38.891952 
179720000    304.17071    324.10871    659.06591   -25338.362    25318.247    -334.9572    38.883998 
179724000    295.00843     319.5331    301.74848   -25339.509    25325.342    17.784618    38.892988 
179728000    314.01818    613.30237    213.85822   -25359.708     25328.77    399.44415    38.889931 
179732000    311.96971    320.00739    339.15996   -25349.996    25325.814   -19.152564    38.883749 
179736000    304.14179    310.47687    432.04164   -25342.476    25317.948   -121.56477    38.892224 
179740000    297.78691    303.77036    349.01579   -25338.587     25320.21    -45.24543    38.897941 
179744000     256.2252    282.97567    318.38697   -25325.989    25334.309   -35.411302    38.891736 
179748000    292.26968    239.57156    481.77891   -25313.049    25327.373   -242.20735    38.881228 
179752000    293.41836     335.8544    292.00318   -25341.671     25337.67    43.851216    38.885432 
179756000    291.68553    597.45838    654.01668   -25348.626    25353.664   -56.558298    38.881723 
179760000    272.69906      417.413    239.07871    -25335.94    25351.102    178.33429    38.882674 
179764000    238.18604    250.64044    393.81304   -25323.997    25358.451    -143.1726    38.889034 
179768000    317.74445    352.24971    218.60954   -25368.894    25324.848    133.64016    38.890036 
179772000    313.11825    551.75121    323.83207   -25354.091    25341.909    227.91914     38.89922 
179776000    270.28744    612.53806    273.27153   -25359.231    25351.326    339.26653    38.908101 
179780000     292.4093    462.88074    316.59466   -25365.735    25365.863    146.28608    38.907342 
179784000    301.37844       269.51    414.97678    -25381.67    25385.211   -145.46678    38.919854 
179788000    283.32898    382.72116     537.3145   -25405.403    25392.422   -154.59333    38.916362 
179792000     271.0818    394.65965    159.29984   -25403.955    25423.225    235.35981      38.9118 
179796000     294.8028    557.24191    259.69037   -25410.594    25405.061    297.55154    38.929177 
179800000    294.19539    331.19844     259.5594   -25416.937    25411.422    71.639037    38.933324 
179804000     283.8624    462.76686    336.57362   -25423.754    25422.512    126.19325    38.924761 
179808000    275.88859    488.77467    305.69698   -25428.268    25442.802    183.07768    38.926639 
179812000    302.56483    510.43558    530.14115   -25428.746    25430.976   -19.705566     38.92588 
179816000    284.29222     358.3995    217.59358   -25434.608    25437.161    140.80591    38.931847 
179820000    302.90776    457.36725    450.95973   -25438.538    25429.496    6.4075249    38.923411 
179824000    283.19228    623.48899    221.75667   -25442.954    25442.431    401.73232    38.919834 
179828000    251.94342    202.56817    476.19054   -25447.471    25463.513   -273.62237    38.932747 
179832000    309.93502     411.3719    440.96615   -25469.651    25456.688   -29.594247    38.935051 
179836000    267.88772    373.96993    237.24059   -25465.392    25478.144    136.72933    38.932243 
179840000    300.65142    392.79459    255.03106   -25467.758     25470.29    137.76353    38.936426 
179844000    308.44276    357.41092    327.79729   -25488.866     25464.95    29.613632    38.948054 
179848000    282.99094    377.87337    360.08662   -25493.484    25480.926     17.78675    38.948293 
179852000    272.66169    378.93333     371.7362   -25506.243    25506.956    7.1971238    38.944051 
179856000    298.86913    308.39243    326.58746   -25517.556    25501.607   -18.195026    38.955171 
179860000    275.46132    215.17824     368.5489   -25506.189    25507.215   -153.37066    38.943543 
179864000    274.83723    594.38866    410.37181   -25518.134      25516.2    184.01685    38.953823 
179868000    297.53349    616.49976    282.54871   -25520.388    25514.619    333.95105    38.946552 
179872000    309.93438    457.02432    451.31727    -25522.26    25505.102    5.7070447    38.949151 
179876000    280.93779     361.2386    280.67828   -25526.347     25518.73    80.560323    38.947349 
179880000     268.0753    396.23699    241.33232   -25533.674    25529.816    154.90466    38.950216 
179884000    283.69123    378.55145    508.88517   -25547.264    25524.596   -130.33372    38.954525 
179888000    283.71431    452.15914     469.4224    -25546.65    25557.361   -17.263258    38.948136 
179892000     245.8627    263.70994    323.51929   -25552.542    25578.021   -59.809347    38.938849 
179896000    279.07832     603.1559    412.94283   -25569.445     25579.17    190.21307    38.945349 
179900000     286.9334    373.27281    161.43686   -25566.989    25572.141    211.83595    38.941763 
179904000    280.22991    292.32957     510.6651   -25545.928    25561.533   -218.33553    38.938369 
179908000    279.62061    375.35539    376.21103   -25559.727    25556.647  -0.85564166    38.941274 
179912000       293.64    281.11412    219.01422   -25581.863    25575.619    62.099893    38.946322 
179916000    307.50205    247.79915    511.51448   -25587.641    25571.277   -263.71532    38.953812 
179920000    314.00298    390.76905    482.03569   -25606.077    25581.626   -91.266645    38.975313 
179924000    272.88747    156.99588    385.59733   -25586.057    25592.608   -228.60145    38.985612 
179928000    281.10668    516.51977     336.1045   -25606.459     25606.73    180.41528    38.995392 
179932000    259.02488    418.24013     317.6624   -25603.804     25618.67    100.57773    38.998912 
179936000    270.25446    415.84271    276.02903   -25613.447    25630.939    139.81367    38.995849 
179940000    299.66823      365.567    411.53504   -25631.721     25633.09   -45.968036    39.002139 
179944000     269.2736    300.60104    169.92447     -25645.9      25642.8    130.67657     38.98927 
179948000    283.78489    330.43467    469.08772   -25655.889    25650.014   -138.65305    38.994072 
179952000     255.9746     305.4727    255.60848   -25666.544    25672.889    49.864221    38.989387 
179956000    305.67767    303.13211    357.61433   -25670.315    25664.858    -54.48222    38.984067 
179960000    265.14069    385.43797    252.67731   -25671.037    25686.638    132.76065    38.993799 
179964000    265.29573    230.83455    337.83407   -25683.911    25689.676   -106.99951    38.989498 
179968000    265.15099       434.34    536.74667   -25677.399    25694.333   -102.40668    38.990066 
179972000    288.82956     406.8125    190.62379   -25693.442    25696.074    216.18871    38.983944 
179976000    272.74831    271.36996    446.29372   -25711.648    25734.347   -174.92375    38.984894 
179980000    261.50115    466.11362    266.87477   -25731.955    25743.137    199.23885    38.988194 
179984000    275.90327    362.76846    352.76991   -25751.767    25754.427    9.9985485    38.983353 
179988000    278.47677    272.08432    341.37874   -25760.456    25777.487   -69.294416    38.984078 
179992000    284.72732     267.9488    279.78207   -25766.168    25782.745   -11.833276    38.986348 
179996000    285.24025    220.47989     414.6242   -25770.092    25773.427   -194.14431    38.988646 
180000000    266.90924    210.63066    319.28752   -25766.927    25793.372   -108.65685    38.985766 
180004000     299.3128    573.76096    365.29782   -25780.731    25781.108    208.46314    38.997417 
180008000    293.93028    244.45446    282.42826   -25790.731    25777.913     -37.9738        38.99 
180012000    280.33922    308.24711    309.88151   -25793.185    25796.321   -1.6343991    38.988108 
180016000    288.48014    510.24573    322.07521    -25787.36    25783.525    188.17051    38.986204 
180020000    268.30596    353.48521    314.90854   -25809.618    25827.795    38.576661    38.989319 
180024000    270.66151    448.54581    283.34796   -25816.916    25828.064    165.19785    38.997851 
180028000    286.42389    418.63007    524.56156   -25830.192    25842.566   -105.93149    38.991104 
180032000    272.67725    331.06869    461.88217   -25825.277    25851.169   -130.81349    38.996806 
180036000    257.73077    375.41671    392.41282   -25851.724    25857.171   -16.996115    39.004146 
180040000    281.24114    532.01427    319.42217   -25872.526    25867.793    212.59211    39.011905 
180044000     280.3009    379.76019    203.59823   -25885.285    25876.133    176.16196     39.00383 
180048000    308.08991    390.54297    441.20998   -25902.782    25886.536   -50.667015    38.995395 
180052000    285.08905    484.64324     204.8321    -25898.99    25899.936    279.81114    39.007265 
180056000    298.01316    420.96098    370.31894   -25923.193    25896.132    50.642044    38.999563 
180060000    292.64475    324.63129    444.86521   -25940.286    25929.454   -120.23391     38.98302 
180064000    295.09971    343.91102    201.79481    -25939.01    25942.738    142.11622    38.975057 
180068000    281.09069    307.45527    145.35496   -25958.695    25950.777    162.10031    38.968597 
180072000    273.93851    422.03717    425.06924   -25960.293    25962.894   -3.0320675    38.979562 
180076000    253.53771    197.17478     414.4143   -25976.649    25982.241   -217.23952    38.974754 
180080000    287.10715    185.41714    277.50343   -25992.263     25986.03    -92.08629    38.977579 
180084000    280.78006    530.00361    225.64498   -25974.952    25983.207    304.35864    38.982125 
180088000    292.24219    346.88961    361.74121   -25982.469    25985.626   -14.851595    38.982968 
180092000    304.52327    257.40002    410.44578   -25996.412    25980.328   -153.04576    38.977028 
180096000    286.01537      371.646    508.82518   -26000.234    25988.491   -137.17918    38.972854 
180100000    261.61024    175.85045    387.36493   -25985.094    25996.215   -211.51449    38.970339 
180104000    291.34245    139.88862    205.34668   -25994.854    25992.052   -65.458066    38.973428 
180108000    301.31189    378.72475    257.04843   -26013.983     25999.64    121.67632    38.979916 
180112000    307.04081    265.43997    244.21306   -26029.667    26024.849    21.226912    38.973349 
180116000      310.462    334.40876    494.76852   -26042.041    26040.695   -160.35976    38.969153 
180120000    281.53728    573.65195     289.9197   -26043.535     26045.19    283.73225    38.988348 
180124000     293.7614    427.76201    342.98018   -26050.407    26045.062    84.781834    38.990143 
180128000    294.83015    361.35879    455.51654   -26054.343    26056.531   -94.157755    38.983104 
180132000    276.70044    272.72625    469.58819   -26055.162    26066.445   -196.86194     38.98334 
180136000    267.04223    397.64366    391.09752   -26061.149     26078.53    6.5461377    38.981068 
180140000    271.52606     400.0507    528.92813   -26071.754     26079.22   -128.87744    38.981841 
180144000    257.08056    169.59322    323.50774    -26061.03    26087.885   -153.91452    38.980242 
180148000    287.22044    440.32312     457.9454   -26080.488    26089.203    -17.62228     38.97903 
180152000    258.60194    509.10286    314.17919   -26088.907    26099.589    194.92366    38.984823 
180156000    257.84878    314.66336    269.68298   -26090.126     26116.29    44.980375    38.996844 
180160000    277.83949    607.50559    199.77557   -26119.669    26118.381    407.73002    39.004015 
180164000     257.7263    246.72429      391.615   -26115.991     26124.52   -144.89071    39.004041 
180168000    266.47748    230.50276    305.37803   -26111.457    26131.031   -74.875272    39.005804 
180172000    272.90981    156.01532    584.15856   -26133.201    26129.305   -428.14325    39.017439 
180176000    304.73627    438.49374    377.29817   -26143.376    26130.862    61.195564    39.008159 
180180000    306.78579    324.28986    741.75777   -26156.262      26154.9   -417.46791    38.999084 
180184000    264.61394    198.93817    349.66847   -26143.663    26164.291    -150.7303    38.999475 
180188000    284.45555    270.35802    493.46652   -26163.561    26160.211    -223.1085    38.990044 
180192000    290.12626    612.37978    282.58335   -26157.507    26165.294    329.79643    38.994672 
180196000    311.47244    334.37927    262.86706   -26171.206    26151.969    71.512213    38.991341 
180200000    277.66059    581.55837    294.57759   -26175.844    26179.554    286.98078    38.996064 
180204000    288.74269    407.91305    607.44928   -26183.409    26176.404   -199.53624    38.990196 
180208000    268.35811    316.24968    297.19952   -26186.882    26192.672    19.050157    39.002155 
180212000    298.41887    383.38623     382.1844   -26205.151    26201.983    1.2018298    39.007602 
180216000    301.85461    296.75241    572.88922   -26222.291    26211.757    -276.1368    39.015975 
180220000    277.85384    286.07211    410.11176   -26232.935    26230.347   -124.03966    39.026651 
180224000    294.50303    412.08789    377.07537   -26237.555    26237.224    35.012526     39.02081 
180228000    275.78466    716.05967    349.16739   -26219.512    26232.889    366.89227     39.01498 
180232000    263.67728    324.86576     394.2144   -26231.733    26252.711   -69.348643    39.021019 
180236000     270.5198    333.11478     361.2319   -26242.309    26252.507   -28.117121    39.011416 
180240000    270.63509     395.0835    209.47932   -26245.314    26265.029    185.60418    39.014928 
180244000    271.14301    218.78755    213.72058   -26243.899    26256.492    5.0669759    39.018548 
180248000    255.72714    534.67511    416.01575   -26262.128    26277.043    118.65936    39.012236 
180252000    265.39214    345.18343    552.29997   -26275.666    26289.599   -207.11654    39.008325 
180256000    262.56037    434.81081    451.78809   -26285.957    26298.725   -16.977276    39.002607 
180260000    276.05162    468.22416    317.48641   -26300.794    26301.964    150.73775    39.015565 
180264000    263.36336    429.36604    280.19195   -26282.499    26308.532    149.17409    39.010776 
180268000    292.05402    452.21212    427.01546   -26285.508    26291.502    25.196662    39.002459 
180272000     276.3483    212.86337    378.89725   -26285.347    26289.658   -166.03388    38.996744 
180276000    306.31104    395.59999    468.36338   -26293.397    26287.629   -72.763386    38.998378 
180280000    305.89935    648.11563     215.2989   -26315.674    26296.136    432.81673    39.008945 
180284000    285.08916    367.54418    256.96528   -26310.995    26306.614     110.5789    39.014923 
180288000    292.40122    320.33157    299.26979   -26300.869    26298.852    21.061785    39.024297 
180292000    286.43048    373.36422    392.95948   -26294.137    26300.856    -19.59526    39.018947 
180296000    267.29341    291.21283     315.0965   -26325.512    26323.909   -23.883668    39.008487 
180300000    291.21002    274.96009    176.02409   -26343.168    26321.433    98.935996    39.001381 
180304000    290.81543    360.86043    261.81701   -26341.848    26343.189    99.043422    38.999258 
180308000     278.8454    305.84706     308.4422   -26335.145     26349.93    -2.595141    38.996512 
180312000    267.78291    544.71551    149.89437   -26353.702    26368.782    394.82114     38.99513 
180316000     287.7992    332.42828    236.58331    -26362.99    26367.569    95.844962    39.006479 
180320000    292.18699    262.93849    177.22233   -26363.998    26362.606    85.716159    39.003764 
180324000    261.27843       345.17    227.02386   -26359.794    26362.148    118.14614    38.995867 
180328000    285.61182    495.24271    256.10255   -26367.755    26367.631    239.14017    39.004592 
180332000    304.41166    323.11883    275.31749   -26378.156    26370.146    47.801346    39.002499 
180336000    288.95323    413.47797    334.54798   -26382.811    26376.522    78.929982      38.9997 
180340000    300.79743    258.24557    283.18522   -26383.365    26367.848   -24.939649    38.995502 
180344000    308.62255    363.46947    305.19311   -26392.375     26384.17    58.276356    39.011487 
180348000    272.46489    232.87695     314.3662   -26380.805    26383.157    -81.48925    39.002668 
180352000    292.44155    272.00771    274.87521   -26374.895    26385.012   -2.8674978    39.006305 
180356000    278.95491    356.10732    404.22686   -26365.907    26377.902   -48.119544    39.003845 
180360000    279.93814     302.6132    741.54138   -26387.428    26388.352   -438.92819    38.995523 
180364000    283.51201    227.55124    400.89697   -26394.864    26393.561   -173.34574    38.989243 
180368000    258.76879    177.57426    260.92486   -26409.096    26409.831   -83.350599    38.983877 
180372000    295.62212    522.55102    449.74466   -26414.356    26416.617    72.806357    38.977886 
180376000    267.64862    230.47702    357.76142   -26404.202    26424.264   -127.28439    38.979656 
180380000    295.69288    540.33121    371.01077    -26424.16    26418.093    169.32044    38.987796 
180384000      306.686    408.43222    424.74266   -26429.557    26420.144   -16.310434    38.992912 
180388000    298.96216     300.2661     304.0126   -26440.362    26429.926   -3.7464978    38.992526 
180392000    299.43092    321.15833    369.43462   -26442.812    26427.678   -48.276294    38.974782 
180396000     297.1541     328.5814    292.85385   -26458.552    26441.995    35.727558    38.970051 
180400000    291.91379    425.88733    638.05195   -26448.975    26434.507   -212.16462    38.965491 
180404000    266.56181    267.95557    507.77334   -26451.447    26463.655   -239.81777    38.956268 
180408000    298.39686    501.82239    249.66512   -26469.274    26468.378    252.15728    38.956099 
180412000    270.99247    435.67192    278.19553   -26462.374    26471.224    157.47638    38.953301 
180416000    295.56197    282.56187      281.937   -26475.774    26467.901   0.62487578    38.942224 
180420000    274.31033    236.95257    235.93658   -26468.174    26476.988    1.0159904    38.926976 
180424000    281.76568    483.67661    298.30928   -26470.919    26478.394    185.36733    38.925326 
180428000    265.66165    559.58991    377.83256   -26479.857    26486.406    181.75735    38.930247 
180432000    276.82873    201.03856    369.62977   -26485.721    26492.331   -168.59121    38.931092 
180436000    284.20324    364.94295    241.17226   -26497.437     26486.63    123.77069    38.935118 
180440000    303.62116    514.18602    306.51671   -26496.806    26492.234    207.66931    38.936409 
180444000    294.63263    145.15782    432.92627   -26505.528     26499.59   -287.76845    38.939876 
180448000    263.59529    402.28842    433.37702   -26505.641    26519.132   -31.088602    38.934567 
180452000    304.55123    474.48208    210.34626   -26542.225    26520.563    264.13582    38.944645 
180456000    273.35391    241.46574    366.35874   -26514.985    26520.334     -124.893    38.937533 
180460000    260.86564    432.02995    281.68591   -26525.945    26550.524    150.34405    38.932495 
180464000    268.15491    545.43224    262.46204   -26549.944    26556.452    282.97021    38.923766 
180468000    277.67279    370.83092    272.75346   -26564.002    26575.494    98.077459    38.917116 
180472000    271.78386    577.62187    573.08913   -26567.769    26570.767    4.5327402    38.913732 
180476000    296.65576    455.50987    368.82829   -26570.987    26571.599    86.681574    38.908615 
180480000    275.60785    331.26527    314.04981   -26570.609    26583.497    17.215458    38.919785 
180484000    264.47707    550.14184    197.79898   -26603.418    26582.938    352.34287    38.919517 
180488000    286.62361    266.51861    290.39127   -26586.055    26579.894   -23.872661    38.928571 
180492000    294.25798    258.63511    215.83746   -26598.173    26577.655    42.797655    38.927768 
180496000    316.51556    397.33362    444.34271    -26601.42    26585.166   -47.009087    38.929674 
180500000    291.66212    268.06343    376.08979   -26606.301    26591.084   -108.02636    38.942014 
180504000    309.62973    457.50542    340.90525    -26627.76    26618.017    116.60017    38.940593 
180508000    265.16174    351.68932    465.67061   -26624.297    26635.467   -113.98129     38.94163 
180512000    290.36524    414.94511    499.71867   -26635.799    26638.267   -84.773556    38.931996 
180516000    261.89059    504.71265    542.54273   -26619.082    26637.992   -37.830083    38.926159 
180520000    273.43896    409.65344    212.07022   -26632.757    26637.326    197.58322    38.933407 
180524000    286.78362    449.10402    436.56272   -26654.891    26650.224    12.541295    38.923281 
180528000    289.50698    270.31517    618.77551   -26645.322    26660.673   -348.46034    38.922592 
180532000    285.26606    646.73085    210.42392    -26666.14     26672.07    436.30693    38.915534 
180536000    290.35066    409.07322    259.99038   -26668.644    26679.613    149.08284    38.917262 
180540000    272.87396    303.78495    259.95838   -26670.785    26686.321    43.826567    38.917968 
180544000    256.59465    262.58552    230.82994    -26661.84    26693.533    31.755579    38.918325 
180548000    255.86766    426.84961    235.33902   -26681.176    26700.311    191.51059    38.925408 
180552000    278.82022    617.05928    300.67465   -26691.874    26704.173    316.38463    38.921646 
180556000    297.41845    411.12859    165.61304   -26715.178     26689.81    245.51556    38.919231 
180560000     303.4283    375.99727     415.0653   -26709.239    26689.224   -39.068024    38.919952 
180564000    296.68988    381.67803     219.5056   -26703.254    26691.002    162.17244    38.915652 
180568000    265.15885     496.9432    303.38952   -26706.905    26719.873    193.55368    38.910365 
180572000    279.88349    273.09836    250.93749   -26724.056    26718.573    22.160872    38.906711 
180576000     275.9417    294.96896    217.17162   -26733.155     26720.44    77.797344     38.90125 
180580000    260.22965    273.09408     256.4716   -26739.103    26748.523    16.622477    38.898339 
180584000    287.75668    292.89731    371.11928   -26755.629    26750.382   -78.221969    38.899731 
180588000    264.61502    341.06346    363.85344   -26743.181     26748.08   -22.789983    38.898848 
180592000    286.13706    362.30931    249.01559   -26774.737    26761.879    113.29372     38.89477 
180596000    269.12541     436.3179    426.66232   -26759.279    26782.187    9.6555817      38.9087 
180600000    257.25908     273.1229    367.22671   -26766.558    26793.035   -94.103811    38.901347 
180604000    291.10656    276.77637    261.83008   -26792.107    26776.895    14.946289    38.902738 
180608000    294.26986    215.95763    122.29494   -26788.024    26776.489    93.662696    38.906465 
180612000     295.6322    228.38463    336.46897   -26776.055    26777.422   -108.08435    38.908757 
180616000    308.07924    569.96894    473.16801   -26787.507    26778.721    96.800935    38.902118 
180620000    285.95254    478.18202    246.49927   -26809.459      26797.2    231.68274    38.892541 
180624000    275.19777    364.48304    225.24834   -26806.058    26812.995     139.2347    38.899653 
180628000    262.48915      257.132    342.40462   -26818.479    26837.363   -85.272618    38.891816 
180632000    310.05681    539.71078    121.28481   -26823.744    26818.127    418.42596    38.895667 
180636000    308.29208    430.19018    424.10196   -26838.849    26823.006    6.0882217    38.908582 
180640000    298.87448    561.71924    271.84964   -26839.167    26844.198     289.8696    38.910707 
180644000    261.01395    249.08216    284.96113   -26850.287     26869.11    -35.87897    38.918134 
180648000    252.45423    468.91343    481.52711   -26867.506    26888.481   -12.613681    38.922481 
180652000    265.95455    364.02664    280.06554   -26893.306    26915.336    83.961099    38.922624 
180656000    253.18843    403.99586     338.5076    -26921.29    26928.219    65.488258    38.918114 
180660000    272.86861     559.3899    340.67788   -26912.994     26932.96    218.71201    38.910902 
180664000    254.46584    450.04823    283.48749   -26924.533    26947.642    166.56074    38.918536 
180668000    261.94279    533.39142    245.96629   -26944.629    26955.742    287.42513    38.915216 
180672000    279.06446    283.19673    231.89707   -26934.597    26945.995    51.299663    38.909269 
180676000    282.40372    268.73453    283.60829    -26946.98    26950.879   -14.873768    38.908887 
180680000    310.83471    507.49391    436.55817   -26951.267    26940.093     70.93574    38.914376 
180684000    273.84668    441.76454    211.39691    -26959.49    26968.029    230.36763    38.922608 
180688000    262.86861    320.28593    353.47541   -26969.578    26973.843   -33.189485     38.91972 
180692000    289.35302    347.94492    417.28979   -26981.898    26971.403   -69.344876    38.919163 
180696000    253.52733    396.77709    276.84097   -26966.597    26994.328    119.93612    38.922951 
180700000    272.56898    336.25464    313.70091   -26985.894    26999.609    22.553734    38.931576 
180704000    273.75265    316.47035    256.99021    -27005.62    27012.783    59.480142    38.940241 
180708000    278.52047    285.50049    313.55929   -27003.041    27003.245   -28.058804    38.947716 
180712000     297.8051    200.99916    438.65661    -27016.27    27020.166   -237.65745    38.938978 
180716000    256.62899    198.60967    284.14499   -27017.521    27024.109   -85.535324    38.931348 
180720000    297.00109    366.12986    341.28064   -27034.219    27039.596    24.849224     38.92321 
180724000    285.59984    345.98553    358.41317    -27020.58    27034.772   -12.427636    38.929661 
180728000    279.96877    367.12343    220.33308   -27037.566    27035.258    146.79035      38.9303 
180732000    267.30098    256.34662    265.70936   -27035.243    27037.335   -9.3627449    38.925823 
180736000    261.44755    214.36304    248.02569   -27039.325    27054.311    -33.66265    38.919282 
180740000    271.87264    324.82041    179.88472   -27060.911    27052.893     144.9357    38.912588 
180744000    286.19753      361.916    342.87937   -27068.198    27074.362    19.036623    38.905766 
180748000    281.84995    437.14929    381.81536   -27099.052    27089.436    55.333929    38.899566 
180752000    285.02143    310.31186    465.14027   -27095.332    27093.008   -154.82841    38.883047 
180756000    251.98695    336.05139     328.3544   -27082.383    27096.788    7.6969855     38.89302 
180760000     290.1088    372.18988    235.32286   -27095.064    27098.344    136.86701    38.893552 
180764000    284.70009    315.94077    383.31432   -27094.201     27120.92   -67.373551    38.889814 
180768000    238.82675    428.91982    250.51915   -27092.202    27118.084    178.40067    38.880736 
180772000    256.83201    230.97181    232.95451   -27098.434    27107.295   -1.9827032    38.879079 
180776000    287.71309    444.20473    256.18358    -27110.68    27106.109    188.02115    38.886434 
180780000     264.2441    387.03493    263.28181    -27105.73    27125.816    123.75312    38.881243 
180784000    308.25053     494.0504    345.93129   -27123.994    27113.249    148.11911    38.887904 
180788000    291.81546    293.83701    213.97319   -27133.591    27116.738    79.863824    38.889441 
180792000    298.57067    249.80786    497.76954   -27145.258    27130.542   -247.96168    38.883681 
180796000    268.66243    392.06513    229.75685    -27145.27    27146.446    162.30828    38.890328 
180800000     316.6166    484.88368     274.9866   -27153.828    27126.534    209.89708    38.880808 
180804000    273.31048    176.57737    185.57721   -27141.734    27146.576   -8.9998383    38.882836 
180808000    255.48078    298.37356    444.11501   -27144.273     27142.54   -145.74145    38.878631 
180812000    277.89837    207.51806    182.47639   -27147.917    27167.814    25.041664    38.867568 
180816000    256.04706     296.9878    267.11117   -27147.817    27171.493    29.876629    38.867213 
180820000    271.72297    198.43647    189.85745   -27162.306    27166.433    8.5790242    38.863698 
180824000     288.6274    384.82776     458.9582   -27192.363    27190.073   -74.130437    38.858545 
180828000    290.86352    181.28956    314.77655   -27197.064    27204.499   -133.48699    38.859411 
180832000    269.97049    181.51584     346.5079   -27218.976    27214.711   -164.99206    38.856498 
180836000    284.95692    504.56308    297.04053   -27228.923    27225.527    207.52255     38.86732 
180840000     285.5526    271.64422    341.89097   -27210.784    27228.121   -70.246753    38.866842 
180844000    279.66628    292.48791    373.03552   -27237.072    27252.375   -80.547612    38.858562 
180848000    267.56802    214.74719    386.29972   -27248.294    27259.852   -171.55253    38.858141 
180852000      271.048    510.51865    362.61695   -27251.684     27269.19     147.9017    38.856828 
180856000    270.30682    487.84172    418.41668   -27265.954    27283.409    69.425038    38.845057 
180860000    270.74981    405.67853    378.14068   -27284.089    27296.571    27.537858    38.835112 
180864000    272.17772     276.1471    396.56141   -27279.718    27284.945   -120.41431     38.84065 
180868000    267.32652    288.88297    253.56282   -27291.727    27309.918    35.320154    38.839486 
180872000    268.50407    284.59259    420.83421   -27292.038    27312.415   -136.24162    38.835965 
180876000    259.69978    392.92114    392.13969   -27302.667    27314.747   0.78144607    38.828762 
180880000    274.56906    345.66149    615.44706   -27312.107    27315.421   -269.78557    38.823748 
180884000    254.49233    275.60855     174.3897   -27329.177    27337.908    101.21885    38.826651 
180888000    262.99449     487.3996    260.22616   -27331.697    27355.845    227.17344     38.82492 
180892000    293.24667     563.6748    550.12438    -27355.31    27346.117    13.550417    38.831507 
180896000    266.45154    337.72165    429.27193   -27358.851    27373.501   -91.550276    38.837381 
180900000    280.08421    292.73788    403.71307   -27371.236    27365.595    -110.9752    38.821621 
180904000    278.17305    690.37985    276.33551   -27381.273    27385.188    414.04435    38.826254 
180908000    294.87103    773.26169    376.24393   -27371.411     27383.17    397.01776     38.84116 
180912000     272.4863    227.96782    373.76489   -27365.418    27389.148   -145.79708    38.840096 
180916000    259.92376    330.30992    381.13962   -27388.855    27409.359   -50.829707    38.828757 
180920000    280.26735     384.9335    402.27015     -27399.3     27410.09   -17.336647     38.83192 
180924000    243.31978    447.85216    349.47714   -27402.302    27426.139    98.375018    38.826306 
180928000    245.77761    298.33886    246.39061   -27399.006    27431.441    51.948252    38.841071 
180932000    244.10559    275.73299    342.57731   -27388.417    27437.931   -66.844318    38.842567 
180936000    242.74204    232.43407    252.74814   -27411.238    27431.169   -20.314073    38.836921 
180940000    288.30711    331.40748    342.13946   -27422.548    27422.907   -10.731988    38.852739 
180944000    294.45855    273.00161    853.88597   -27421.032    27413.481   -580.88437    38.840844 
180948000    286.95065    349.19477     391.8313   -27416.899    27415.025   -42.636534    38.847012 
180952000    304.49988    261.52418    607.88316   -27445.229    27435.421   -346.35897    38.844733 
180956000    311.27921    179.16515     173.0863   -27464.371     27444.58    6.0788441    38.845686 
180960000    295.61143    411.08303    306.24074   -27457.568    27451.001    104.84229    38.847198 
180964000    295.56336    283.93148    282.34387   -27466.504    27458.453    1.5876142    38.845328 
180968000    275.56144    373.90429    419.23292   -27474.047    27466.074   -45.328627    38.842328 
180972000    270.01002    376.92415    383.30582   -27483.376    27469.838   -6.3816695    38.844746 
180976000    273.37972    369.08721    388.26244   -27482.445    27502.261   -19.175231    38.837776 
180980000    300.47788    638.15464    394.08133   -27508.447    27484.603    244.07331    38.838417 
180984000    280.20652    498.15975    363.44762   -27511.256    27505.274    134.71213    38.846939 
180988000    298.82551    292.87246    318.66421   -27504.767    27508.761   -25.791746     38.84647 
180992000    292.53206     454.8741    289.98269   -27519.729    27510.788    164.89141    38.859631 
180996000    308.67838    301.83509    382.98043   -27526.222    27510.395   -81.145341    38.856286 
181000000    260.52758     220.1231    352.88262   -27535.263    27532.762   -132.75952      38.8514 
181004000    296.59569    417.73999    313.37841   -27540.498    27542.265    104.36159     38.84907 
181008000    272.68373    196.19379    230.47425   -27545.532      27552.9   -34.280462    38.854515 
181012000    289.04732    470.52358    326.00493   -27564.976    27548.282    144.51865    38.853953 
181016000    269.41245    446.68911     187.2067   -27555.237    27555.115    259.48241    38.858063 
181020000     286.4013    580.47536    361.46843   -27595.945    27579.654    219.00692    38.854496 
181024000    284.01097     622.1877    191.68846   -27591.164     27596.95    430.49924    38.857098 
181028000    317.84559    443.74416    379.17933   -27612.126    27595.819    64.564827    38.854632 
181032000    258.39453     280.1147     140.2875   -27598.712    27600.099     139.8272    38.859758 
181036000    297.12359     552.3578    516.39499   -27595.735    27594.217     35.96281    38.855791 
181040000    296.61533    482.18438    396.90366   -27592.982    27585.592    85.280712    38.852587 
181044000    257.96254     338.6507    345.52741   -27582.071    27598.412    -6.876713    38.860282 
181048000    232.58389    372.01393    251.91712   -27578.927    27609.632    120.09682    38.875744 
181052000    260.43823    165.02372    346.91298   -27591.429    27606.846   -181.88926    38.890046 
181056000    287.42761    312.98772    448.26226   -27602.871    27607.019   -135.27454    38.885196 
181060000    281.94324     458.1719    367.65729   -27614.528    27604.286    90.514613    38.890521 
181064000    301.00771     672.7573    531.60263   -27624.227    27607.522    141.15467     38.91411 
181068000    312.33659    529.08888    319.56335   -27633.448    27608.081    209.52553    38.917481 
181072000    270.07839    433.47672    591.27111   -27637.133    27625.344   -157.79438     38.91425 
181076000    278.50113    526.50916    217.00256   -27632.025    27638.665     309.5066    38.913637 
181080000    310.40465    336.95464    284.22423   -27631.684    27622.665    52.730414    38.907693 
181084000    259.87251     228.2631    177.78809   -27628.852    27634.571    50.475004      38.8996 
181088000    265.28043    462.35731    189.90869   -27630.686    27646.898    272.44862    38.905152 
181092000     265.6926    364.34171    375.32011   -27626.927    27634.247   -10.978402    38.899662 
181096000    312.62392    532.23182    447.35859   -27637.095    27630.444    84.873223    38.888354 
181100000    310.83763    426.96461    332.38601    -27641.36    27610.325    94.578594    38.891361 
181104000    265.69716    528.63343    230.49354   -27641.266    27640.862    298.13989    38.900003 
181108000    279.31263    286.60527    266.42277   -27649.606    27648.423      20.1825    38.901405 
181112000    277.26408    445.61384    500.69203   -27655.488    27650.008   -55.078187    38.898891 
181116000    286.67581    272.71152    432.54057   -27650.963    27649.427   -159.82904    38.892172 
181120000    289.02429    360.85262    136.11254   -27654.214    27655.624    224.74008    38.899092 
181124000    291.78645    308.25202    214.83528   -27669.708    27651.284    93.416741    38.900638 
181128000    296.28885    483.08389    490.76381   -27673.108    27658.118   -7.6799165    38.902158 
181132000    256.71533     233.5401    282.14994   -27660.034    27677.053   -48.609836    38.899755 
181136000    282.57599    443.41103    281.08789   -27677.162    27674.822    162.32314    38.898543 
181140000    283.05748    296.40797     255.4438   -27674.884    27680.362    40.964166    38.894025 
181144000    271.28343     359.1739     287.8702   -27676.712    27680.861    71.303703    38.896648 
181148000    276.45105    705.32358    535.48201   -27690.575    27699.122    169.84157    38.896461 
181152000      258.243    349.10738    221.03518   -27678.505    27701.078    128.07221    38.891216 
181156000     267.7336     434.1498    352.40446   -27691.559    27695.738    81.745341    38.887954 
181160000    291.75623    499.90887    315.49287   -27727.067     27709.95    184.41599    38.896064 
181164000    272.92613    480.01343    490.33997   -27706.402    27720.368   -10.326545    38.890791 
181168000    261.07994    281.91666    185.77359   -27708.053    27724.921     96.14307    38.898905 
181172000    284.81943    400.75906    467.14329   -27713.355    27727.419   -66.384233    38.903355 
181176000    265.65141    470.63185    376.30866   -27717.017    27735.436    94.323182    38.907731 
181180000    279.98558    698.73221    189.70164   -27734.387     27738.52    509.03056    38.904413 
181184000    267.34567    453.83856     398.9374   -27732.524    27735.651    54.901161    38.905056 
181188000    293.22344    406.77879    440.03171   -27742.334    27738.084   -33.252917     38.90874 
181192000    255.28337    366.33153    320.75294   -27738.793    27758.512    45.578588    38.906396 
181196000    277.52094    502.47917    385.61647    -27752.78    27767.287     116.8627    38.893938 
181200000    270.67228    212.65403    420.05583   -27740.009    27752.206    -207.4018    38.886232 
181204000    282.01038    478.17973    192.13835   -27766.818    27771.521    286.04138    38.892672 
181208000    289.31874    425.26913    449.00354   -27793.535     27781.11   -23.734408    38.898516 
181212000     279.8338    446.82029    532.73899   -27792.575    27799.233   -85.918702    38.892381 
181216000    254.54196    158.31848    341.40027    -27802.33    27818.696    -183.0818     38.89292 
181220000    274.81544    426.92941    276.00919   -27815.374    27828.224    150.92021    38.893504 
181224000    330.77026    266.47924    318.33175   -27829.197    27804.653   -51.852517    38.897608 
181228000    250.53801    166.68472    148.61764   -27815.065    27827.209    18.067085    38.890115 
181232000     239.4929    361.57319    422.30538   -27821.867    27831.181   -60.732196    38.892391 
181236000    273.02377    478.48539    337.70948     -27835.3    27807.477    140.77591     38.87785 
181240000    305.35256    356.36687    348.42856   -27859.721    27840.177      7.93831    38.875738 
181244000    294.70857    473.64293    369.80732   -27885.892    27867.728    103.83561    38.869548 
181248000     271.8104    370.96458    281.26411   -27897.056    27903.202    89.700472    38.864787 
181252000    289.47292    238.13604    351.99659   -27919.139    27922.226   -113.86055     38.85752 
181256000    263.62354    340.08675    265.26232   -27924.244    27928.448    74.824435    38.854688 
181260000    296.54215    409.01514    321.94219   -27944.136    27935.433    87.072953    38.850641 
181264000    277.97146    509.32661     413.8513   -27934.689    27946.677    95.475317     38.84743 
181268000    285.51661    688.70139    492.79863   -27950.591    27964.292    195.90275    38.844327 
181272000     285.9441    313.07189    329.38489   -27956.692    27965.739   -16.312997    38.836584 
181276000      275.075    314.85407    269.99541    -27959.92    27964.292    44.858656    38.828176 
181280000    291.32634    496.85682    395.70333   -27973.824    27961.271    101.15349    38.823485 
181284000    277.14481    437.96745    378.26004   -27986.592    27977.825     59.70741    38.827128 
181288000    288.62982    268.79555    426.78861   -27979.999    27964.947   -157.99306    38.818358 
181292000    258.12946    148.43629    148.10877    -27978.54    27982.495   0.32752765    38.815414 
181296000     291.3066    362.36697    305.35012   -27997.982    27982.923    57.016857    38.813823 
181300000    320.12288    433.30093    484.08847   -27999.725    28003.534   -50.787544    38.805844 
181304000    261.16875    142.41687    178.72784   -27997.071    28021.173   -36.310971     38.78718 
181308000    267.20906    550.62569    176.56273   -28023.479    28030.657    374.06296    38.782669 
181312000    258.28944    349.87264    352.98464   -28001.753    28021.039   -3.1119996    38.779615 
181316000    288.31839    438.12868    282.12592   -28024.274    28029.508    156.00276    38.786189 
181320000    282.23239    286.09522    378.80595   -28029.088    28016.605   -92.710728    38.775933 
181324000    268.61332    402.55496    378.30681   -28033.072    28020.498    24.248146    38.766179 
181328000     299.5649    464.75231    301.47345   -28071.316    28049.901    163.27886    38.774675 
181332000    295.38669    484.93572    234.81898   -28061.718    28061.679    250.11674    38.772268 
181336000    321.77868    412.00902    495.05721   -28068.691    28057.782   -83.048191    38.779619 
181340000    274.14139    385.09359    440.61468   -28067.794    28074.889   -55.521093    38.779446 
181344000    270.76595    259.29748    385.23334   -28071.433    28085.013   -125.93586    38.771974 
181348000    279.79724    357.95251    310.40106   -28089.116    28096.323    47.551448    38.784007 
181352000    268.09532     332.8184    404.43971   -28091.638    28109.011   -71.621303     38.77885 
181356000    292.92674    527.24784    203.08221   -28084.379    28096.491    324.16563    38.786787 
181360000      273.577    112.72909    388.01271   -28089.297    28095.341   -275.28363    38.790687 
181364000    283.30123    483.93392    361.81225   -28112.899    28105.872    122.12167    38.783495 
181368000    273.71634    530.87119    230.58514   -28118.739    28121.298    300.28605    38.792801 
181372000    298.00255    407.66298    361.72655   -28160.839    28140.704    45.936435    38.808177 
181376000    257.24796    270.54712    313.53848   -28168.589    28170.439   -42.991359    38.810057 
181380000    269.60547    503.68539    307.81634   -28187.377    28184.035    195.86906    38.811102 
181384000     288.8773    410.97135    518.03765   -28204.446    28203.663   -107.06631    38.816213 
181388000    291.75441    286.88566    411.86806   -28234.723    28224.265   -124.98241    38.813007 
181392000    279.48621    186.44586    269.46529     -28236.6    28244.769   -83.019427    38.791587 
181396000    278.43832    402.19931    239.73545   -28261.705    28254.801    162.46386    38.800958 
181400000    306.67766    210.70278    421.92576   -28255.485    28249.929   -211.22298    38.793601 
181404000     291.4198    375.26397    467.76055   -28267.838     28256.47   -92.496583    38.791582 
181408000     274.5257    490.77449    282.45426   -28264.311    28257.475    208.32023    38.785467 
181412000    281.95238    215.39496    377.70669   -28253.892    28251.308   -162.31173     38.78842 
181416000    278.82821    195.01336    145.76554   -28253.072    28270.915    49.247821    38.783159 
181420000    291.05879     589.5329     341.9933   -28262.616     28270.16    247.53959    38.777624 
181424000    276.68635    254.41178    380.37405    -28271.88    28278.232   -125.96227    38.766147 
181428000    326.80503     512.7791    524.54932   -28295.121     28277.85    -11.77022     38.75852 
181432000    298.07423    343.04419    386.24026   -28314.424    28289.713   -43.196061    38.758581 
181436000    297.46821    334.92722    339.25207   -28306.322    28309.695   -4.3248508    38.759764 
181440000    276.84884    261.57785    457.01768   -28305.219    28319.931   -195.43984    38.759137 
181444000    284.48771    279.30588    437.55155   -28314.539     28326.07   -158.24566    38.758721 
181448000    289.82063    398.66418    243.56772   -28339.351    28346.593    155.09646    38.764998 
181452000     289.2964    456.53913    394.86387   -28352.715    28355.229    61.675258    38.759298 
181456000       294.61    383.68242    325.90146   -28370.332    28361.506    57.780962    38.772789 
181460000    301.43384    441.75583    310.42725    -28375.31    28350.419    131.32858    38.758024 
181464000    281.04816    175.34468     361.8444   -28367.123    28354.704   -186.49972    38.759076 
181468000    287.03131    321.15433    318.61616   -28384.138    28377.759    2.5381709    38.765564 
181472000    280.21356    562.45839    322.35834   -28384.843    28377.553    240.10005     38.75874 
181476000    278.56574    281.08461    420.08121   -28377.483    28369.875    -138.9966    38.758802 
181480000    294.65625    318.32661     423.7949    -28378.36    28377.684   -105.46829    38.761999 
181484000     286.9992    284.91523    329.15593   -28387.097    28393.275     -44.2407    38.762666 
181488000    310.08148    274.81148    446.27714   -28393.762    28376.276   -171.46567    38.768165 
181492000    265.31968    371.99992    413.50448   -28373.225     28402.34    -41.50456    38.773656 
181496000    261.78444    274.39369    502.55822   -28381.362    28391.691   -228.16454    38.771559 
181500000    281.59691     467.2418    490.91221   -28395.852    28399.004   -23.670403    38.776856 
181504000    279.80941    276.09213    423.28481   -28398.355     28398.08   -147.19268    38.784269 
181508000    278.10808    273.91092    519.33662     -28397.8    28399.888    -245.4257    38.779117 
181512000    269.87138    354.95267    299.40115    -28400.45     28412.74    55.551519    38.772168 
181516000    274.59003      363.464    302.07611   -28418.657     28421.32    61.387896    38.767028 
181520000    291.03872    284.02875    261.04465   -28430.898    28447.068    22.984098    38.772804 
181524000    295.75483    510.35314    761.76945   -28443.386    28435.519   -251.41631    38.764798 
181528000    281.99564    431.23283    141.06277   -28464.193    28452.033    290.17006     38.77309 
181532000    285.34531    431.48238    221.30614   -28464.931    28470.149    210.17625    38.789007 
181536000    274.18377    392.21085    261.26227   -28469.565    28471.672    130.94858    38.802021 
181540000    274.78234    271.65939    219.47748    -28484.34    28489.125    52.181912    38.801979 
181544000     287.7708    371.76936    276.63334   -28504.071    28496.227    95.136019     38.80121 
181548000    271.98808    389.03877    270.86769   -28522.994    28542.491    118.17108    38.785385 
181552000    302.59824    286.20195    393.11829   -28539.974    28526.847   -106.91635    38.794557 
181556000    268.60565    349.36257    371.80882   -28529.161    28540.607   -22.446251    38.796028 
181560000     278.2202    536.00563    274.22689   -28532.079    28542.224    261.77874     38.80079 
181564000    265.50345    294.74992     552.0053   -28523.394     28551.23   -257.25538     38.79912 
181568000    292.92856    375.22149    483.78622   -28557.541    28547.823   -108.56473    38.802693 
181572000    292.47287    411.47675    577.23792    -28570.82    28569.264   -165.76116    38.807556 
181576000    259.95479    375.74234    208.57768   -28568.496    28588.665    167.16466    38.812325 
181580000    272.92563    355.81742    377.37406   -28585.691    28603.293   -21.556642    38.805983 
181584000    268.24338    217.57281    406.88466   -28585.171    28604.861   -189.31185    38.796435 
181588000    285.91494    458.73588    400.76839   -28596.425    28595.985    57.967497     38.79631 
181592000    286.12647    470.80601    234.62429   -28617.564    28590.685    236.18173     38.80973 
181596000    281.75825    362.22058    210.98506   -28618.827    28593.915    151.23553    38.818671 
181600000     252.1522    246.31145     371.0387   -28592.406    28615.216   -124.72725    38.808998 
181604000     271.5657    399.84625    383.84522   -28599.941    28623.129    16.001022    38.812815 
181608000    257.05056      307.068     565.7578   -28603.293    28630.622    -258.6898    38.813116 
181612000    280.00448     407.8989    291.13263    -28635.23    28634.718    116.76627    38.821159 
181616000      284.793      209.037     318.3782   -28628.677    28634.908    -109.3412     38.82103 
181620000    316.82381    363.35042     475.1711   -28651.702     28623.89   -111.82068    38.817741 
181624000    315.86726    389.99014      364.992   -28663.676    28614.557    24.998145    38.817979 
181628000     304.3807    204.88443    258.07667   -28641.567    28618.921   -53.192237    38.818561 
181632000    294.74966    425.99839    184.67587   -28651.004    28631.273    241.32252    38.826781 
181636000    277.83203    273.89855    287.15758   -28663.434    28644.301   -13.259027    38.844322 
181640000    272.57393    286.31389    315.29447   -28643.461    28665.109   -28.980581    38.832981 
181644000    286.06786    300.93618    239.05182   -28648.809    28662.043    61.884356    38.834814 
181648000    291.95166    281.71084    772.04173   -28668.874    28664.974   -490.33089    38.822366 
181652000    282.27045    200.20255    381.60578   -28671.053    28679.831   -181.40323    38.830752 
181656000     300.5493    651.42106    763.26728   -28684.796    28694.688   -111.84622     38.82842 
181660000    263.17466    680.07073    294.43667   -28688.576    28699.892    385.63406    38.832003 
181664000    272.58967    552.03329    268.51133   -28700.878    28714.304    283.52196    38.830988 
181668000    268.43988    322.12375    169.06389   -28703.437    28725.341    153.05986    38.834473 
181672000    299.35508    347.72627     273.2698   -28731.161    28718.159     74.45647    38.830466 
181676000    287.64315    294.56623    397.13876    -28736.77    28730.064   -102.57253    38.832178 
181680000    289.45345    272.13252    281.43617   -28735.868     28738.44   -9.3036448    38.835332 
181684000    267.39019    203.70282    216.28647   -28737.119    28734.635   -12.583646    38.838382 
181688000    272.91605    386.11703    311.89717   -28750.241    28746.065    74.219855    38.842291 
181692000    285.89942    288.55788    374.42611   -28759.194    28751.152   -85.868229    38.839241 
181696000    261.58112    193.17272    300.46923   -28756.593    28768.351    -107.2965    38.827396 
181700000    251.06638    328.09146    277.39237   -28742.006    28767.486    50.699094    38.827892 
181704000    291.21046    667.08173    280.80166   -28761.764    28753.752    386.28007    38.838219 
181708000    261.94486     288.6091    308.02843   -28754.352    28754.517   -19.419336    38.845136 
181712000    274.42255    204.37064    390.65738   -28743.471     28753.27   -186.28674    38.831552 
181716000    302.44941    438.01986    199.45472   -28760.973    28763.706    238.56514    38.834392 
181720000    290.67228    420.89344    493.03001   -28772.638    28766.275   -72.136568    38.826736 
181724000    287.35139    477.89419    272.05412   -28782.194    28781.844    205.84007    38.821384 
181728000    259.00107    266.22212    300.79538   -28779.174     28781.24   -34.573264    38.820601 
181732000    312.12107    244.39065    380.10622   -28795.874     28794.91   -135.71557    38.821382 
181736000    283.50317    280.12612    367.30879   -28797.795    28798.784   -87.182676    38.817711 
181740000      275.184    283.64148    298.97321   -28817.396     28818.69   -15.331735    38.812348 
181744000    312.57089    607.17737    477.50989   -28836.499    28804.346    129.66748    38.813243 
181748000    285.73258    378.29588    168.62518   -28836.404    28838.242     209.6707    38.812644 
181752000    300.85531    414.78432    413.97897   -28843.341    28843.666   0.80535239    38.812285 
181756000    295.69183    566.36491    323.16494   -28859.527     28859.46    243.19996     38.80038 
181760000    313.71896    395.53654    540.25316   -28853.921    28840.995   -144.71662    38.797146 
181764000    256.09625    335.24556      567.991   -28853.544    28863.118   -232.74544    38.800902 
181768000    294.84373    323.67609    466.55472   -28860.348    28866.061   -142.87864    38.801694 
181772000    278.02538     506.3759    304.45936    -28867.09    28866.966    201.91654    38.800292 
181776000    242.49792    206.75092    186.20393   -28872.956    28892.767    20.546991    38.820172 
181780000    314.24042    712.81439    336.21204   -28899.982    28890.141    376.60235    38.810325 
181784000    264.27185     202.4862    288.35381   -28885.859    28904.887   -85.867612    38.802675 
181788000    242.69949    306.28774    165.18496   -28896.902    28905.227    141.10279    38.810533 
181792000    278.92359    333.86909    243.11386   -28921.267    28912.908    90.755238    38.805144 
181796000    289.80825     601.2013    342.00536   -28931.671    28912.915    259.19594    38.801795 
181800000    281.93814    223.71233    492.50695   -28916.717     28936.21   -268.79461    38.803981 
181804000    281.04604    241.53702    393.61901   -28928.291    28940.975   -152.08199    38.802729 
181808000    273.13908     383.5868    394.42436   -28924.176     28931.38   -10.837566    38.794606 
181812000    289.52382    487.57214    226.61334    -28937.53    28949.366     260.9588    38.804916 
181816000     274.1988    382.71264    277.70086   -28936.164    28945.594    105.01178    38.813114 
181820000    285.17368    560.35946     261.2169   -28945.849     28952.74    299.14256    38.818254 
181824000    260.92646    483.10511    416.13183   -28950.271    28979.655    66.973281     38.81403 
181828000    300.51365    586.47563     279.8503   -28975.839     28986.34    306.62533    38.819467 
181832000    269.82794     320.5381    385.37452    -28993.05    28993.628   -64.836423     38.82775 
181836000    305.40743    402.62342    304.98331   -29006.624    28991.336    97.640115    38.835547 
181840000    290.98172    328.25821    372.88522   -29001.213    29005.733   -44.627015    38.827558 
181844000    250.73857    415.95257    375.90168   -28997.044    29018.121    40.050893    38.829153 
181848000     266.7842    399.67541    318.03368   -29014.627    29021.847    81.641722    38.827327 
181852000    274.39417    245.58768    533.11239   -29008.616    29026.676   -287.52471    38.824261 
181856000    291.21621    375.04988    262.76004   -29059.367    29046.769    112.28984      38.8268 
181860000    281.84964    452.92709     431.2399   -29055.285     29063.75    21.687192    38.831511 
181864000    289.66136    418.92426    314.74135   -29053.244    29068.777    104.18291    38.834134 
181868000    267.33612    522.19699    170.46144   -29054.725    29074.546    351.73555     38.82767 
181872000    294.42661    461.28469    375.97778    -29067.21    29078.612    85.306911    38.813974 
181876000     277.7704    346.33512    366.93118   -29077.314     29095.29   -20.596066    38.809717 
181880000    276.57234    173.74444    213.41129   -29105.281    29098.023   -39.666842    38.799024 
181884000    294.16941    169.26292    295.85597   -29113.067    29113.639   -126.59305    38.800864 
181888000     291.9633    327.40207    734.89849    -29116.76    29121.235   -407.49642     38.80715 
181892000    293.27807    217.44421    493.17251   -29107.744     29096.59   -275.72829    38.789081 
181896000    297.66975    298.54277     288.0063   -29105.481    29092.802    10.536471    38.791646 
181900000    296.02473    503.82391    288.45255   -29115.056    29117.298    215.37136    38.775432 
181904000    264.31896     432.5166    286.44631   -29123.533     29122.06    146.07029    38.774941 
181908000    304.03448    399.35712     334.7139   -29121.299    29107.579     64.64322    38.771748 
181912000    274.46839    457.22676    224.64458   -29112.786    29104.322    232.58218    38.767865 
181916000    296.09807    144.35001    357.04864   -29117.748    29120.485   -212.69863    38.757501 
181920000    299.81339    348.75372    248.99509   -29137.241    29130.359    99.758626    38.761072 
181924000    293.96067    394.61542     232.5288   -29139.478    29126.176    162.08662    38.751676 
181928000    258.57339    322.79467     325.5778   -29133.547    29143.399   -2.7831298    38.747057 
181932000    285.55984    324.36103    199.40378   -29152.785     29139.53    124.95726    38.752416 
181936000    287.02114    440.16733    354.13632   -29149.753    29146.983     86.03102    38.748928 
181940000     255.2343    349.17233    311.00256   -29133.801    29158.619    38.169775    38.755729 
181944000     241.4054    403.34402    297.75532    -29127.24    29169.862    105.58869    38.753364 
181948000    245.89737    204.62963    461.50473   -29139.262    29168.933    -256.8751    38.740265 
181952000    267.22952    478.27205     242.8159   -29172.041    29162.917    235.45615    38.748334 
181956000    317.30686    299.82072    294.89734   -29192.643    29175.989    4.9233838    38.752748 
181960000    282.69052    399.25736    398.29256   -29195.929    29189.185   0.96480225    38.755196 
181964000    278.58723     319.6572    258.05108     -29220.4    29195.411    61.606117    38.758262 
181968000    297.92382    400.52768    458.00158   -29213.088    29209.066   -57.473899    38.759926 
181972000    255.95349    400.04406    288.12733   -29192.463    29210.704    111.91673    38.756116 
181976000    256.20906    322.36259    326.38448   -29201.151    29209.927   -4.0218943     38.75902 
181980000     296.3405    532.98514    305.05264    -29225.71    29231.302     227.9325    38.760941 
181984000    312.56734    330.52168    371.97064   -29228.034    29239.472   -41.448955    38.756851 
181988000    297.08656    373.63416    337.87999   -29255.119    29244.455    35.754169    38.750027 
181992000    262.93271    337.30942    566.45811   -29261.383    29268.766   -229.14869    38.742152 
181996000    287.55717    623.93013    367.97768   -29278.737    29272.714    255.95245    38.748173 
182000000    300.91327    343.78274    522.91479   -29281.405    29291.243   -179.13205    38.750713 
182004000    275.97596    556.78435    291.38614   -29305.887    29297.466     265.3982    38.754894 
182008000    262.32564    328.57061    413.43389   -29301.993      29321.6   -84.863279    38.754727 
182012000    269.67569    269.37869    388.67807   -29297.014    29318.366   -119.29938    38.754032 
182016000     269.3801    421.79922    408.77214   -29319.863    29318.658    13.027087    38.745707 
182020000    252.02566    471.92118    254.71029   -29315.994    29340.894    217.21088    38.756859 
182024000    254.93609    312.32702    390.41487   -29309.352      29335.4   -78.087847    38.753827 
182028000    275.36006    234.95715    359.28557   -29312.682    29332.086   -124.32842    38.756597 
182032000     282.3982    309.70712    327.08574    -29348.34    29346.856   -17.378622    38.766737 
182036000    281.07504    376.59143    284.80445   -29336.654    29336.844     91.78698    38.770108 
182040000    280.49864    398.86986    357.67998   -29351.357    29361.691    41.189875    38.779089 
182044000    269.60237    616.89343    169.01836   -29358.254    29369.842    447.87508        38.78 
182048000    294.26989    307.18886     404.0846   -29387.978    29365.208   -96.895733    38.775619 
182052000    281.10345    483.04155    246.19451    -29384.21    29374.191    236.84704    38.782669 
182056000    279.13067    313.65615    288.82746   -29385.114    29384.473     24.82869    38.778779 
182060000    269.84228    411.37262    211.35869   -29393.106    29403.196    200.01393    38.780238 
182064000    268.56082    239.99337    423.14978   -29406.199    29420.574   -183.15641    38.777104 
182068000    258.98097    350.19791    607.01938   -29404.899     29428.99   -256.82147    38.768597 
182072000    294.79842    359.35385    325.74115    -29419.66    29416.571    33.612695    38.774119 
182076000    282.00149    208.76763    352.23597   -29418.517    29433.372   -143.46834    38.771636 
182080000    277.01556    497.08158    314.78099    -29442.27    29455.967    182.30059    38.759701 
182084000     266.7592    301.78252    284.11842   -29448.933    29453.661    17.664092    38.759398 
182088000    269.64185    230.52947    130.72346    -29459.68    29456.517    99.806011    38.756643 
182092000    291.27731    206.39284    273.98956   -29469.325    29470.337   -67.596725    38.754501 
182096000    251.44429    230.53681     194.8166   -29481.253    29489.622    35.720211    38.756099 
182100000    286.78379    455.00288    375.93879   -29493.422    29493.904    79.064083    38.760892 
182104000     295.8441    460.01518    394.46035   -29521.941    29506.076    65.554832    38.758844 
182108000    280.43545    500.33596    288.24991    -29512.45    29513.581    212.08605    38.756627 
182112000    302.06562     337.2347    434.72208   -29527.814    29501.922   -97.487381    38.754302 
182116000    315.93283    604.97238    243.22172   -29536.678    29520.444    361.75067    38.749015 
182120000    326.42528     343.1351    356.66222    -29525.06    29509.996   -13.527125    38.748632 
182124000    274.02652    331.61812    286.25033   -29522.846    29529.995    45.367791    38.739048 
182128000    296.23182    341.68543    328.31569   -29536.066    29531.236    13.369733     38.74801 
182132000    282.97022    276.39499    402.97052   -29530.773    29531.246   -126.57552    38.739873 
182136000     284.9513    203.36837    518.04977   -29531.196    29538.207   -314.68141    38.741441 
182140000    290.54184    260.46822    403.92153   -29549.513    29540.305   -143.45331    38.735318 
182144000     287.6712    456.36156    396.96177   -29559.698    29568.869    59.399783    38.743196 
182148000    276.11692    301.12086    589.24776   -29577.394    29585.201    -288.1269    38.739361 
182152000     294.0364    309.33129    229.93053   -29586.884    29579.328    79.400759    38.740549 
182156000    292.80042    269.38805    314.46288   -29606.834     29592.06   -45.074829    38.732027 
182160000    291.87461    449.72452     309.1752   -29620.323    29613.896    140.54932    38.736284 
182164000    277.60077    334.08257    283.80732   -29624.895    29619.076    50.275255    38.743418 
182168000     289.3951    365.17746    463.32591   -29631.232    29619.958   -98.148445    38.740629 
182172000    256.54114    200.61369    225.10126   -29621.354    29639.465   -24.487561    38.724576 
182176000    296.49974    960.74664     278.7279   -29618.848    29626.995    682.01874    38.715956 
182180000    268.15593    256.89787    401.58338    -29633.25    29640.716   -144.68551    38.720317 
182184000    280.83713    522.14906    405.88903   -29644.117    29636.127    116.26003    38.723235 
182188000    257.69952    416.77059    173.86687   -29648.437    29666.409    242.90371    38.727524 
182192000    293.58228    331.61162    348.34392   -29659.965    29670.681   -16.732293    38.721808 
182196000    296.15742    408.21038    590.49266    -29672.04    29656.792   -182.28228    38.726326 
182200000    300.61663    311.37142    323.30507   -29682.536     29672.04   -11.933651    38.723112 
182204000    306.70241    558.54488    309.22054   -29706.051    29695.547    249.32434    38.730671 
182208000    281.26331    522.10075    227.26594   -29696.989    29696.955     294.8348    38.729082 
182212000    277.75493     438.0382    441.19901   -29698.617    29710.776   -3.1608173    38.734324 
182216000    272.03272    243.09601    155.79868   -29697.793    29709.072    87.297328    38.724418 
182220000    279.21364    545.56697    406.17246   -29707.093    29710.571    139.39451    38.733029 
182224000    303.57137    399.32448    432.37708   -29698.677    29688.233   -33.052601    38.728519 
182228000     301.6986    633.59021    384.75984    -29699.11    29690.666    248.83037    38.726934 
182232000    264.88519    349.25454    256.65293   -29685.493    29699.538     92.60161    38.723127 
182236000    284.48692    326.01072    330.23124   -29694.086      29700.9     -4.22052    38.727813 
182240000    277.28905     332.2995    443.15818   -29699.191    29707.903   -110.85868    38.717947 
182244000    273.25501    364.93188    182.33337   -29724.534    29733.516    182.59851    38.709361 
182248000    298.19372    520.49763    509.99227   -29759.626    29744.673    10.505357    38.714603 
182252000    303.62053    371.95856    290.08009   -29772.685    29760.747    81.878465    38.704364 
182256000    282.95675    246.82526    442.38846    -29777.51    29786.367    -195.5632    38.711307 
182260000    292.27251     391.6296    402.60861   -29778.824    29776.616   -10.979006    38.706109 
182264000    330.07609    200.04588    399.80201   -29817.507    29774.474   -199.75613    38.698754 
182268000    291.76316    223.25615    257.00488   -29792.526    29780.117    -33.74873    38.697292 
182272000    291.97059    284.23563    422.01728   -29795.263    29785.624   -137.78165    38.700842 
182276000    278.49101    385.60878    538.70237   -29809.802    29814.258   -153.09359     38.69257 
182280000    268.85218    308.18206    256.37954   -29829.078    29831.747    51.802521    38.692004 
182284000    292.86932    345.52702    199.82082   -29836.152    29830.876     145.7062    38.693173 
182288000    283.36356    458.23766    249.95786   -29837.572    29838.793     208.2798    38.685514 
182292000    254.00246    385.51031    280.23798   -29836.293    29858.806    105.27233    38.683966 
182296000    287.01368    590.55714    244.12342   -29854.644    29859.332    346.43372     38.68793 
182300000    296.92999    632.42817     313.8541   -29863.249    29858.173    318.57407    38.677155 
182304000    297.30887    383.07173    221.15764   -29858.904    29863.706    161.91409    38.672555 
182308000    292.99078    386.44041    154.91115   -29864.637    29873.609    231.52926    38.674868 
182312000    275.96121    220.24147    313.64079   -29887.092    29882.626   -93.399318      38.6697 
182316000    268.93675    429.21717    482.76252   -29886.546     29889.23   -53.545344    38.667101 
182320000    279.66245    303.40159     88.27186   -29897.154    29907.947    215.12973    38.676305 
182324000    277.40116    274.00755    344.36879   -29900.692    29907.209   -70.361243    38.684558 
182328000    288.44971    434.86392    365.34204   -29916.215    29917.311    69.521883    38.690606 
182332000    279.14276    317.69788    426.80453   -29916.063    29906.524   -109.10665    38.686562 
182336000    277.08823    284.01687    368.54808   -29919.538    29926.574   -84.531207    38.682747 
182340000    271.46422    310.42473    437.64404   -29917.522      29919.9   -127.21932    38.677385 
182344000    271.76561    343.50804    291.29233    -29933.57    29938.428    52.215715    38.679054 
182348000    290.33584    266.41398    406.20641   -29947.767    29938.891   -139.79244     38.68369 
182352000    309.42509    392.61853    358.29633   -29965.901    29954.923    34.322197     38.68675 
182356000    271.81691    374.91066    257.94327       -29952     29950.03    116.96739    38.669485 
182360000     276.2943    694.11865    392.02577   -29986.852    29971.623    302.09288     38.67116 
182364000    293.75039    349.81265    410.47641    -29968.61    29976.471   -60.663763    38.667625 
182368000     262.8079      319.751    390.96703   -29977.286    29986.236   -71.216027    38.664693 
182372000    285.40809    442.61179    131.38811   -30001.174    30001.982    311.22367    38.681797 
182376000    255.03401    306.09594    437.59894   -29993.695    30000.217   -131.50299    38.682308 
182380000    288.73361     218.4428     412.9616   -30013.246    30012.418    -194.5188    38.684943 
182384000     279.7189     351.7061    357.58638    -30027.46    30032.339   -5.8802795     38.68417 
182388000     301.2324    380.61464     443.0534   -30060.933    30044.919   -62.438761    38.682722 
182392000    283.49572     408.4335    285.45059    -30060.15    30057.812    122.98291     38.68343 
182396000    269.18527    272.78718    248.20226   -30070.124    30068.585    24.584915     38.68141 
182400000    281.27932    289.17947    592.99705   -30059.163    30064.588   -303.81758    38.672535 
182404000    308.08975    321.96235    379.88362   -30085.189    30062.409   -57.921263    38.665071 
182408000    290.98579    231.38733    191.46205   -30073.762    30077.127    39.925272    38.667144 
182412000    303.08849    327.18581    301.72515   -30090.313    30072.127    25.460667    38.665448 
182416000    322.70605    424.75106     525.9672    -30118.05    30075.141   -101.21614    38.667205 
182420000    316.87403    426.10837    501.30955   -30112.462    30077.327    -75.20118    38.660662 
182424000    310.64751    755.50214    362.04587   -30102.013    30095.966    393.45627    38.667297 
182428000    277.98833    135.46069    429.00817   -30115.585    30104.847   -293.54748    38.652693 
182432000    300.83354    632.32463    266.18811   -30145.045    30117.919    366.13652     38.65096 
182436000    281.04871    273.60766    510.22379   -30131.149    30126.715   -236.61613    38.647605 
182440000    298.01923    519.22087    280.51377   -30139.215     30128.41     238.7071    38.643742 
182444000    303.07562    393.20266    503.81248   -30133.504    30109.982   -110.60982    38.645126 
182448000    313.57365    486.47991    355.30478   -30146.635    30124.801    131.17514    38.642294 
182452000    275.36501    325.35615    370.81253   -30125.384    30132.365   -45.456385     38.64824 
182456000    273.73361    304.96181    297.69504   -30134.227    30132.256    7.2667643     38.64088 
182460000    302.86401     425.3835    288.07889    -30141.05     30130.26    137.30461     38.65133 
182464000    295.82651      474.447    288.30679   -30155.297    30136.158    186.14021    38.645736 
182468000    306.91262    572.12332    194.91069   -30162.255    30147.655    377.21262    38.658017 
182472000    312.80954    336.05546      304.258    -30185.12    30145.949    31.797459    38.661439 
182476000    298.57341    351.09195    376.01985   -30188.555    30167.517   -24.927897    38.672911 
182480000    308.71527    290.03022    347.95803   -30193.407    30173.938    -57.92781     38.67085 
182484000    284.31873     461.3142    310.60586   -30188.904    30198.686    150.70834    38.677115 
182488000    248.42354    307.27158    379.49639   -30186.633    30215.988   -72.224801    38.673062 
182492000    270.26359    329.52149    307.70188   -30205.369    30224.004    21.819614    38.676388 
182496000    271.76257    326.00454    493.52187   -30207.801    30205.837   -167.51733    38.663961 
182500000    262.23792    291.64256    361.06765   -30211.911    30219.045   -69.425086    38.667235 
182504000    296.03902    395.81402    293.04389   -30220.097    30215.443    102.77013    38.669272 
182508000    270.95942    409.31064    379.68708   -30225.713    30220.317    29.623565     38.67156 
182512000    245.00618    240.69057    372.78429   -30213.295    30248.925   -132.09373    38.671595 
182516000    268.10115    502.77281     316.0313   -30231.093     30244.68    186.74151    38.666434 
182520000    268.48063    298.89189    635.55244   -30233.514     30250.35   -336.66055     38.66607 
182524000    293.73473    373.26418    488.93261   -30240.311    30250.015   -115.66842    38.660334 
182528000    271.12079     336.4029    299.32484   -30256.331    30268.105    37.078057    38.654877 
182532000    257.90014    193.88097    288.81094    -30257.36    30272.109   -94.929969    38.649933 
182536000    299.29868    287.73713    284.43263       -30286     30275.96    3.3044993    38.652538 
182540000    300.57549    157.98588    249.45263   -30287.117    30268.501   -91.466754    38.659085 
182544000    295.36893    434.11046    295.43157   -30292.819     30276.44    138.67889    38.653654 
182548000    275.15629    422.33964    339.49497   -30270.797    30288.333    82.844679    38.653751 
182552000    286.90861    562.75895    342.37051   -30285.195    30285.311    220.38844     38.66104 
182556000    270.37291    587.54348    203.94767   -30289.352    30313.569    383.59581    38.668095 
182560000    260.61919    290.19385     231.8538   -30290.983    30301.955    58.340053    38.673018 
182564000    266.55073    362.90651    256.18713   -30300.805    30315.884    106.71938    38.671299 
182568000    254.77434    183.61597    181.68172    -30310.12    30313.711    1.9342413    38.677034 
182572000    297.36738    372.92505    564.81111   -30314.687    30317.564   -191.88606    38.679962 
182576000    297.36555    389.82729    410.93019   -30315.532    30303.953   -21.102897    38.675815 
182580000    304.11235    392.47299    571.95387   -30327.349    30311.686   -179.48089    38.668814 
182584000    273.55623    216.64669    485.42866   -30304.661    30316.676   -268.78197    38.670784 
182588000    273.12329    291.42027    369.39718   -30320.741    30336.158   -77.976912    38.670038 
182592000    295.47182    360.77209    255.32773   -30334.306    30319.401    105.44436    38.676299 
182596000     277.8494    289.91767    325.54837   -30350.882    30353.264   -35.630701    38.670055 
182600000    306.30113    276.25448    239.95895   -30357.045    30343.211    36.295524    38.667813 
182604000    285.40361    324.26736    264.67047   -30359.239    30360.445     59.59689    38.675393 
182608000    309.76508    298.06674    452.98734    -30379.25     30379.21    -154.9206    38.664474 
182612000    271.10272    289.22615     402.5565   -30360.278    30381.806   -113.33035    38.677369 
182616000    266.20608    394.33956    327.25582   -30384.392    30384.738    67.083739    38.678009 
182620000    258.75819    191.19022    257.82373   -30395.239    30417.654   -66.633512    38.676279 
182624000    289.42773    430.34651    308.76474   -30422.299    30420.907    121.58177    38.683075 
182628000    275.65196     338.6854    362.84314   -30439.165    30443.692   -24.157747    38.676396 
182632000    284.32368    273.56833    455.71541   -30452.122    30461.372   -182.14708    38.669121 
182636000    274.28584    402.94749    324.47046   -30456.907    30466.769    78.477034    38.672121 
182640000    287.25874    396.00061    268.93049   -30487.979    30493.411    127.07012    38.682467 
182644000    287.20175    353.59293     312.1795   -30509.121    30502.488    41.413425    38.674327 
182648000    304.13567     371.5892    439.63349   -30514.028    30515.627   -68.044291      38.6701 
182652000    284.34623    494.30351    364.73056   -30533.466    30517.094    129.57295    38.677643 
182656000    287.43621    335.52609    330.43176   -30537.899    30525.842    5.0943248    38.684272 
182660000     297.6119    679.15078    212.44666   -30537.501    30539.371    466.70412    38.683944 
182664000    317.57428    352.92435    746.91346   -30555.168    30530.373   -393.98911    38.685152 
182668000    289.99359    293.59168    374.09826   -30577.181    30570.826   -80.506583    38.675494 
182672000    249.37007    121.98011    302.56784   -30550.657    30573.932   -180.58774    38.685401 
182676000    258.19318    685.09929    695.12738   -30558.203     30563.13     -10.0281    38.675853 
182680000    277.52381    667.88178    204.22596   -30566.037    30566.027    463.65582    38.678015 
182684000    282.81381    524.08903    410.14457   -30556.709    30554.253    113.94447    38.673503 
182688000    299.61723    247.50329    316.29526   -30560.628    30554.705   -68.791969     38.67267 
182692000    284.60387    400.39806     391.6264   -30555.667    30560.189    8.7716655    38.682227 
182696000    271.15657    200.40179    207.59588   -30566.634    30584.969   -7.1940972    38.683281 
182700000    270.52993     365.8475    385.80716   -30592.503    30582.759   -19.959664    38.680419 
182704000    277.52299     450.1848    463.30964    -30586.38    30596.156   -13.124833    38.672038 
182708000    307.06155    441.00169    349.81946   -30622.328    30607.185    91.182233    38.670945 
182712000    276.10803    463.08195    354.60798   -30620.556    30632.956    108.47397    38.683663 
182716000    278.60548    555.72718    233.84422   -30635.265    30646.135    321.88295    38.683387 
182720000    287.12027    287.40398    286.79978   -30643.632    30639.885   0.60420366    38.675088 
182724000    295.03474    407.04117    352.61524    -30634.38    30624.491     54.42593    38.682755 
182728000    280.40541    375.82717    267.36302   -30631.515     30624.36    108.46415    38.675557 
182732000    285.96535    431.76196    218.79956   -30639.033     30635.61     212.9624    38.677983 
182736000    298.73823    381.34453    348.89689   -30627.864    30622.916    32.447636    38.677508 
182740000    242.65686    313.11565    208.55004   -30626.478    30633.478    104.56561    38.688333 
182744000     274.8593    356.71512    309.61245   -30642.025    30646.734    47.102668    38.693589 
182748000    284.68978    293.51403    402.66687   -30659.465    30647.443   -109.15284    38.688041 
182752000     290.1365    288.39056    281.60517   -30667.956    30665.248    6.7853849    38.681281 
182756000    293.60338    553.80772    335.71488   -30689.377    30676.202    218.09284    38.689343 
182760000    294.47727    363.90246    334.34541   -30708.311    30695.486    29.557055    38.688495 
182764000    295.87947    230.04867    440.10858   -30709.425    30706.396   -210.05991    38.690841 
182768000    289.66383    296.60693     297.1576   -30726.635    30714.808  -0.55067241     38.68432 
182772000    289.55136    225.68965    240.66711   -30734.103    30730.415   -14.977456    38.686737 
182776000    307.12641    365.32601    335.30908   -30730.713    30741.862    30.016934    38.679185 
182780000    260.68174    461.73314    265.96622   -30725.251    30748.352    195.76692    38.682068 
182784000    268.32024    288.28234    182.28839   -30740.072    30745.637    105.99395    38.688631 
182788000    273.52063    567.93121    251.76675   -30741.091    30749.365    316.16446    38.689509 
182792000    283.02063    561.57832    269.66461   -30751.887    30746.144    291.91372    38.685077 
182796000     286.0742    380.25045    368.12257   -30756.248    30754.761    12.127879    38.683806 
182800000     293.2548    126.64941    761.88741   -30771.318    30758.916     -635.238    38.674189 
182804000    290.77908    326.47752    269.77999   -30792.512    30770.907    56.697529     38.66753 
182808000    310.44943    196.01628    352.09892   -30784.703     30783.07   -156.08264    38.663679 
182812000    305.50976    278.90575    181.45349   -30798.283     30783.01    97.452263    38.670587 
182816000     285.1551    363.16227    216.44109     -30825.3    30804.533    146.72118    38.673185 
182820000    263.25101    584.27295    360.13271   -30825.764    30825.025    224.14024    38.678055 
182824000    271.12107    514.01066    213.44135   -30813.421    30830.632    300.56931    38.692881 
182828000     267.5554    449.40532    352.80713   -30811.178    30828.272    96.598197    38.697311 
182832000    267.24341    138.72671    474.53451   -30821.328    30825.508    -335.8078     38.70173 
182836000    277.52604     317.0917    238.99379   -30831.027    30843.946    78.097906    38.705931 
182840000    284.61906    232.44334    284.76055   -30831.903    30826.824   -52.317208    38.712838 
182844000    296.20067    169.08174    325.62298   -30833.561    30845.331   -156.54124    38.717817 
182848000    267.22334    367.84417    580.98365   -30859.877    30851.419   -213.13948    38.719556 
182852000     295.3389    325.70277    316.39687    -30859.98    30862.698    9.3058977    38.725882 
182856000    293.34877    315.95778    96.516006    -30855.14    30847.851    219.44177    38.727849 
182860000    282.48438    254.49028    430.61528   -30866.454    30848.364     -176.125     38.72563 
182864000    299.40393    359.82456    318.93103    -30874.44    30861.761    40.893532    38.730352 
182868000    282.16725    378.46783    246.50428   -30885.457    30884.699    131.96355     38.73624 
182872000    309.63767     419.8802    296.44582   -30918.693    30897.878    123.43438    38.741055 
182876000    274.14631    339.42854    250.20905   -30907.546     30900.26    89.219493    38.738915 
182880000    292.25768    174.25423    385.94051   -30908.071    30899.454   -211.68628    38.732899 
182884000    257.70253    282.21295    199.10869   -30913.818    30919.527    83.104261    38.739109 
182888000    265.62547    198.33475    349.98921    -30903.08    30934.044   -151.65446    38.737307 
182892000    271.28134    564.80219      631.436   -30925.403    30936.026   -66.633814    38.735385 
182896000     291.5523    372.02896    348.48055   -30929.319    30931.684    23.548417    38.737587 
182900000    289.99404    396.50523    224.45918   -30938.381    30931.617    172.04605    38.740805 
182904000    267.23013     274.1993    346.21395     -30925.9    30928.093   -72.014645    38.747988 
182908000    258.30092    314.22417    430.16997   -30927.516    30949.023    -115.9458    38.742039 
182912000    283.65929     261.4766    241.22799   -30938.174    30940.184    20.248606    38.740731 
182916000    310.96427    353.20562    465.33659   -30967.996    30937.415   -112.13097    38.755776 
182920000    272.50851    318.68076    469.81526   -30962.963    30955.569   -151.13451    38.757769 
182924000    256.22409    154.83889    183.03932   -30960.935    30978.643   -28.200433    38.763548 
182928000    274.34368    760.96884    256.57044   -30978.819     30996.35     504.3984    38.766295 
182932000    274.21033    221.28037    225.11679   -30996.735    31002.253   -3.8364133    38.763792 
182936000    312.29832    733.54036    349.55661   -31018.423    31014.789    383.98375    38.762116 
182940000    273.27929    384.38093    233.49698   -31011.442    31012.865    150.88396    38.762505 
182944000    294.42302    257.21582    447.63539    -31022.23     31010.83   -190.41957    38.754458 
182948000    304.28943    246.78909    629.29041   -31011.825    30998.011   -382.50132    38.754982 
182952000    287.00815    273.91746    312.79641   -31007.204    31016.989    -38.87895    38.768107 
182956000    284.86286    423.95219    354.45989   -31029.006    31038.535    69.492302    38.763448 
182960000    278.50486    380.42291    397.04141   -31049.243    31051.943   -16.618495    38.761569 
182964000     288.6038    376.65375    183.41929   -31062.269    31063.654    193.23446    38.762853 
182968000    285.41251    237.57059    305.45899   -31071.326    31079.254   -67.888401    38.763522 
182972000    287.85137      296.638    248.38446   -31091.042    31075.764    48.253537    38.773417 
182976000    300.34253    403.23565    254.51663   -31081.533    31066.557    148.71901    38.776573 
182980000    311.45812     392.2669    292.96624   -31089.797    31077.417    99.300658    38.769089 
182984000    298.33811    580.99543    234.55025   -31105.058    31102.749    346.44518    38.783535 
182988000    253.13616    218.55028    308.44997   -31093.248    31099.959   -89.899686    38.785293 
182992000    276.13699    315.03077    585.76819    -31121.72    31134.628   -270.73742    38.771574 
182996000    298.15804    326.26454     298.1495   -31150.598    31149.338    28.115041    38.774564 
183000000    270.48354     326.9921    328.57819   -31140.299    31160.994   -1.5860924    38.772932 
183004000    269.37416    177.87793    372.31723   -31139.732    31169.683    -194.4393    38.771858 
183008000    286.39768    504.63116    405.33189   -31173.671    31182.428     99.29927    38.776457 
183012000    291.58012    277.79677    247.81245   -31187.526    31195.492    29.984325    38.782097 
183016000    266.18565    562.83681    152.06165   -31207.923    31227.495    410.77516    38.789033 
183020000    299.33151    454.25561    446.18753   -31217.879    31225.673    8.0680807    38.786916 
183024000    294.50144    511.90548    288.83894   -31228.122     31233.32    223.06654    38.781051 
183028000    271.88568    358.67481    327.65817   -31227.447    31247.252    31.016637     38.77576 
183032000    290.86468    471.28661    376.68854   -31239.853    31244.428    94.598062    38.765675 
183036000    272.97715    373.05779    350.92609   -31232.402    31240.319      22.1317    38.773771 
183040000    335.86379    596.65931    486.69084   -31271.652     31241.29    109.96847     38.77381 
183044000    303.92727     256.2296    400.07419   -31291.343    31266.506   -143.84459    38.776433 
183048000    310.03665    327.04417    260.93401   -31297.516    31273.943    66.110156    38.783261 
183052000    316.55574    536.74775    405.36812   -31303.163    31271.022    131.37963    38.779177 
183056000    277.90665    261.19332     403.7747   -31278.984    31282.016   -142.58138    38.767725 
183060000    271.86345    371.42341    448.68041   -31284.083     31290.57   -77.257001    38.770366 
183064000    300.04832    291.06402    343.28266   -31297.825    31309.343   -52.218631    38.765089 
183068000    280.04891    568.06909    207.46564   -31318.269    31318.627    360.60344    38.765341 
183072000     268.3009    395.59944    394.85473    -31307.34    31326.162   0.74471274     38.75922 
183076000    268.43333    658.78702     212.9445   -31321.222    31341.593    445.84252    38.767996 
183080000    260.06774    291.92402    280.48686   -31324.948    31343.909    11.437164    38.765326 
183084000    300.57709    474.55702    350.86404   -31358.212    31341.075    123.69298    38.764898 
183088000    282.25784    338.17354    435.49879   -31368.665    31361.311   -97.325253    38.762942 
183092000    280.41996    446.59826    316.74089    -31359.39    31368.046    129.85738    38.760081 
183096000    277.75719    279.51475    253.58025   -31355.598     31374.48    25.934502    38.754349 
183100000    261.56133    335.24806      219.939    -31345.78    31358.608    115.30906    38.750477 
183104000    293.05158    419.80788    260.69249   -31354.051    31358.729    159.11539    38.757409 
183108000    285.41247    333.89998    369.92963   -31359.859    31373.076   -36.029658    38.764022 
183112000    267.30449    469.79001    596.43795   -31377.821    31379.135   -126.64794    38.764363 
183116000     292.5265    372.95362    404.25142   -31390.365    31383.338   -31.297801    38.761973 
183120000    300.13178    315.61969    475.46949   -31403.929    31399.701   -159.84979    38.762422 
183124000    312.58643    313.51496    244.63046   -31430.551    31407.823      68.8845    38.762475 
183128000    314.01825    385.69542    332.31399   -31430.539    31422.645    53.381432    38.764273 
183132000    277.95967    325.61506    193.47045   -31423.768    31436.815    132.14461    38.759319 
183136000    269.43402    540.60856    98.802823   -31441.283     31453.43    441.80574    38.771841 
183140000    245.81875    301.35198    377.75776   -31433.674    31466.852   -76.405785     38.77353 
183144000    262.17142    455.59485    409.05974   -31448.366    31461.741    46.535115    38.782655 
183148000     254.6211    247.47403     184.8159   -31432.683    31443.772    62.658136    38.785288 
183152000    283.12594    360.67201    335.47767   -31459.382    31437.955    25.194345    38.785713 
183156000    327.26335     398.0329     319.3827   -31463.622    31437.992    78.650199     38.78322 
183160000    297.38842    386.89778     241.3667   -31470.743    31459.759    145.53108      38.7846 
183164000    272.54234    379.08464    485.74831   -31484.126    31474.875   -106.66367    38.782371 
183168000    283.78966    414.29835     296.4819   -31486.381    31472.288    117.81645    38.779483 
183172000    310.65341     384.7097    457.85571   -31486.171    31482.098   -73.146006    38.778254 
183176000    269.49303    324.56472    299.49136   -31487.616    31485.429    25.073352    38.778309 
183180000    285.57333    344.42482    400.99283   -31496.991    31503.075   -56.568009    38.777229 
183184000    267.81821    382.28884    372.85665   -31509.364    31518.361    9.4321907    38.778854 
183188000    280.59399    173.50338     319.0621   -31506.599    31510.926   -145.55872    38.773819 
183192000    275.24013    364.88472    437.41089    -31503.25    31518.103   -72.526172    38.763415 
183196000    271.85452    422.97522    529.75959   -31506.872    31524.984   -106.78437    38.753592 
183200000    270.11915    446.93786    141.47148   -31527.769    31529.188    305.46637    38.764984 
183204000    328.26218    229.03666    400.30952   -31547.852    31535.871   -171.27286    38.765842 
183208000     248.5976    351.83461    134.47497   -31551.893    31567.538    217.35964     38.77192 
183212000    278.84089    496.72764    424.32738   -31556.238     31561.68    72.400252     38.77092 
183216000     290.5428    486.58524    275.90484   -31545.875    31557.304    210.68039    38.772855 
183220000    298.73564    445.37655      370.034   -31565.586    31558.935    75.342549    38.765827 
183224000    312.48396    359.32845    312.54594   -31589.456    31575.621    46.782506    38.764212 
183228000    286.79703    337.81042    269.77252   -31590.601    31595.169    68.037898    38.760712 
183232000    265.56007    325.90511    289.14051     -31593.6    31616.123    36.764601    38.757344 
183236000     297.0041    288.86687    365.37555   -31621.559    31622.066   -76.508685    38.758786 
183240000    275.11748    283.82025    217.33759   -31641.159    31641.646    66.482659    38.754962 
183244000    296.42086    502.78711    398.78315   -31651.823    31653.607    104.00396    38.750523 
183248000    276.34523    270.48793    169.76062   -31665.195    31665.763    100.72731     38.75141 
183252000    249.66112    420.80493     226.4511   -31652.361    31696.824    194.35383     38.75317 
183256000     274.3303    501.74151    182.96144    -31676.08    31686.147    318.78006    38.759484 
183260000    278.32163    405.59132    231.35776   -31675.849    31676.512    174.23356    38.751355 
183264000    243.72986    330.39463    323.67777   -31667.312    31692.085    6.7168561    38.755228 
183268000    257.31925    400.90081    381.92039   -31671.363     31692.85    18.980424    38.756875 
183272000    289.19454    414.76411    557.11967   -31686.248     31690.96   -142.35556    38.762943 
183276000    240.38226    242.82084    271.42471   -31692.412    31727.143   -28.603866    38.758003 
183280000    270.48849    426.07002    292.97521   -31712.243      31735.2    133.09481    38.749235 
183284000    287.11804    359.35162    417.64817   -31730.184    31737.857   -58.296543    38.742842 
183288000    293.89844     514.6736    392.22209   -31740.092    31740.688    122.45151    38.744414 
183292000    248.53308    271.19254    297.80065   -31738.174    31771.486   -26.608108    38.741333 
183296000    256.60503    321.60852    260.38109   -31759.038    31777.708    61.227427    38.743062 
183300000    252.00179    306.32672    280.85721   -31751.559    31774.747     25.46951    38.734997 
183304000    283.02766    377.66484     251.3142   -31781.114    31780.325    126.35064    38.733654 
183308000    269.58703    285.53673    308.18566   -31770.402    31774.024   -22.648934    38.731762 
183312000    284.52781    413.63367    315.59497    -31778.08    31771.949    98.038692    38.727093 
183316000    292.50778    390.18588    151.38077    -31796.33    31790.728    238.80511    38.726314 
183320000    314.59145    237.31001    390.98908   -31816.414    31789.399   -153.67907    38.731513 
183324000    276.32503    425.26332    263.85626   -31823.833     31785.99    161.40706    38.737995 
183328000    297.18492    261.32671    304.05737   -31824.314     31822.29   -42.730657    38.739443 
183332000    286.73665    303.21252    292.97299   -31835.893    31830.648    10.239533    38.740333 
183336000    297.39683    461.18823    310.73565    -31833.93    31836.067    150.45258    38.744342 
183340000    279.27854    252.21396    290.77535   -31824.352    31837.513   -38.561388    38.745796 
183344000    264.58557    463.85449    421.90997   -31842.243    31854.085    41.944518    38.744504 
183348000    286.57023    563.01958    301.13462   -31856.944    31848.752    261.88497    38.750366 
183352000    296.74012    417.63912    263.27688    -31875.96    31861.392    154.36225    38.751789 
183356000    293.17211    629.11175    394.34754   -31876.124    31857.909    234.76422    38.749657 
183360000    307.65408    345.55782    323.98679   -31881.949    31872.217    21.571026    38.747356 
183364000    282.72608    398.56216    352.45872   -31885.759    31888.578    46.103442    38.747214 
183368000    279.72389    375.34147    217.11922   -31894.719    31907.113    158.22225    38.745797 
183372000     286.9101    183.10673    314.64535   -31907.146    31905.524   -131.53863     38.74534 
183376000    284.34994    498.47695    306.70996   -31928.464    31912.206    191.76699    38.744849 
183380000     271.1086    213.69381    355.09336    -31920.57    31922.809   -141.39954    38.739295 
183384000    326.61275    552.69238    594.07717   -31943.837    31911.742   -41.384791    38.723846 
183388000    296.10245    384.09909    300.77011   -31941.073    31922.908    83.328984    38.729775 
183392000    271.06536    325.71257    318.20645   -31931.072    31939.421    7.5061163    38.736774 
183396000    293.90189    581.82239    386.88708   -31943.115     31934.35    194.93531    38.740379 
183400000    294.60539    511.39572    457.62706   -31940.207    31937.786    53.768667    38.745092 
183404000    278.20511     411.2849    207.17271   -31946.208    31956.408    204.11219    38.748887 
183408000    306.54179    628.54856    267.34055   -31962.335    31957.367    361.20801    38.750325 
183412000     275.6725     455.9854    342.41417   -31951.711    31969.969    113.57124    38.747613 
183416000    244.77019    374.71455    171.97558   -31962.012    31974.789    202.73897    38.749637 
183420000    309.09297    433.79009    265.16689   -31972.981    31971.639     168.6232    38.755102 
183424000    288.83378    417.45264    367.18991   -31973.583     31972.52    50.262728    38.750725 
183428000    301.76624    424.02638    160.99935   -31988.842    31975.832    263.02703    38.753586 
183432000    276.01875    267.67008    179.96174   -31989.902    31997.939    87.708338    38.758387 
183436000     269.6774    538.34919    288.23833   -32006.888    32015.759    250.11086    38.762041 
183440000    300.17189    427.84964    298.20035   -32014.803    32015.513    129.64929    38.772978 
183444000    306.18285    273.59369    462.02678   -32028.046    32005.027   -188.43309    38.768768 
183448000    304.71857    218.99558    281.77185   -32038.084    32022.479   -62.776272     38.76684 
183452000    287.45522     252.0882    172.58659   -32042.538    32040.233    79.501612    38.769911 
183456000    280.00846    269.88772    128.42713    -32063.86    32063.837    141.46059    38.776414 
183460000     315.8622    491.75996    230.28198   -32088.275    32061.225    261.47798    38.777788 
183464000    297.12691    213.53247     497.2536   -32106.014    32096.855   -283.72112     38.76611 
183468000    296.37934    154.84731    246.81279   -32096.786    32090.012   -91.965483    38.767233 
183472000    279.60641    512.17598    437.91578   -32103.283    32102.039    74.260195     38.77043 
183476000    294.21716    419.43735    318.53893   -32112.022    32112.313    100.89842    38.769128 
183480000    306.96553    543.04932    432.21407   -32135.014     32123.58    110.83526    38.769519 
183484000     283.2686    338.34903    413.76517   -32139.267    32156.518   -75.416136    38.778332 
183488000    298.89641    365.70844    293.62745   -32156.726    32150.653    72.080986    38.777218 
183492000    304.08273    297.70303    361.97246   -32169.263    32167.932   -64.269439    38.781876 
183496000    273.72453    349.09345    404.94668   -32187.624    32189.056   -55.853231    38.780193 
183500000    286.58254     350.6326    476.53813    -32184.58    32188.779   -125.90553    38.778195 
183504000    298.46161    401.68341    409.12841    -32194.66    32195.714   -7.4450051    38.776772 
183508000    301.05414    418.66368    244.68839   -32197.528    32194.578    173.97529     38.77351 
183512000    286.70464     307.6674    281.59143   -32201.511    32198.878    26.075972    38.774186 
183516000    264.20249    461.49834    311.94763   -32206.218    32197.135    149.55071    38.769767 
183520000    283.67904    400.40414    390.07026   -32207.998    32199.814     10.33388    38.780008 
183524000    284.06407    258.48821    236.26477   -32200.639    32193.971    22.223442    38.777722 
183528000    290.00365     349.2465    568.35658   -32235.101    32208.497   -219.11008    38.770883 
183532000    302.80257    447.96504    488.79845   -32245.745    32228.541   -40.833414    38.777471 
183536000    265.23296    485.52309    310.31387   -32246.102     32251.07    175.20923     38.78102 
183540000    289.39242    592.64005    591.48406   -32238.257    32254.648    1.1559897    38.782586 
183544000    279.19631    337.03187    270.04909   -32254.709    32265.122    66.982785    38.782315 
183548000    263.16301    356.55284    273.01167   -32264.148     32266.64    83.541167    38.795669 
183552000    253.91351    463.99143    305.88117   -32257.546    32279.981    158.11026    38.801076 
183556000    278.74758    285.24257     444.3696   -32259.989    32270.572   -159.12703     38.80093 
183560000    268.02049    273.96055    162.66938   -32282.826     32295.99    111.29118    38.804423 
183564000    272.11247    193.85751    346.96147   -32279.386    32290.271   -153.10396    38.807796 
183568000    250.97147    390.40874     479.0037   -32289.527    32317.508   -88.594957    38.801557 
183572000    285.75863    406.26108    261.02247   -32305.173    32311.397    145.23862    38.805325 
183576000    307.31606    175.91698    335.87199   -32322.259      32308.2   -159.95501    38.796869 
183580000    310.55247    449.55497    380.01347   -32339.388    32324.049    69.541494     38.79744 
183584000    274.36863    450.17418    234.41712   -32326.815    32329.548    215.75706    38.800528 
183588000    294.61123    601.94097    343.95417   -32349.151    32345.242     257.9868    38.802971 
183592000    271.09231    489.93907     355.1617   -32337.838    32364.909    134.77737    38.791597 
183596000    290.94347    385.32449    468.97373   -32342.646     32344.72    -83.64924    38.784351 
183600000    259.21506    291.58337    348.66237   -32347.578    32365.144   -57.079002    38.782261 
183604000    278.45538    465.24194    291.04128   -32351.147    32363.452    174.20066    38.781403 
183608000    270.97469    291.66082    313.55806    -32357.94     32373.32   -21.897244    38.769788 
183612000    248.75903    184.88777    367.57442   -32361.252    32380.208   -182.68665    38.764143 
183616000     275.3331     357.0731    156.08465   -32374.432    32373.073    200.98845    38.764007 
183620000     287.4844     266.2308    407.31789   -32373.071      32367.2   -141.08709    38.758869 
183624000    307.56975    561.08316    457.14517   -32381.229    32361.649      103.938    38.758688 
183628000    294.13013    307.25889      211.221   -32377.768    32377.856    96.037888    38.762808 
183632000    270.12366    299.42595    418.79385   -32389.928    32405.708    -119.3679    38.762437 
183636000    331.09218    385.66632     405.0813   -32419.861    32401.667   -19.414976    38.771943 
183640000    277.87979    451.69164    276.67584   -32422.306    32424.206     175.0158    38.779549 
183644000    284.83291    421.81932    556.73289    -32424.07     32442.96   -134.91357    38.786711 
183648000    278.73349     397.3009    513.34745    -32424.59    32445.282   -116.04654    38.787417 
183652000    278.82905    225.12543    242.30744   -32425.116    32431.778   -17.182006    38.782439 
183656000    273.43672     336.1381    312.68306   -32417.216     32435.83    23.455042    38.777844 
183660000    298.13408    299.79963    316.89858   -32443.557    32444.858   -17.098951    38.770782 
183664000    297.16223     299.4833    421.42908   -32462.754    32456.916   -121.94578    38.770838 
183668000    295.00026    215.79937    399.47551   -32469.786    32464.608   -183.67613    38.778158 
183672000    289.97794    355.24847    283.22059   -32471.135    32477.452    72.027878    38.763934 
183676000    263.93488    231.19536    362.95392   -32466.018    32487.591   -131.75856    38.755409 
183680000     250.5087    318.88564    386.72084   -32452.526    32490.607   -67.835194    38.753213 
183684000    279.25536    310.79153     625.3764   -32462.497    32483.908   -314.58487    38.747744 
183688000    262.92113    318.98895     451.4136   -32470.928    32482.037   -132.42465    38.743016 
183692000    272.02297     313.4963    390.97255   -32485.318    32491.684   -77.476245    38.737431 
183696000    288.12361    625.67292    169.31618   -32511.738     32501.41    456.35674    38.741218 
183700000     277.2761    288.06015    179.66066   -32506.365    32531.917    108.39949    38.739324 
183704000    289.98404    462.06889    178.10999   -32509.665    32510.618     283.9589    38.743215 
183708000     272.9101    314.17492    410.17715   -32508.117    32527.224   -96.002234    38.742045 
183712000    259.57266    237.12052     335.2495   -32520.881    32540.168    -98.12898    38.743325 
183716000    284.02168    563.31841    177.60455    -32540.23    32536.928    385.71386    38.751607 
183720000    247.43263    276.39604    326.37948   -32533.097    32557.533   -49.983443    38.747564 
183724000    267.24998    304.76794    282.19719   -32545.198    32552.476    22.570745    38.742949 
183728000     273.7513    326.52168    257.27377   -32546.244    32567.315    69.247906    38.744284 
183732000    296.68279    403.97217    290.04599   -32561.424    32558.938    113.92618     38.74902 
183736000    255.78879    480.83712    178.91963   -32581.249    32585.899     301.9175    38.751068 
183740000    274.02259    407.28805    232.41701    -32573.28    32580.102    174.87104    38.755579 
183744000    254.46575    325.51936    212.42934   -32574.978    32601.507    113.09003    38.755489 
183748000    291.87973    500.25364    518.55177   -32586.328    32600.123   -18.298131    38.758912 
183752000    250.39071    223.34441    183.81226   -32600.586     32607.34    39.532147    38.756696 
183756000    285.72765    202.28117    307.26989   -32604.144    32615.083   -104.98872     38.75784 
183760000    273.33291     252.4044    481.44363   -32612.655    32604.884   -229.03924    38.757123 
183764000    285.95402     398.2082    332.63278   -32606.714    32605.543    65.575423    38.752542 
183768000    280.03744    273.18628    381.09509   -32633.023    32632.009   -107.90881    38.747902 
183772000     275.7827     362.0821    476.71449   -32648.123    32647.189   -114.63239    38.755361 
183776000     259.0754    545.86034    140.39623   -32647.313    32653.522    405.46411    38.758739 
183780000    278.42773    392.51249    324.26755   -32648.045    32668.023    68.244941    38.756363 
183784000    258.79634    330.29881    200.97765   -32656.272    32691.382    129.32116    38.764884 
183788000    250.18794    367.08376    372.10162   -32653.716    32680.183   -5.0178635    38.762892 
183792000    294.41163    389.02512    446.08696   -32667.476    32672.852   -57.061839    38.757922 
183796000    273.78772    308.51929    564.90984   -32651.368    32686.054   -256.39055    38.761752 
183800000    269.61014    182.68894    203.00337   -32659.237    32680.596   -20.314431    38.757278 
183804000     276.8116    194.94664    254.15853   -32686.089    32702.731   -59.211891     38.75603 
183808000    277.10332    335.36904      174.816   -32686.294    32694.982    160.55304    38.754709 
183812000    310.89758    525.13311    335.78844    -32676.62    32683.178    189.34467    38.753131 
183816000    282.47111    314.35506    488.24043   -32675.843    32695.019   -173.88537     38.75397 
183820000    280.98321    427.65161     430.5903   -32694.154    32702.452   -2.9386951    38.746678 
183824000    255.43405    245.68524    326.08855    -32697.56    32714.273   -80.403308    38.747905 
183828000    268.08582    415.57921    291.01927    -32703.93    32730.457    124.55993    38.751841 
183832000    251.53451    372.60546    302.68508   -32687.125    32731.888    69.920384    38.759765 
183836000    267.09877    255.61267    333.06949   -32694.553     32721.84   -77.456817    38.754069 
183840000     275.6232     447.8445    340.83106   -32707.282    32717.313    107.01344    38.749349 
183844000    298.27761    457.66605    205.12042    -32730.88    32715.655    252.54563    38.750324 
183848000    298.24996     450.7226    348.81627   -32747.012    32712.889    101.90633    38.757523 
183852000    284.88029    478.36899    261.44133   -32745.512    32727.071    216.92765    38.765809 
183856000    308.58244    507.35457    132.37195   -32767.292    32735.375    374.98262    38.773743 
183860000    332.44314    381.15577    226.83523   -32765.034    32741.728    154.32054    38.777596 
183864000    283.07313    430.35211    303.17349   -32758.075    32756.171    127.17861    38.776202 
183868000    286.14724    409.41415     214.2038   -32757.959    32783.726    195.21035    38.764212 
183872000    273.94054    457.79273    315.77769   -32768.648    32775.558    142.01504    38.760074 
183876000    326.03673    414.73258    681.64833   -32782.566    32790.583   -266.91576    38.757002 
183880000    272.14973    254.97137    653.25537   -32788.922    32791.566     -398.284    38.746246 
183884000    270.18714      321.912    323.03334   -32791.758    32815.832   -1.1213398    38.747755 
183888000    306.89774    512.78831    294.16326   -32808.683    32807.384    218.62506    38.755536 
183892000    259.92842    502.01188     210.8433   -32802.819    32825.065    291.16857    38.760303 
183896000    256.45492    565.80996    291.64926   -32810.822    32828.072     274.1607    38.762729 
183900000    271.32492    436.75123    358.88931   -32829.125    32834.308    77.861923    38.757602 
183904000    300.74604    105.18315    388.64043   -32824.909    32826.626   -283.45728     38.76463 
183908000     299.9767    431.61205    448.22155   -32825.062    32821.515   -16.609506    38.762647 
183912000    297.07502    628.55793    422.92767   -32836.433    32809.453    205.63026    38.765875 
183916000     303.4885    455.76771    295.00371   -32830.975    32836.514      160.764    38.769419 
183920000    316.47048    556.83033     218.1086   -32853.233    32834.113    338.72174      38.7678 
183924000    287.43104     447.2432    403.36651   -32859.264    32854.093     43.87669    38.765078 
183928000    281.93309    170.21317    307.11137   -32857.037    32865.495    -136.8982    38.762398 
183932000    275.29797    365.47818    275.67684   -32883.866    32886.572    89.801339    38.761445 
183936000    293.86025    424.27562    377.11815   -32878.929    32892.476    47.157469    38.763383 
183940000    302.34517    468.67514    188.85687    -32904.23    32909.117    279.81827    38.761576 
183944000    291.55862    340.59604    460.06285    -32888.25    32903.103   -119.46681    38.761176 
183948000    265.53595    383.83271    452.24904   -32897.222    32912.525    -68.41633    38.762811 
183952000    275.03209    473.12633    388.87462   -32900.275     32923.42    84.251704    38.758202 
183956000    272.73989    249.64409    246.38512    -32899.23    32926.638    3.2589741    38.758774 
183960000     288.2871    230.94045    415.08564     -32937.2    32934.828   -184.14519    38.759213 
183964000    275.86997    278.58945     214.7018   -32939.274    32959.242    63.887649     38.77105 
183968000    287.39126    546.85908    201.02071   -32945.087    32946.631    345.83837    38.771879 
183972000    309.53301    317.90816    488.30326   -32952.053    32958.831    -170.3951    38.778998 
183976000    259.05803    344.87302    157.44718   -32940.499    32962.086    187.42584    38.785237 
183980000     272.3094    272.83656    257.76963   -32962.435    32980.612     15.06693    38.791166 
183984000    283.94641     212.9295    486.77276   -32966.583     32971.01   -273.84325    38.799793 
183988000    288.04059    409.77175    177.89498   -32968.792    32967.163    231.87677     38.79813 
183992000    254.41947    355.19224    228.96069   -32959.375    32973.679    126.23154    38.798367 
183996000    288.65722    513.41031    443.26671   -32978.189     32970.74    70.143602    38.796669 
184000000    282.59193    507.74791    249.28918   -32981.277    32970.693    258.45873    38.794618 
184004000    282.77082    146.67459    291.95365   -32989.909    32996.462   -145.27906    38.780054 
184008000    298.19571    247.60816    572.00537   -33014.001     32996.77   -324.39721    38.784417 
184012000    257.66757    450.05139    188.98092   -33023.885    33030.467    261.07047     38.79085 
184016000      273.446    340.64113     299.6859    -33021.46    33039.358    40.955228    38.799416 
184020000    243.82925    392.85808    235.51501   -33015.727    33039.937    157.34306    38.804643 
184024000    290.69061    448.92675    446.56467   -33028.518     33033.23    2.3620749    38.807169 
184028000     277.9976    492.57181    344.34071   -33026.136    33021.872     148.2311    38.806527 
184032000    277.96482    331.90885    254.94556   -33021.903    33023.591    76.963289    38.806015 
184036000    274.24707    538.40366    206.56958   -33037.004    33028.436    331.83408    38.806766 
184040000    274.89863    355.23919    366.75033   -33053.196    33046.122   -11.511135    38.801642 
184044000    270.33591    480.20001    309.96858   -33063.221    33067.635    170.23143    38.802125 
184048000    282.70099    246.86852    407.94478   -33066.436    33064.586   -161.07626    38.795071 
184052000    278.53507    537.72632    376.54017   -33068.707    33070.703    161.18615    38.789947 
184056000    272.17989    166.68828    312.91601   -33069.071    33067.765   -146.22773    38.793715 
184060000    273.98417    224.58697    300.04016   -33064.133    33071.047    -75.45319    38.795266 
184064000    285.51771    384.45556    145.83096    -33065.66    33077.749     238.6246    38.794326 
184068000    281.75684    456.79632    277.63562   -33059.094    33076.311     179.1607    38.798559 
184072000    286.85429    361.20142    398.89805   -33069.561    33074.932   -37.696636    38.799451 
184076000    294.62443    344.92422    323.00819   -33081.438    33078.288    21.916028    38.791418 
184080000    269.15383    370.40726    355.05599   -33088.211    33095.183     15.35127    38.789216 
184084000    323.88545    516.66321     390.2007   -33122.864    33092.394    126.46251    38.788324 
184088000    323.58479    567.08107     193.1857    -33136.76    33104.064    373.89538    38.784993 
184092000    283.30952    313.43611    288.62547   -33129.614     33118.13    24.810635    38.777103 
184096000    282.42747    476.35246    305.57976   -33129.497    33125.724     170.7727    38.780499 
184100000    284.83635    443.50521     388.4025   -33124.328    33116.515     55.10272    38.779085 
184104000    298.39671    329.95526    386.00927   -33126.547    33115.516   -56.054013    38.773953 
184108000    233.36521    206.58681    313.83774   -33110.831     33146.78   -107.25093    38.770993 
184112000    278.24803    183.81318    409.87209   -33109.337     33116.49   -226.05891    38.770285 
184116000    319.95926    394.63378    266.79373    -33126.16    33113.848    127.84004    38.772351 
184120000     261.3404    356.23429    360.85717   -33114.257    33127.419   -4.6228754     38.76729 
184124000    301.87776     638.3095    468.16547   -33131.043    33126.654    170.14403    38.773809 
184128000    309.25382    421.51402    286.37128   -33144.777    33136.884    135.14275    38.772288 
184132000    273.02512    224.38728    231.49378   -33141.407     33156.87   -7.1064993    38.772755 
184136000    274.26713    514.58113    405.40368   -33159.819    33174.867    109.17745    38.774162 
184140000    281.27488    410.94176    584.36503   -33158.666    33173.814   -173.42328     38.77621 
184144000    280.93428    350.32495    328.75608   -33168.824    33180.542    21.568865    38.776233 
184148000    268.23875    377.41738    289.38845   -33178.427    33184.175    88.028929    38.782396 
184152000    252.60763    520.03416    202.43988   -33153.582    33197.257    317.59428     38.78105 
184156000    262.62847    179.46127     319.1643   -33150.467     33173.55   -139.70303    38.781308 
184160000     288.7308    353.70083    472.38067   -33170.247    33162.891   -118.67983    38.781892 
184164000    281.12351    365.75951    232.99872   -33189.797    33183.962    132.76079    38.775805 
184168000    282.22878    463.29363    460.06109   -33181.331    33189.104    3.2325391     38.78362 
184172000    285.08733    633.94738    236.87726   -33197.204    33193.513    397.07012    38.783572 
184176000    303.05935    120.40226    256.81729   -33213.381    33191.488   -136.41503    38.783868 
184180000    294.84557    400.99759    303.63956   -33226.039    33198.527    97.358034    38.785608 
184184000    292.75284    312.17856     143.3694   -33225.575    33211.947    168.80915    38.786085 
184188000    261.54522    280.83191      260.805   -33233.348    33233.417    20.026913    38.789799 
184192000    287.55136      288.596    271.21041    -33221.18    33229.919    17.385593    38.784354 
184196000    301.96593    248.90806    285.60611   -33229.576    33233.149   -36.698045    38.775986 
184200000    283.80216    257.62945    450.73303   -33243.737    33249.174   -193.10358    38.771254 
184204000    278.60367    526.29246     494.4222   -33269.203     33260.59    31.870255    38.785239 
184208000    263.92468    172.69626    279.36302   -33267.314     33277.63   -106.66676    38.789538 
184212000    314.98378    527.99816    261.63667   -33285.979    33278.883     266.3615    38.784389 
184216000      298.011    413.90821     284.1423   -33281.453     33282.07    129.76591    38.793719 
184220000    266.31577    310.60397    307.88406   -33271.734    33302.449    2.7199089     38.78622 
184224000     255.5488    318.75491    369.90467   -33296.162    33303.528   -51.149761    38.791515 
184228000    297.77248    249.31867     490.3386   -33317.872    33309.495   -241.01993     38.78391 
184232000    308.10619    492.62312    363.13829   -33328.601    33325.781    129.48483    38.780819 
184236000    320.84345    315.56724    257.72113   -33357.779    33332.214    57.846106    38.784092 
184240000     283.2171    283.36158    478.71824   -33343.484    33337.126   -195.35666    38.786229 
184244000    304.05301    403.02102    220.79315   -33363.892    33344.961    182.22787     38.78062 
184248000    263.50468    433.88091      209.258   -33351.665    33359.976    224.62291    38.793533 
184252000    280.58355    192.73864      371.914   -33374.168    33378.006   -179.17536    38.794299 
184256000    295.60152    443.45736    334.38945   -33371.776    33376.898    109.06792    38.805005 
184260000    267.98829    432.22811    448.05896   -33373.288    33377.065    -15.83085    38.805742 
184264000    248.59169     256.7246    280.45851   -33375.514    33410.341    -23.73391    38.799076 
184268000    290.10851    443.64479    271.76421    -33383.63    33396.041    171.88058    38.809732 
184272000    310.17328    202.15881    273.99253   -33395.078    33384.868   -71.833718    38.805189 
184276000    306.52748     300.9229    303.44072    -33403.59     33392.48   -2.5178202    38.811429 
184280000    304.33431    422.73804      286.941   -33405.369    33416.071    135.79705     38.81044 
184284000    278.84062      266.386     415.6169   -33426.868    33431.038    -149.2309    38.809402 
184288000    305.45153    469.62092    516.91918   -33445.325    33432.785   -47.298258    38.809578 
184292000    285.89752    202.80198    250.56267   -33448.481    33446.767   -47.760684    38.809157 
184296000    311.42195    361.72957    246.78846   -33478.779    33465.848    114.94111    38.801738 
184300000    276.62529    584.15388    329.44491    -33483.57    33483.156    254.70897    38.804583 
184304000    284.42397    460.91762    389.41334   -33494.864    33478.561    71.504279    38.805348 
184308000    298.70572    452.51987    369.53171   -33513.272    33497.485    82.988159    38.800072 
184312000    282.23915     428.4946    376.69782   -33510.958    33525.978    51.796781    38.786446 
184316000    263.53055    184.65812    254.39498   -33503.777    33527.021   -69.736857    38.784468 
184320000    277.43855    280.09698    401.65081   -33511.621    33536.213   -121.55383    38.781896 
184324000    291.77735    239.26498    409.18849   -33524.704    33525.711   -169.92352    38.776106 
184328000    274.66831    269.35573    385.31954   -33530.715    33540.387   -115.96381    38.768586 
184332000    266.72216    209.31194    295.39316    -33530.62    33540.248   -86.081216    38.765636 
184336000    295.12029    413.94918    357.90008   -33547.276     33541.66      56.0491    38.759178 
184340000    285.63463    391.06769     599.4585   -33545.793    33546.699   -208.39081     38.76131 
184344000    268.99096    398.76695    163.32865   -33549.539    33555.482     235.4383    38.765757 
184348000    291.48331    348.56136    402.43993   -33560.045    33564.696   -53.878566     38.76347 
184352000    297.99563    309.47264    174.77264   -33569.559    33560.549        134.7    38.761727 
184356000    269.59606    550.13854    406.61445   -33578.538    33586.585     143.5241     38.76298 
184360000    259.30553     346.6726    185.12038   -33559.995    33590.884    161.55222    38.764388 
184364000    299.62883    568.23753    294.41575   -33569.373    33571.453    273.82177    38.769252 
184368000     297.9442    383.56697    633.13535   -33583.657    33575.772   -249.56838    38.771489 
184372000    301.27875    663.56907    293.36282   -33613.551     33585.57    370.20626    38.772063 
184376000    289.73819    545.98571    599.89171   -33603.654    33605.902   -53.905997    38.774549 
184380000    262.89384    271.04526    366.23255   -33600.749    33619.297   -95.187288    38.773139 
184384000    252.63445    180.60177    312.21298   -33601.126    33628.603   -131.61121    38.769925 
184388000    242.51246    348.62385     295.8851   -33615.839     33650.25    52.738747    38.765274 
184392000    241.06584    262.08464    138.57506   -33618.009    33655.339    123.50958     38.76953 
184396000    271.80254    343.02342      421.851   -33654.497    33656.309    -78.82758    38.767493 
184400000    273.98359    555.75262    183.51623   -33641.537    33650.388    372.23639    38.777201 
184404000    260.42932    407.95125    264.35287   -33649.158    33657.463    143.59838    38.783633 
184408000    256.81786    355.82127    425.12562   -33643.402    33662.862   -69.304344    38.782626 
184412000    272.25257    281.84664    245.23979   -33647.375    33656.079     36.60685    38.784148 
184416000    300.00612    760.91545    381.47755   -33683.985     33672.24     379.4379    38.791085 
184420000    272.13552    462.42192    378.42852   -33672.452    33687.036    83.993405    38.801406 
184424000    283.73617    395.58682    335.60879   -33684.384    33692.343    59.978038    38.801238 
184428000    317.71706    262.40047    109.45054   -33717.466    33701.757    152.94993    38.795938 
184432000    276.49252    228.40354    422.26587   -33697.754    33713.083   -193.86233    38.788987 
184436000    289.12331    332.49129    266.65009   -33710.495    33725.251      65.8412    38.790633 
184440000    288.16268    196.88325    326.89927   -33719.418    33714.892   -130.01602    38.795723 
184444000    292.05713    438.99119    310.56446   -33720.694    33718.101    128.42673    38.800244 
184448000    253.27087     147.4046    235.36378     -33708.9     33735.51   -87.959176    38.806786 
184452000    244.48537    202.65335    318.42327   -33720.489    33752.673   -115.76992    38.817628 
184456000    285.78169     261.9223    399.97824   -33756.209    33769.233   -138.05595    38.809999 
184460000     269.7898    175.78854    156.12981   -33752.513    33783.493    19.658729    38.811477 
184464000    279.55664    358.80787     359.6974   -33757.337    33777.445     -0.88953    38.815964 
184468000    280.93206    358.18808    237.31608   -33776.651    33797.415      120.872    38.819556 
184472000    294.06329    491.22847    445.80718   -33791.507    33786.296    45.421283    38.827064 
184476000    274.83166    311.68504    133.65117   -33775.697    33785.925    178.03387    38.830532 
184480000    284.11015    448.06078    436.51281   -33801.027    33801.211    11.547974      38.8246 
184484000    264.40557    321.34491    370.94025   -33801.372     33805.05   -49.595339    38.823351 
184488000    322.23551    449.19874    413.56095   -33830.531    33805.586    35.637787    38.822842 
184492000    282.70533     166.0079    336.12302   -33819.571    33816.245   -170.11513    38.822918 
184496000     263.5641    305.47976    235.49562   -33835.459    33837.284    69.984132    38.818024 
184500000    272.86736    420.45716    528.77449   -33839.897    33846.838   -108.31732    38.818621 
184504000    306.81692    300.24483    264.42994   -33850.504    33842.759     35.81489    38.824361 
184508000    310.64043    345.05602     479.4447   -33872.765    33856.431   -134.38868    38.826568 
184512000    304.39233    469.99965    382.88961   -33898.655    33881.838    87.110043     38.82794 
184516000    286.86882    458.30966    363.60808   -33895.512    33897.926    94.701586    38.822746 
184520000    263.21655    265.29204    474.14165   -33894.719    33931.507   -208.84961    38.826755 
184524000    270.02948    272.50151    339.74627   -33926.024    33932.015    -67.24476    38.833624 
184528000     252.2253    366.62059    296.03563   -33908.308    33928.404    70.584965    38.840255 
184532000    287.95383    437.75008    290.82913   -33935.688    33921.329    146.92094    38.837266 
184536000    288.59018     450.0777    364.72687   -33929.387    33941.014    85.350822    38.833189 
184540000    279.44523    399.69465    247.50194   -33927.101    33944.472    152.19271    38.841318 
184544000    278.78632    302.15407    287.27103   -33925.575      33934.3    14.883038    38.845478 
184548000    294.84259    506.06655    289.37509   -33931.936    33936.168    216.69145    38.844688 
184552000    289.47085    457.76581    293.72539   -33945.675    33955.588    164.04042    38.841384 
184556000      295.389    433.65694    432.66404   -33963.204    33960.743   0.99289714    38.834869 
184560000    265.83314     325.8248      343.869   -33952.781    33974.142   -18.044194    38.832038 
184564000    277.09373    411.65913    281.09202   -33978.828    33970.642     130.5671    38.835263 
184568000    290.52343    298.29395    353.87059   -33983.178    33984.283    -55.57664    38.827415 
184572000     297.2516    382.49431    457.22982   -33997.273    33981.795   -74.735512    38.835576 
184576000    303.57546    355.51876    401.88692   -33992.499    33977.114   -46.368157    38.838112 
184580000    288.68656    290.85615    298.50822   -33981.946    33993.291   -7.6520686    38.842027 
184584000    281.33736    688.31404    378.12485   -33980.726     33990.73    310.18919    38.846575 
184588000    277.51472    430.68762    432.71893   -33994.339    34000.777   -2.0313096    38.856565 
184592000    300.50879     518.4329    222.08506   -34016.633    33998.779    296.34784    38.864094 
184596000    283.31691    441.11893    280.86183   -34001.173    34009.699     160.2571    38.864925 
184600000     300.1435    387.04063    403.89605   -34016.647    34015.886   -16.855424    38.871466 
184604000    264.07328    458.29155    340.35672   -34038.603    34038.286    117.93483    38.866999 
184608000    280.36254    283.89753    519.01438   -34038.161     34045.36   -235.11685    38.871434 
184612000    260.71983    333.54262    158.11399   -34045.098    34048.238    175.42863     38.86679 
184616000    308.87457     405.4256    368.82048   -34056.168    34051.165    36.605117    38.867434 
184620000    296.88474    244.02272    289.95207   -34064.177    34048.091   -45.929358    38.874551 
184624000    281.87854    360.07598    268.02454   -34060.569    34083.098    92.051435     38.86706 
184628000     273.1615    387.97025    338.02356   -34080.787    34074.891    49.946693    38.863624 
184632000    269.22459    341.97355    196.73151   -34095.683    34102.483    145.24204    38.873578 
184636000    261.23672     254.3701    353.51197   -34110.055    34116.555   -99.141864    38.865362 
184640000     270.7804    350.64482    304.85284   -34113.065    34119.291    45.791975    38.873186 
184644000    296.91591    443.92062    359.06447   -34115.548    34129.776    84.856157    38.873187 
184648000    289.36333    430.82513    220.22637   -34137.623    34119.523    210.59877    38.877739 
184652000    292.81389    641.43804    262.88579   -34143.572    34137.684    378.55226    38.878606 
184656000    262.16459    256.73071    243.53369    -34121.02    34136.067    13.197027    38.871553 
184660000    277.50344    290.49993    176.00644   -34121.261    34139.451    114.49349    38.877423 
184664000    289.67028    317.88987    571.50213    -34149.22    34139.402   -253.61226      38.8789 
184668000    279.15954     560.8775    421.92471    -34155.27     34159.65    138.95279    38.892048 
184672000    308.12134     520.8664    221.02799   -34159.914    34148.563    299.83841    38.890516 
184676000    259.15968    194.39047    287.33098   -34150.402    34157.419   -92.940514    38.888045 
184680000    245.17854    309.19117     314.2265   -34156.206    34174.783   -5.0353308    38.886889 
184684000    265.01034    257.42476    300.23656   -34147.983    34177.418   -42.811797    38.895737 
184688000    287.58377    507.24067    272.67792   -34159.826    34164.936    234.56274     38.88645 
184692000    287.30273    414.20228    496.62882    -34168.85    34171.446    -82.42654    38.879854 
184696000     266.3463    112.92481    489.38358   -34182.493    34196.505   -376.45877     38.87466 
184700000    283.45884    650.97132    478.87223   -34189.811    34201.906    172.09909    38.871655 
184704000    258.26118    392.91734    318.04856   -34192.431    34211.317    74.868784    38.867138 
184708000    275.27087    250.51422    361.82371   -34205.015    34229.367   -111.30949    38.866372 
184712000    291.43701    262.60628    474.15642   -34216.536    34210.798   -211.55014    38.864959 
184716000    266.10696    239.95199    404.15434   -34216.401    34234.342   -164.20235    38.867806 
184720000    289.91662    407.27639    534.26486   -34226.621    34223.776   -126.98847    38.868391 
184724000    274.47517    343.37529    307.95708   -34236.875    34233.883    35.418214    38.868785 
184728000    285.93944    306.94887    503.24998   -34233.657    34232.802   -196.30111    38.867217 
184732000     282.1457    179.40731    297.58775   -34231.993    34259.062   -118.18044    38.866762 
184736000    292.88443    405.17935    595.16584    -34262.35    34261.106   -189.98649    38.864176 
184740000    272.22091    337.96826    263.55568   -34275.434     34292.25    74.412579    38.863662 
184744000     301.1932    260.84378    265.22029   -34300.485    34296.092   -4.3765102    38.853911 
184748000    287.49758    346.28582    196.64703   -34313.115    34309.451    149.63879    38.857372 
184752000    269.41377    255.77127     476.6949   -34315.341      34311.4   -220.92363    38.854893 
184756000     285.5528    214.95576    459.61861   -34320.456    34323.375   -244.66285    38.845463 
184760000    256.72517     501.4011    114.81202   -34318.951    34348.035    386.58908    38.850181 
184764000    278.47213    309.76482    535.12526   -34316.785    34337.331   -225.36044    38.842783 
184768000    281.67236    275.34489    361.98715   -34330.411    34337.138   -86.642262    38.837096 
184772000    283.21934    375.77853    434.93352   -34330.639    34334.246   -59.154989    38.834252 
184776000    287.00694    267.34795    409.63488   -34332.902    34341.517   -142.28693    38.844762 
184780000     296.0811    486.92798    199.37898   -34356.296    34344.364      287.549    38.849727 
184784000    273.95496    421.31627    366.24821   -34338.885    34350.096    55.068066    38.867713 
184788000     285.0107    366.61593    262.33681   -34354.752    34343.422    104.27912    38.871823 
184792000    281.32179    157.00529    377.30968   -34361.109    34357.339   -220.30439    38.863833 
184796000     277.2086    292.41231    273.52831   -34368.261    34369.217    18.884003    38.859513 
184800000    306.53308    745.96168    381.04141   -34374.719    34379.427    364.92027    38.878467 
184804000    292.65832    534.65945    256.66136   -34366.135    34373.499    277.99808    38.875094 
184808000     272.6851    329.30016    179.28053   -34371.558     34390.91    150.01962    38.881429 
184812000    276.90383    539.79397    341.06208   -34383.194    34377.154    198.73189    38.877827 
184816000    271.42034    347.20274    227.86746   -34385.978    34387.434    119.33528    38.890881 
184820000    259.22253    352.21138    381.23335   -34372.579    34397.812   -29.021966    38.885306 
184824000    267.51094    453.89045    154.67244   -34391.222    34392.781    299.21801    38.885172 
184828000    283.89127    294.48716    301.66593   -34395.408    34414.108   -7.1787715    38.891271 
184832000     300.5079    503.98696    247.59127    -34405.96    34403.735    256.39569    38.888281 
184836000    275.24363    321.02411    298.19116   -34403.675    34406.166    22.832949     38.88677 
184840000    295.60186    313.22429    322.95245   -34404.394    34411.612   -9.7281561    38.871709 
184844000    282.22487    215.35318    438.92967   -34416.912    34425.174   -223.57649    38.869481 
184848000     283.3537    329.37201    303.56009   -34421.961      34418.4    25.811912    38.869447 
184852000    309.21306    333.30497    204.19663   -34439.982    34424.233    129.10834    38.867062 
184856000    294.01828    333.45522    237.12203   -34449.845    34447.554    96.333194    38.869135 
184860000    287.45474    589.34399    415.88919   -34468.292    34467.169    173.45479    38.865708 
184864000    271.79326    300.87936    620.95448    -34471.29    34482.148   -320.07512    38.864737 
184868000    290.62949    859.86937    375.53738   -34499.589    34499.768    484.33199    38.868816 
184872000    273.69727    423.47055    288.94245   -34497.836    34503.644    134.52809    38.861976 
184876000     292.8811    247.83991    445.76071    -34521.66    34515.441    -197.9208    38.863161 
184880000    274.80787    466.24753     462.4937    -34534.35    34527.774     3.753833     38.86449 
184884000    280.10139    212.33431    290.91728   -34521.154    34533.997   -78.582966    38.859521 
184888000    289.90482    424.92579    362.34937   -34529.692     34534.19     62.57642    38.867473 
184892000     256.8394    256.47479    319.13709   -34538.696    34557.179   -62.662302    38.878653 
184896000    285.94601    533.92298     473.4255   -34546.534     34551.17     60.49748    38.883939 
184900000    280.64285    458.57523    195.41451   -34559.983    34562.384    263.16072    38.881679 
184904000    256.65945    249.52269    343.72428   -34554.851    34558.769   -94.201583     38.88022 
184908000    273.59579     373.9743    415.70311    -34562.14    34575.678   -41.728809    38.874864 
184912000    282.27261    366.71845    349.08896   -34560.345    34586.268    17.629487    38.872408 
184916000    269.00043    282.62721    331.27702   -34552.251    34576.728   -48.649814    38.868907 
184920000    266.66842     356.9889    149.96885    -34567.25    34586.757    207.02005    38.866844 
184924000    282.71427    377.88221    256.79799   -34584.245    34585.474    121.08423    38.870184 
184928000    296.14741     246.9928    161.61119   -34590.312    34586.255    85.381613    38.862594 
184932000    261.85008    213.74025    415.39302    -34580.43    34580.358   -201.65276    38.864839 
184936000    252.87922    342.21141    390.40168   -34586.127     34605.95   -48.190273    38.870629 
184940000    287.89159    941.04827    332.28821   -34604.783    34625.775    608.76007    38.868503 
184944000    254.20711    422.60127    327.85954   -34591.914    34616.548    94.741732    38.862397 
184948000    254.76064    419.57911     533.9568   -34599.316    34617.685   -114.37769    38.857181 
184952000    291.73663    287.50612    808.55453   -34615.477    34621.614   -521.04841    38.851814 
184956000    275.76879    624.24815    270.14351   -34605.422    34634.389    354.10464    38.852541 
184960000    280.51533    381.57733     407.6008   -34627.024    34621.805   -26.023466    38.850103 
184964000    279.82712    173.07672    242.59007   -34635.859    34639.957   -69.513349    38.853317 
184968000    247.25407     215.0085    236.54014   -34653.784    34654.794   -21.531642     38.84837 
184972000    261.68008     560.2983    155.20191   -34653.128    34676.648    405.09639    38.852987 
184976000     264.2332    291.56612    355.01936   -34657.412     34672.99   -63.453238    38.859712 
184980000    266.65473    438.19881     342.7473   -34674.065     34668.63    95.451514    38.858341 
184984000     277.6655    413.40237    375.12358   -34663.394    34682.038     38.27879    38.857698 
184988000    288.02707    352.60026    402.36866   -34697.416    34687.554   -49.768403    38.860072 
184992000    280.63365    248.42334    632.39249   -34678.026    34677.727   -383.96915     38.85225 
184996000    267.48104    659.24709    304.44025   -34690.668     34685.97    354.80684    38.856464 
185000000     279.0361    608.90184    238.59139   -34699.249    34704.913    370.31045    38.860531 
185004000    308.46306    437.15024    424.76228    -34710.91    34700.642    12.387957    38.848748 
185008000    272.71257    514.47015    207.59671    -34701.54    34728.507    306.87344    38.853184 
185012000    264.59327    310.92424    331.90709    -34711.11    34731.671    -20.98285    38.855937 
185016000    275.11969    702.66859    353.94462   -34734.649    34736.404    348.72397    38.846504 
185020000    271.84092    515.68918    235.76741    -34719.96    34739.851    279.92177    38.844157 
185024000    260.65574    286.91358    176.25222   -34725.732    34744.525    110.66136    38.842689 
185028000    292.48563    540.10593    297.63962    -34732.69    34737.857    242.46631    38.835511 
185032000    287.67785     701.6489    136.05247   -34732.306    34738.997    565.59643    38.836941 
185036000    257.92697    241.30797    370.75146   -34721.338    34737.312   -129.44349    38.833404 
185040000    275.38868    342.01346    256.27016   -34732.041    34745.462    85.743291     38.82811 
185044000    286.50272    425.83351    255.86513   -34746.825     34740.91    169.96838     38.82286 
185048000    275.57798    311.52609    225.38311   -34775.262    34777.802    86.142979    38.824443 
185052000     282.5675    330.36644    223.77674   -34773.038    34771.331    106.58969     38.82452 
185056000    275.88558    267.36682    379.71584   -34773.114    34776.547   -112.34901    38.823199 
185060000    270.24393    522.36522    181.26462    -34795.76    34796.738     341.1006    38.819621 
185064000    290.23322    500.07081    362.80872   -34810.685    34800.073    137.26209    38.830578 
185068000    314.07496    593.32507    497.12263   -34810.918    34806.525     96.20244    38.830395 
185072000    290.77434     319.2836     351.2124   -34803.019    34798.294   -31.928792    38.830354 
185076000    281.53509    596.32093    465.19301   -34822.764    34810.101    131.12792    38.823518 
185080000      281.917    293.03611    202.84757   -34817.384    34816.244    90.188537    38.837068 
185084000    313.70018    567.91663    253.17854   -34840.089    34817.743    314.73809    38.839327 
185088000    283.36881    339.67209    278.25296     -34836.2    34839.409    61.419125    38.838452 
185092000    268.51371    495.69524    297.52696   -34832.629    34846.627    198.16828    38.828835 
185096000    276.27112    258.81981    350.60026   -34835.481    34846.693   -91.780458    38.826049 
185100000    290.56217    496.34685    299.86629   -34848.512    34861.152    196.48056    38.835705 
185104000    282.28582    547.79833    201.71764   -34861.065     34862.98    346.08069     38.84096 
185108000    275.87947    512.08111    213.92418   -34863.362    34866.008    298.15693     38.83763 
185112000    251.33409    138.19386    329.08375   -34869.647    34891.272   -190.88989     38.84247 
185116000    310.62774    521.29262    415.28813   -34903.086    34885.309    106.00449    38.849967 
185120000    273.83402     354.8663    148.26632   -34900.815     34911.39    206.59998    38.853304 
185124000    277.89793    388.15815    431.89358   -34916.766     34922.89   -43.735434    38.857459 
185128000    270.19898    379.64699    309.30465   -34926.786    34929.637    70.342337    38.857855 
185132000      264.937    387.01127    319.52337   -34943.916    34949.294    67.487898    38.865456 
185136000     287.9621    317.36634    296.99768    -34954.04    34938.181    20.368661    38.860674 
185140000    292.55969    416.29292    533.99064   -34959.556    34941.896   -117.69772    38.861134 
185144000    269.04229    266.72494    315.16789   -34959.498    34964.967   -48.442952    38.855349 
185148000    324.21327    666.60362    397.67619   -34979.765    34965.005    268.92743    38.863844 
185152000    296.76132    656.39753    321.83514   -34990.262    34978.111    334.56239    38.862089 
185156000    323.05126    605.67873    321.67622     -35018.8    34995.471    284.00251    38.858173 
185160000    291.33731    215.57255    403.96198   -35015.707    35007.354   -188.38943     38.85451 
185164000    293.11444    377.25355    269.37628   -35016.985    35005.215    107.87727    38.854381 
185168000    276.71469    286.54235    214.73042   -35033.011    35027.393     71.81193    38.856407 
185172000    277.19836    402.01441    189.96993   -35048.832    35034.758    212.04448    38.861973 
185176000    279.20848    271.47146    166.26459   -35047.444    35061.364    105.20687    38.855596 
185180000    271.83557    527.33769    411.30328   -35063.915    35078.695    116.03441    38.856522 
185184000    256.89034    385.63961    382.23025   -35061.989    35084.063    3.4093591    38.860665 
185188000    316.99163    695.50237     506.6103   -35082.503    35068.329    188.89207    38.855092 
185192000      279.094    538.02161    387.99959   -35079.837    35094.396    150.02203    38.852892 
185196000    270.87884    220.73044    711.95483   -35083.009    35095.932   -491.22439    38.855437 
185200000    306.76316    242.52149    214.18367   -35091.525    35085.861    28.337825    38.858691 
185204000     266.6803    351.46557    370.47944   -35091.769     35104.83    -19.01387    38.853799 
185208000    259.34838    362.72896    322.11279   -35096.178    35111.101    40.616166    38.849521 
185212000    242.10882    332.63724    286.22401   -35079.521     35118.07    46.413231    38.851715 
185216000    236.89421    536.84818    266.94921   -35084.314    35122.555    269.89897    38.852841 
185220000    264.31263    597.18122    377.92896   -35086.216    35113.714    219.25226    38.852564 
185224000     305.3988    317.55866    459.30797   -35109.124     35091.22   -141.74931    38.851535 
185228000    300.90915    391.23489    410.27212   -35113.248    35108.429   -19.037222    38.843171 
185232000    290.06992    221.05092    304.67031   -35124.983     35114.36   -83.619395    38.844498 
185236000    249.55402    335.02953    201.69041   -35103.704    35142.805    133.33911    38.843697 
185240000    275.29557    514.82016    231.68355   -35112.513    35139.136    283.13662    38.847226 
185244000    271.73706    352.02814    441.28201   -35126.246    35138.166    -89.25387    38.846196 
185248000    261.52835    338.20889     294.3917   -35130.446    35153.324    43.817188    38.838744 
185252000    289.06928    525.93062    445.05207   -35148.665    35156.129    80.878557    38.834483 
185256000    271.87265    333.29557    406.23271   -35149.682    35165.904   -72.937142    38.833308 
185260000    287.54262    341.37762    154.07542   -35162.482    35172.935    187.30219    38.828127 
185264000    264.88675     385.0036    213.41842   -35152.349     35163.38    171.58519    38.833089 
185268000    281.56487    278.87173    418.10283   -35165.755    35177.473    -139.2311    38.836274 
185272000    268.62579    303.42952    394.33402   -35185.477    35194.226   -90.904497     38.83592 
185276000    290.85023    202.81973    239.27125   -35199.906     35197.99   -36.451524    38.838908 
185280000    302.99733    282.66692    617.35381   -35201.553     35201.28   -334.68689     38.84512 
185284000    242.83741    256.37992    250.62035   -35195.784    35219.901    5.7595666    38.837299 
185288000    261.69131    191.29072    571.31953    -35209.01    35224.011   -380.02881    38.832456 
185292000    284.37952    260.09974     479.2235   -35213.819    35221.018   -219.12376    38.825976 
185296000    281.17256    326.05711    373.86646   -35202.216    35227.875    -47.80935    38.831536 
185300000    260.11282     305.8527    376.08787   -35216.501    35230.104   -70.235165    38.843331 
185304000    312.62648    243.51855    235.79505   -35236.723    35234.882    7.7235066    38.836092 
185308000    272.44014    206.18397    330.29876   -35231.424    35238.467    -124.1148    38.842056 
185312000    253.45653    258.35848    309.62824   -35224.737    35243.792   -51.269762    38.839805 
185316000    262.72901    372.09243    355.22158   -35230.903    35256.137     16.87085    38.841639 
185320000    316.82063    460.77476    374.96713   -35273.199    35254.651    85.807634    38.842888 
185324000    293.31403    235.65228    273.48722   -35256.993    35252.968   -37.834933    38.844531 
185328000    294.93712     206.2222    205.66093   -35260.142    35252.959   0.56127002    38.847057 
185332000    307.73851     404.8754    572.80488   -35257.831    35242.309   -167.92948    38.847649 
185336000    303.17228    577.53406    490.92342   -35275.443    35256.952    86.610638    38.839968 
185340000    280.94345    453.42139    457.76805   -35261.901     35276.17   -4.3466631    38.839868 
185344000    273.90771    442.44514    399.85684   -35256.764    35272.609    42.588299     38.83975 
185348000    249.20567    182.35091    256.03505   -35249.855    35273.422   -73.684135    38.836409 
185352000    273.53398    421.29834    499.74826   -35257.891    35265.438   -78.449917    38.838445 
185356000    278.62596    255.12035    197.73476   -35258.206    35263.624    57.385593    38.841771 
185360000    293.74881    533.31685    283.76199   -35265.057    35263.358    249.55486     38.83665 
185364000    302.75663    495.32699    475.08995   -35283.777    35273.663    20.237044    38.836682 
185368000    301.98477     453.2467    252.53945   -35301.292    35301.459    200.70725    38.833744 
185372000    287.82738     427.9138    440.79135    -35310.95    35302.717   -12.877549    38.826231 
185376000    309.82234    623.16154    337.31467   -35318.185    35301.029    285.84686    38.830759 
185380000    311.04251    342.18848    333.60179   -35319.289    35303.884    8.5866879    38.841055 
185384000    259.49031    351.77946    427.65495   -35309.799     35319.61   -75.875489    38.847386 
185388000    273.13312    175.21532    208.78861   -35303.344    35317.171   -33.573288    38.850357 
185392000    249.57031    335.84806    101.40362    -35293.04    35313.597    234.44444    38.847265 
185396000    293.37031    371.69418    259.50917   -35310.087    35308.971    112.18501    38.854882 
185400000    287.45533    478.19635    379.32724   -35300.896    35310.876    98.869114     38.85278 
185404000    275.86996    362.09904    300.68163   -35324.251    35326.398    61.417408    38.858723 
185408000    312.48586    435.50669    446.96798   -35345.566    35332.318   -11.461282    38.859437 
185412000    296.35008    387.47788    157.78489   -35366.236    35355.426      229.693    38.869045 
185416000    294.53747    557.48365    387.17086   -35373.548    35351.041    170.31279     38.85988 
185420000    301.00836    397.68705    303.56055    -35377.81    35365.819    94.126499    38.865528 
185424000    297.83488    405.07299    369.87672   -35370.679    35371.671    35.196269    38.864615 
185428000    288.57364    424.48663     525.3251   -35366.471    35371.879   -100.83847    38.855159 
185432000     278.1981    269.27933    288.63793   -35375.273    35387.787   -19.358598    38.849937 
185436000    324.09271    332.49505    405.43855   -35387.121      35373.4   -72.943496    38.847536 
185440000    285.04213    356.59456    273.54357   -35380.157     35378.86    83.050983    38.843685 
185444000     273.2178    303.57112    414.49619   -35394.954    35402.742   -110.92506    38.841348 
185448000    309.38081    439.67606    442.27131   -35426.695    35405.661   -2.5952487    38.837312 
185452000    288.62824    212.10303    339.14266   -35430.745    35421.309   -127.03964    38.838807 
185456000    286.94078    430.79785    389.81251   -35424.316    35428.601    40.985336    38.842851 
185460000    298.89154    312.09009    375.83602   -35424.573    35397.473   -63.745936    38.841361 
185464000    302.73342    225.14285    247.23961   -35435.084    35408.896   -22.096768    38.839667 
185468000    285.13463    400.54017    457.67276   -35435.345    35430.134   -57.132592     38.84038 
185472000    296.65434    517.71985    303.00414   -35441.889    35439.878    214.71571    38.846146 
185476000    268.19002    353.63862    194.63531   -35444.813    35457.553    159.00331    38.842342 
185480000    314.05882    300.58266     371.5233   -35472.158     35461.69   -70.940638      38.8526 
185484000    304.11275    648.97967    405.62313   -35482.954    35466.321    243.35655    38.850376 
185488000     299.9792    468.09442    465.17065   -35481.226    35473.642      2.92377    38.853157 
185492000    287.43711    261.46535    236.57422   -35488.276    35473.404    24.891133     38.85351 
185496000    262.95357    209.53489    262.85185   -35461.679    35497.598    -53.31696    38.845349 
185500000    274.93329    284.90958     289.4497   -35483.841    35504.819   -4.5401147    38.837157 
185504000    299.56539    303.57031    317.33286   -35503.096    35505.134   -13.762543     38.83863 
185508000    294.59487    440.23112    379.40279   -35513.928    35499.981    60.828329    38.839254 
185512000    300.48663    448.99008    415.69298   -35529.326    35513.975      33.2971    38.836371 
185516000    268.15853    345.94734     328.6619   -35526.341    35521.401     17.28544    38.820311 
185520000    272.11171    410.43934    238.37215   -35539.233    35538.161    172.06719    38.814623 
185524000    284.20117    447.46718    308.57551   -35539.615    35548.519    138.89167    38.814336 
185528000    296.60596    271.74122    507.05961   -35567.035    35556.137   -235.31839    38.817451 
185532000    273.31084    468.95295    227.51886   -35568.728    35576.367    241.43409    38.814594 
185536000    272.09801    287.95391    303.47323   -35572.613    35585.332   -15.519325    38.813974 
185540000    335.29729    544.49829    522.11627   -35596.191    35566.387    22.382017    38.812712 
185544000    308.78145     408.6901    522.02687   -35590.427    35573.808   -113.33677    38.814824 
185548000    300.94965    545.47853    279.98849   -35607.403    35570.995    265.49005    38.810115 
185552000    350.96251    488.42492    277.08053    -35611.71     35564.54    211.34439    38.808506 
185556000     317.7393    348.92705     464.8295    -35604.18    35573.075   -115.90245    38.803976 
185560000     260.1406    259.94856    290.98831   -35602.519     35607.08    -31.03975    38.801234 
185564000     285.8958    436.18511    384.56003    -35623.09    35620.981    51.625074    38.800327 
185568000    268.61511    318.50276     600.7144   -35610.749    35624.275   -282.21164    38.799404 
185572000    285.45935    338.51887    168.67112   -35606.204    35623.452    169.84775    38.801278 
185576000    289.11351     403.9154    474.75278   -35621.803     35612.53   -70.837384    38.805405 
185580000    298.09363    240.47062    327.28361   -35613.291    35609.174   -86.812997    38.810915 
185584000    313.70852    416.18519    335.90464   -35623.404    35619.099    80.280551    38.812951 
185588000    303.15048    224.48921    412.09278    -35629.26    35622.456   -187.60357    38.799756 
185592000    318.02411    466.49525    422.66055   -35647.676    35608.297    43.834703    38.806349 
185596000    298.50252    334.46537    345.08516    -35634.28    35613.285   -10.619794    38.815431 
185600000    319.04288    351.60513    488.01953    -35633.18     35609.51   -136.41441    38.808675 
185604000     325.5602    252.91732    253.89022   -35636.298    35606.468  -0.97290733    38.801489 
185608000    300.59018     358.0814    237.53143   -35652.414    35629.225    120.54997    38.802938 
185612000    272.70489    213.32414    410.90103   -35657.391    35644.835   -197.57689    38.794269 
185616000    278.29575     245.3506    225.33471   -35670.754    35664.436    20.015889    38.792224 
185620000    297.76539    574.36013    519.57489   -35685.675    35663.697    54.785246     38.79533 
185624000    267.96257     456.8434    378.96283   -35708.528    35697.883    77.880565    38.793416 
185628000    276.42251    239.64458     311.2601   -35710.531    35723.579   -71.615518     38.80128 
185632000    296.60692    498.84954    522.82766   -35721.418     35723.22   -23.978118    38.807123 
185636000    276.58478    532.01723    263.13342   -35720.779    35738.341    268.88381    38.815262 
185640000    292.83855    400.66158    231.42038   -35737.287    35729.473    169.24121    38.812465 
185644000    264.78973    251.02484    312.66475   -35723.944    35738.057   -61.639917    38.818509 
185648000    265.07844    222.78356    264.75078   -35746.225    35752.717   -41.967219    38.821215 
185652000    268.17018    107.39518    337.74807   -35748.391    35756.972    -230.3529    38.815229 
185656000    273.76922    626.02441    260.66468   -35776.518    35778.726    365.35973    38.821417 
185660000    284.26839    330.88064    553.25801   -35768.156    35776.486   -222.37737    38.816879 
185664000    299.34501    459.26679    615.36047   -35786.501    35784.554   -156.09368    38.813455 
185668000    249.60606    416.94782    458.33431   -35789.128     35804.08   -41.386493    38.816328 
185672000    264.96319    369.58609     381.7312   -35786.178    35806.528   -12.145112    38.812602 
185676000    261.66423    259.18065    430.99181   -35792.337    35811.846   -171.81116    38.809847 
185680000    292.90116    409.21161    476.09536   -35816.351    35817.859   -66.883754    38.810053 
185684000     263.7517    666.83973    602.27915   -35806.966    35828.383    64.560573    38.821869 
185688000    274.07391    310.72324    222.85064   -35823.789    35827.856    87.872602    38.820821 
185692000    291.20485    303.06687    446.51126   -35831.441    35828.304   -143.44438    38.822885 
185696000    262.97584     195.1436     313.2866   -35837.678    35859.431     -118.143    38.823332 
185700000    284.02028    441.84082    380.19988   -35877.737     35878.93    61.640941    38.817635 
185704000    285.44368    232.81612    166.54851   -35892.907    35892.419    66.267608       38.823 
185708000    305.27165    338.90333    192.88364     -35907.1    35899.051    146.01968    38.825539 
185712000    318.08982     500.2682    294.95536   -35921.377    35901.469    205.31284    38.826817 
185716000    292.88962    410.28694    290.79276   -35934.454    35923.968    119.49418    38.824073 
185720000    266.53264    644.43986    390.28685   -35941.756    35924.392    254.15301    38.831717 
185724000     264.2082     314.2216    259.90497   -35935.887    35931.952    54.316625    38.835219 
185728000    262.62662    356.57868    185.84249   -35957.568    35958.256    170.73619    38.842208 
185732000    293.99767     386.5358     397.6404   -35967.313    35969.078   -11.104598    38.833234 
185736000    306.48439    390.98688    332.96654   -35984.343    35977.762    58.020343    38.832788 
185740000     273.2886    362.06189    118.84913   -35991.784     35991.14    243.21275    38.833387 
185744000     288.0768    242.04145    437.36171   -35994.076     35994.94   -195.32026    38.831036 
185748000    286.85463    255.33868    311.90675   -36016.069    36004.436   -56.568072    38.832564 
185752000    300.23994    315.32755    243.29696    -36014.93    35995.725    72.030582    38.826849 
185756000    278.90796    438.22641    362.16066   -36023.235    36018.549    76.065744    38.830515 
185760000    299.02535    381.78105    385.55515   -36047.549     36034.31   -3.7741005    38.815784 
185764000    315.08438    317.75802    443.64093   -36061.407    36042.737   -125.88291    38.815282 
185768000    319.48523    628.67194    629.96232   -36073.838    36054.679   -1.2903773    38.822115 
185772000    287.01262     260.8326    302.48516    -36093.72    36081.174   -41.652561    38.830538 
185776000    278.14257    565.76428    255.26521   -36095.877    36092.504    310.49907    38.833694 
185780000      305.836    395.03885    177.56261   -36096.478    36082.385    217.47623    38.838456 
185784000    292.17927    536.93342    465.60892   -36109.293    36094.651    71.324494    38.846603 
185788000    321.59312    274.20992    545.33409   -36119.125    36097.918   -271.12417    38.843591 
185792000     286.1487    339.13723    300.17176   -36119.884     36135.58    38.965472    38.848098 
185796000     291.2131    446.75222    412.98082   -36117.602     36127.93    33.771397    38.848319 
185800000    284.24222    288.86789    327.58179   -36122.794    36130.883   -38.713897    38.844003 
185804000    269.37247    261.31238    271.74642   -36110.132    36128.841   -10.434039    38.838287 
185808000    255.99607    337.55257     248.2259   -36100.099    36126.747    89.326672    38.828026 
185812000    248.09352    406.83376    358.45247   -36105.131     36136.03    48.381289    38.836189 
185816000    261.44198    455.86732    535.76076   -36127.509    36140.842   -79.893433    38.833674 
185820000    295.64573    406.71828    243.60701   -36130.518    36121.138    163.11126    38.835684 
185824000    302.40171    429.82796    375.01263   -36135.034    36112.678    54.815331    38.841155 
185828000    290.47404    305.70088    260.93072    -36129.14    36131.675    44.770167     38.84093 
185832000    265.57563    380.19382    255.27512   -36147.724    36148.939    124.91869     38.84027 
185836000     242.2145    318.49488    549.69428   -36129.991    36160.362    -231.1994    38.833929 
185840000    282.29817    307.39572    202.60889   -36164.702    36164.767    104.78683    38.839299 
185844000    273.16849    434.73457    306.12011   -36183.176    36192.027    128.61446    38.846677 
185848000    297.93313    473.23124    427.90578   -36187.672    36196.015    45.325467    38.847429 
185852000    271.61209    320.75139    366.33302   -36216.308    36218.624   -45.581633     38.84619 
185856000    285.65504    358.26559     285.5509   -36205.749    36226.884    72.714695    38.849676 
185860000    317.44796    293.44772    315.43018   -36216.714    36203.497   -21.982464    38.847465 
185864000    281.95554     233.5682    250.92669    -36210.61    36219.646   -17.358489    38.836468 
185868000    308.14503    513.50436    303.94697   -36217.661    36214.643     209.5574    38.837606 
185872000    292.60064    505.41133    264.47753   -36242.277    36234.258     240.9338    38.834006 
185876000    256.28122    172.44428    353.39761   -36231.227    36246.958   -180.95333    38.837706 
185880000    296.01804    457.39473    144.40853   -36250.293    36249.901     312.9862    38.849805 
185884000    295.80361    306.10077    348.48337   -36261.869    36264.752   -42.382604    38.851977 
185888000    293.32857    440.29216    268.86992    -36285.62    36261.366    171.42224    38.860305 
185892000    314.59645    333.19308    521.79986    -36291.35    36263.726   -188.60678    38.849848 
185896000     308.5435    333.81741    407.29529   -36286.921     36277.22   -73.477885    38.850533 
185900000     275.7303    225.53567    279.57625   -36284.842    36293.072   -54.040578    38.843902 
185904000     291.0715    310.03547    266.47943   -36310.051    36295.862    43.556039    38.841148 
185908000    289.73156    374.29546    433.52771   -36306.057    36305.866   -59.232255    38.839644 
185912000    266.29351    530.29198    364.89996   -36308.306    36318.768    165.39202    38.839034 
185916000     277.9399    180.08162    417.63656   -36313.894    36326.692   -237.55494    38.835097 
185920000    270.78576    378.35026    219.72186   -36337.286    36337.931    158.62839    38.835164 
185924000    271.62658    320.87611    467.99502   -36347.084    36359.187   -147.11892    38.835792 
185928000    263.18452    467.68501    300.03964   -36358.351     36380.35    167.64537    38.836204 
185932000    268.26251     449.5692    237.64733   -36357.377    36376.961    211.92187    38.837974 
185936000    263.07847    482.47394    258.15656   -36374.643    36387.454    224.31738    38.835602 
185940000    276.16499    448.68936    254.11862   -36391.559    36417.176    194.57074    38.837797 
185944000    260.15156    390.97423    381.32986   -36384.519    36405.638    9.6443608    38.837661 
185948000    264.72677    465.67671    234.95662    -36404.13    36414.925    230.72009    38.843116 
185952000    278.21884    302.17969    385.55982   -36410.798    36410.515   -83.380132    38.846475 
185956000    265.70503    167.74208    330.41711    -36410.76    36410.084   -162.67503    38.849731 
185960000    267.64811    253.48333    400.29085    -36411.77    36420.533   -146.80752    38.850473 
185964000    280.48059     628.8202    390.49509   -36426.862    36420.027     238.3251    38.859024 
185968000    297.65977    595.56087    121.05235   -36428.515     36441.79    474.50852    38.860025 
185972000    285.86179     254.7046    258.19248   -36414.309     36412.79   -3.4878729      38.8579 
185976000    311.02843    352.44858    338.57816   -36426.537    36414.156    13.870414    38.858485 
185980000    302.25847    470.23521    563.12789   -36422.644    36410.811   -92.892682    38.854962 
185984000    311.71107     478.4844    267.32365   -36440.659     36413.01    211.16075    38.859595 
185988000      297.423    497.99693    139.79905   -36442.886    36437.928    358.19788    38.864938 
185992000    290.84749    441.38246    473.22964   -36450.726    36436.269   -31.847177    38.861009 
185996000    303.79319    288.16614    217.02925   -36442.058    36442.296     71.13689    38.865765 
186000000    291.00071     611.6647    647.06152   -36439.705    36448.962   -35.396817    38.861585 
186004000    278.82325     413.0867    248.71003   -36451.422     36446.27    164.37668    38.859694 
186008000     291.2985    291.56587      318.158   -36442.763    36450.192   -26.592133    38.850248 
186012000    283.92688    369.08645     221.6158   -36454.019    36464.046    147.47066    38.855065 
186016000    270.60561     353.5308    438.58806   -36460.626    36464.191   -85.057263    38.838156 
186020000    308.85042    627.33162    368.67844   -36489.062    36463.586    258.65318    38.834137 
186024000    312.45693    428.77983    339.20656   -36496.516    36474.073     89.57327     38.82725 
186028000    303.51106    332.00885    580.68585   -36489.308    36486.163     -248.677     38.83369 
186032000    279.07027    378.42772    311.81025   -36503.362    36502.081    66.617465    38.838126 
186036000    243.87106     313.1464    72.995151   -36485.077    36507.511    240.15125    38.833354 
186040000    269.74545    299.64106    333.05073   -36500.695    36503.857   -33.409668    38.832059 
186044000    302.75753    240.70221    372.25573   -36507.882    36503.162   -131.55352    38.834444 
186048000     278.0288    219.24286    163.33634   -36511.742    36505.631    55.906526    38.834171 
186052000    283.64711    295.23739    131.50861    -36504.94    36521.539    163.72877    38.846028 
186056000    286.30853    274.25033    123.08943   -36523.811    36515.778     151.1609    38.851864 
186060000    286.91483    263.14821     471.9808   -36522.676    36530.697   -208.83259    38.849006 
186064000    309.61491    633.82488    337.49015   -36539.105    36525.836    296.33473     38.84774 
186068000    256.13583    540.03382    266.94571     -36522.8    36536.208    273.08811    38.851124 
186072000    293.76759    354.29777    487.51022   -36544.083     36539.89   -133.21245    38.842196 
186076000    278.53824    394.74931    424.38115   -36548.572    36563.332   -29.631845    38.845838 
186080000    285.40209    537.64627    186.12517   -36574.264     36570.73    351.52111    38.852293 
186084000    286.99912    268.34198    359.00604   -36587.443    36586.561   -90.664068    38.854207 
186088000    270.38098    278.50368    336.43176   -36598.196    36594.911   -57.928087    38.848768 
186092000     270.1845    264.37733    261.80882    -36607.71    36604.808    2.5685083    38.845656 
186096000    304.16938     318.7895    465.17418   -36616.913    36606.539   -146.38468    38.839957 
186100000     321.8276    422.57774    417.09042   -36625.153    36601.724    5.4873186     38.83425 
186104000     255.2624    468.57131    201.57886   -36640.614    36634.712    266.99245    38.831036 
186108000    317.59441     356.2695    268.92339   -36644.537    36633.553    87.346112    38.835695 
186112000    266.81119    431.10465    171.14822   -36632.989    36639.159    259.95643    38.840817 
186116000    288.86396    449.30793    415.38543   -36653.379    36651.686    33.922494    38.839975 
186120000    312.44586     455.6543    133.18907   -36658.392    36642.518    322.46523    38.845365 
186124000    267.02371    450.20065    344.08577   -36636.282    36633.357    106.11488      38.8378 
186128000    289.67496    591.81177    236.31684   -36645.128    36650.895    355.49494    38.842958 
186132000    272.64597    355.10175    294.28322   -36645.393    36645.616    60.818528    38.839695 
186136000    275.46079    411.10647    166.61989   -36653.842    36656.761    244.48658    38.841233 
186140000    273.89177    408.26932    288.14663   -36653.989    36671.639    120.12269     38.84657 
186144000    286.67827    560.09557    418.01578    -36672.53    36673.644     142.0798     38.84735 
186148000    284.40836     356.7322    293.61458   -36694.558    36674.019    63.117624    38.846672 
186152000    322.40677    458.27348    296.54813   -36704.591    36679.298    161.72535    38.838166 
186156000    270.31708    204.51601    348.67999   -36704.994    36694.591   -144.16399    38.844448 
186160000    282.87108    395.77866     258.2433   -36704.719    36717.435    137.53536    38.845243 
186164000    278.61737    496.54313    200.79564   -36717.978     36725.52    295.74749    38.841786 
186168000    282.15986    336.86993    475.32712   -36743.291    36736.074   -138.45719    38.841401 
186172000    293.63526     478.4811    314.18935   -36749.234     36735.98    164.29176    38.838578 
186176000    282.48352    367.04322    278.16263   -36759.456    36764.399    88.880587    38.838224 
186180000    243.25006    167.18356    230.64803   -36752.667    36779.527   -63.464465    38.837953 
186184000    276.31785    268.22865    522.44412   -36743.839    36770.156   -254.21547    38.838977 
186188000    245.60068    148.13945    140.68798     -36742.8    36771.906    7.4514693    38.840644 
186192000    289.35741    124.41245    277.16353   -36757.322    36756.655   -152.75108    38.842159 
186196000    293.61474    273.19485    454.84195   -36770.088    36784.463    -181.6471    38.846492 
186200000    259.94878    218.84945    207.32403   -36775.073     36793.63    11.525416    38.850763 
186204000    267.19766    162.98313    222.46352    -36792.43    36796.794   -59.480385    38.850238 
186208000    267.47945    344.12491    300.54985   -36794.405     36793.74    43.575067    38.841303 
186212000     281.6686    306.15566    362.15623   -36807.725    36794.352   -56.000571    38.842791 
186216000    298.82296    293.88532     479.2799   -36803.926    36800.691   -185.39457    38.845825 
186220000    242.60324    187.56293    229.13309   -36794.408     36818.25   -41.570155    38.846037 
186224000    279.60552    295.23535    329.91854   -36798.825    36803.325   -34.683189    38.836535 
186228000    278.11548    426.78786    263.21534   -36805.228    36799.396    163.57252    38.842816 
186232000     292.7998    236.92324    296.99376   -36801.239    36801.042   -60.070518    38.851184 
186236000    284.39856    445.02629    423.77264   -36799.808    36800.665    21.253655    38.849768 
186240000    295.81251    204.03954    530.05729   -36832.436    36813.521   -326.01775    38.843658 
186244000    304.30402    403.41023    405.69114   -36834.733    36818.039   -2.2809141    38.849426 
186248000    311.27605     301.0489    456.44362   -36855.715    36837.467   -155.39472    38.846549 
186252000    269.87666    475.80294    300.97874   -36838.802    36819.391     174.8242    38.853767 
186256000    287.58212    424.47307    224.55941     -36845.4    36817.851    199.91366    38.853988 
186260000    293.94963    288.16406    291.12111   -36837.609    36833.212   -2.9570503    38.859245 
186264000    313.64288    520.23399    285.27211   -36853.569    36850.681    234.96188    38.866122 
186268000    263.21438    262.15696    226.07082   -36846.129    36869.004    36.086134    38.867079 
186272000    273.17594    336.89979    559.42889   -36850.778      36854.9   -222.52909    38.866804 
186276000    265.92289    479.84733    165.38928   -36844.538    36871.039    314.45805    38.874803 
186280000    285.84093    346.64243     219.9151   -36861.018    36875.417    126.72733    38.877385 
186284000    270.98175     389.8489    315.14741   -36875.191    36882.162    74.701491    38.877441 
186288000    257.01557    314.52467    500.36261   -36876.919    36892.887   -185.83793    38.881252 
186292000    296.74596    446.99345    301.17419   -36881.435    36889.783    145.81926    38.875984 
186296000    245.96021    253.55612    192.95833    -36872.52    36902.801    60.597789    38.879349 
186300000    265.41579    286.17367    167.26678   -36887.369    36916.332    118.90688    38.884616 
186304000     268.9327    774.72601    344.60785   -36893.893    36906.997    430.11816    38.883117 
186308000    258.59504    394.51897    231.21459   -36910.757    36924.309    163.30438    38.875831 
186312000     277.9219    235.21537    156.81274   -36881.676    36904.627     78.40263    38.874199 
186316000    248.09602      412.953    348.35465   -36894.413    36907.849    64.598352    38.873305 
186320000    285.49494    486.69678    362.86451   -36907.897    36912.548    123.83227    38.876727 
186324000    279.76851    395.27521    273.39012   -36906.199    36918.645    121.88509    38.877087 
186328000    288.17632    420.86145    345.22667   -36923.429    36936.672    75.634774    38.878247 
186332000    295.30987    396.50874    553.52936   -36937.953    36936.373   -157.02063    38.875439 
186336000    282.59889    412.05352    428.00125   -36932.228    36946.654   -15.947728    38.876455 
186340000    294.08634    301.52155    442.08554   -36956.481    36960.362   -140.56399    38.876053 
186344000    289.78519    487.22412    417.10955   -36983.393    36969.546    70.114569     38.86846 
186348000    287.88533    551.53295    412.80139   -36982.284    36979.456    138.73155    38.866687 
186352000    270.44912    308.08133    259.79577   -37000.091    36994.989     48.28556    38.867553 
186356000    294.64982     266.7982    381.69231     -37003.3    37001.281   -114.89412    38.864934 
186360000    256.05528    439.82885    156.22212   -36994.833    37031.458    283.60673     38.86122 
186364000    262.07731    390.83253    150.44973   -37006.349    37033.422     240.3828    38.861293 
186368000     257.6228    184.74942    259.45501   -37007.079    37018.553   -74.705586    38.863798 
186372000    305.16224    269.81164    267.28808    -37018.56    37016.955    2.5235592    38.862604 
186376000    281.59839    474.10978    281.82299   -37024.822    37018.362    192.28678    38.868276 
186380000    278.69682    436.21824    351.69641   -37035.622    37039.955    84.521831    38.870164 
186384000    260.10835    428.41473    443.77323   -37024.762    37044.034   -15.358503    38.870666 
186388000    270.63474     237.7489    239.30493   -37023.437    37046.068   -1.5560246    38.870771 
186392000    279.48661    233.69877     455.0341   -37036.291    37041.944   -221.33533    38.870688 
186396000    261.21322     281.7369    382.61491     -37034.5    37051.019   -100.87801    38.865722 
186400000    272.76353    172.43281    389.91021   -37041.617    37050.471    -217.4774    38.862108 
186404000    260.74396    240.41397    345.43096   -37023.129    37057.023   -105.01699    38.860616 
186408000    284.99467    166.58616    222.25918    -37035.54    37055.563   -55.673026     38.85741 
186412000    271.40515     348.9746    223.89351   -37039.184    37047.951    125.08109    38.855798 
186416000    264.36253    289.40763    142.98768   -37041.541      37046.5    146.41995    38.864118 
186420000    242.22042    371.64204    175.25059   -37033.785    37067.048    196.39145    38.866441 
186424000    280.08563    401.01317    162.40165    -37043.53    37063.814    238.61151    38.873746 
186428000    250.34661    325.09518    200.03978   -37048.897    37065.793     125.0554    38.866384 
186432000    280.93275    251.44144    414.59327    -37072.72    37075.825   -163.15183    38.871853 
186436000    284.99704    314.82032    400.57318   -37071.086    37082.375   -85.752862    38.873167 
186440000    268.83869    431.81839    461.69084   -37076.735    37094.993    -29.87245    38.881877 
186444000    277.86193    398.27215    282.24773   -37083.751    37092.736    116.02443    38.880104 
186448000    282.82571    455.12513    352.32585   -37082.775    37077.793    102.79928    38.874114 
186452000    304.34448    572.80132    423.04044   -37084.031    37082.365    149.76087    38.878837 
186456000    307.93514    210.05697    447.36142   -37103.226    37085.566   -237.30444    38.870433 
186460000    277.49703    368.28383    328.20437   -37094.583    37099.443    40.079458    38.868725 
186464000    292.66614    385.52441    383.58752   -37096.392    37107.464    1.9368903     38.86689 
186468000    273.18569    430.37375    376.81678   -37106.908    37113.201    53.556964    38.869716 
186472000    293.30132    361.79232     500.1579   -37113.421     37111.94   -138.36558    38.870015 
186476000    271.37966    145.24794    249.33994   -37116.395    37138.048     -104.092    38.875918 
186480000     298.1694    418.75465     457.2732   -37140.126     37118.69   -38.518544    38.877791 
186484000    280.12833    337.11297    217.04755   -37145.197    37139.415    120.06542    38.872534 
186488000    270.40685    416.69496    331.96958    -37141.03    37159.298    84.725389    38.876148 
186492000    259.33778    261.47086    227.89254   -37160.577    37177.682    33.578319    38.872951 
186496000    278.38754    385.64548    348.32555   -37172.272    37184.363    37.319935    38.864409 
186500000    267.27596    402.17375    454.39906   -37167.057    37186.071   -52.225309    38.861581 
186504000    291.30279    410.91968    344.25004   -37185.268    37190.237    66.669639    38.854323 
186508000    333.06798    459.46326    303.67631    -37231.04    37188.661    155.78695    38.856571 
186512000    306.73879    784.27756     255.2412   -37229.816    37203.463    529.03636    38.860428 
186516000    269.13647    201.75185    284.30881   -37230.671    37241.631   -82.556963    38.868816 
186520000    314.97421    290.05054    296.98223   -37251.246    37250.228    -6.931687    38.863968 
186524000    296.73429    708.91565    447.72037    -37261.47    37255.639    261.19528    38.864951 
186528000    272.61823    428.33478    463.72969   -37264.252    37268.222   -35.394912     38.86564 
186532000    285.89446    323.07597    377.79421   -37275.832    37268.834   -54.718243    38.864922 
186536000     268.9877     498.3301    320.57473   -37269.575    37275.958    177.75537     38.86507 
186540000    261.29415     325.7996    230.55111   -37276.876    37294.597    95.248493    38.868306 
186544000     282.6543    391.86962    406.45197   -37286.006    37286.055   -14.582353    38.859979 
186548000    288.89343     438.9098    416.48918    -37280.76    37283.373    22.420622     38.86538 
186552000    301.64758    516.63666      625.142   -37302.274    37302.608   -108.50534    38.867865 
186556000    260.82635    445.52272    382.28031    -37290.21    37317.302    63.242412    38.876021 
186560000    263.27464    254.71176    360.54816   -37299.896    37318.564    -105.8364    38.879405 
186564000    294.51103    246.03366    555.63839    -37299.77    37301.512   -309.60474    38.876673 
186568000    293.23628     639.1795    460.50894   -37309.766    37311.854    178.67056    38.873786 
186572000    298.88005    376.94524    236.56328   -37314.202    37297.746    140.38197    38.879261 
186576000    289.89494     157.7395    510.67837   -37322.808    37306.551   -352.93887    38.868973 
186580000    287.19974    162.88752     416.4884   -37338.677    37324.817   -253.60088    38.861893 
186584000    295.84219    355.64077    479.22747   -37347.382    37348.184    -123.5867    38.855911 
186588000    307.18553    450.38495    278.36449   -37377.593    37363.374    172.02045    38.862102 
186592000    308.65287    511.39606    309.23513    -37398.33    37383.312    202.16094    38.861152 
186596000    323.86006    296.27818    447.64035   -37410.843    37393.761   -151.36217    38.861752 
186600000     272.0414    229.16397    338.03721   -37410.442    37414.559   -108.87324    38.855906 
186604000    305.08608    327.55706    537.88898    -37414.56    37415.997   -210.33191     38.85507 
186608000    275.51462    385.85425    306.26708   -37422.903    37430.415    79.587167    38.854019 
186612000    289.58365    359.93537    303.80333   -37426.857    37431.563    56.132039    38.857721 
186616000    281.28071      369.154    368.45314   -37434.697    37432.981   0.70085368    38.855391 
186620000    291.48653    403.08442    72.186038   -37435.423    37435.904    330.89839    38.857159 
186624000    262.23366    370.93831    384.20415   -37418.672    37438.877   -13.265834    38.861708 
186628000    259.62438    329.31292    515.08891   -37431.622    37453.353   -185.77599    38.861169 
186632000    286.05957    344.44229    358.80948   -37456.782     37459.09   -14.367189    38.856029 
186636000    269.25078    369.54716     253.4279   -37446.479    37467.915    116.11926    38.862477 
186640000    288.87892    360.40071     596.4754   -37468.093    37463.442   -236.07468    38.863965 
186644000    274.44367    358.79571    229.33173   -37468.538    37463.487    129.46398    38.857123 
186648000    298.24583    251.50998    245.40452   -37462.897    37459.887    6.1054568    38.857746 
186652000    279.54767    295.22911     267.5946   -37467.459    37478.843    27.634512    38.854751 
186656000    278.60509    242.67271    444.47538   -37470.101    37465.298   -201.80267    38.843639 
186660000    268.33692    222.95514    313.21476   -37460.065    37465.828   -90.259624    38.843051 
186664000    255.36859    421.09718    166.21232    -37454.82    37484.679    254.88486    38.835614 
186668000    294.07184     270.3558     296.2344   -37481.657    37478.758     -25.8786    38.840995 
186672000    280.13065    285.66234     417.8524   -37480.252    37475.898   -132.19006    38.835372 
186676000    289.10634    361.63604    416.13019   -37486.474    37468.253   -54.494152    38.841045 
186680000    298.97822    305.33462    220.34028    -37469.66    37489.733    84.994338    38.842302 
186684000    307.01993    307.75475    375.89541   -37496.252    37496.036   -68.140659    38.835638 
186688000    280.36406    278.69341    287.52184   -37493.614    37491.884   -8.8284376    38.842248 
186692000    268.95625    194.63396    384.70078   -37513.547    37514.282   -190.06682    38.848697 
186696000    273.35356    184.13911     468.1324   -37533.654     37530.01   -283.99329    38.840589 
186700000    284.52173    250.10346    363.78583   -37542.423    37545.648   -113.68237    38.834257 
186704000    282.39352     665.5504     493.9582   -37543.609    37542.316     171.5922    38.838468 
186708000     303.0905    518.03707    245.31484   -37551.185    37551.526    272.72224    38.836646 
186712000    280.44274    457.25491    277.37722   -37556.666    37563.764    179.87769    38.828014 
186716000    261.55872    343.66068    279.20248    -37553.84    37578.677    64.458195    38.837123 
186720000    282.03201    365.29712    247.60142   -37555.741    37556.449     117.6957    38.840389 
186724000    296.94375    360.73646    281.33082   -37549.096    37565.589    79.405641    38.840243 
186728000    270.29027    407.47936    209.95981   -37554.884    37572.623    197.51956    38.839764 
186732000    279.92219    304.84041    241.83651   -37557.629    37566.651    63.003899      38.8439 
186736000    265.83887    453.74154    313.82727   -37558.643    37567.088    139.91427    38.841439 
186740000    284.88904    402.12755    659.09696   -37578.978    37584.907   -256.96941    38.851226 
186744000     285.0556    406.62452    277.34447   -37603.867    37600.471    129.28005     38.85328 
186748000    291.94322    247.95197    315.53998   -37623.689    37610.805   -67.588013    38.856927 
186752000    297.70031    244.04245    158.30224   -37627.737    37630.789     85.74021    38.857595 
186756000     283.2408    232.39808    291.56362   -37644.165     37634.84   -59.165541    38.851137 
186760000    302.48965    450.27239    524.07576   -37651.766    37644.672    -73.80337    38.847534 
186764000    293.56704    442.49409    155.33395   -37650.505    37657.959    287.16014    38.853636 
186768000    284.37987    574.34981     446.1703   -37654.062    37671.084    128.17952    38.853575 
186772000    266.11062    389.29857    203.78225   -37659.233    37691.949    185.51632    38.865344 
186776000      256.825    536.24663    167.82473   -37665.362    37691.354    368.42191    38.860164 
186780000    259.08135    331.00073    457.19694   -37675.279    37689.118   -126.19621    38.856473 
186784000    298.97574    857.47301    288.01874   -37683.443    37696.783    569.45427    38.861814 
186788000    314.61974    350.66535    392.33483    -37709.75     37697.54   -41.669477     38.85823 
186792000    277.22133    462.10272    215.40198   -37719.195    37720.787    246.70074     38.85007 
186796000    266.11957    479.27401    483.35967   -37732.924    37727.252   -4.0856593    38.845521 
186800000    291.98879    492.50287    312.99356   -37743.907    37735.111    179.50931    38.841408 
186804000    297.57042    433.68977    390.26349   -37752.737    37744.301    43.426276    38.847471 
186808000     286.0962    394.29951    268.11154   -37740.344    37755.411    126.18798    38.847643 
186812000    269.50393    349.22483    270.00337   -37753.848    37765.651    79.221455    38.854256 
186816000    280.84683    223.52418    267.27864   -37757.228    37748.682    -43.75445    38.858897 
186820000    272.22629    434.49539    125.29593   -37761.825      37753.6    309.19946    38.859158 
186824000    270.69099    367.40067    267.37904   -37753.796    37769.896    100.02163    38.861204 
186828000    262.78134    400.63544    467.74072   -37753.349     37767.99    -67.10528    38.863878 
186832000    253.58189    196.43386    494.70438   -37745.515    37773.319   -298.27052    38.860909 
186836000    254.88013    313.69273    598.83541   -37751.357    37771.341   -285.14267    38.865631 
186840000    265.45829     262.9203    696.57044   -37762.366     37784.42   -433.65015    38.861656 
186844000    265.62385    151.33088    244.98848   -37770.934    37791.889   -93.657598    38.861122 
186848000    279.46549    321.09792    263.44061   -37789.538    37793.549    57.657308    38.861143 
186852000    288.79654    316.92305    418.41805    -37812.26    37806.613     -101.495     38.85629 
186856000    313.79762     287.8794     507.9174   -37826.138    37815.091     -220.038    38.857245 
186860000    293.24415    440.57067    351.81882   -37825.156    37833.206    88.751856    38.861079 
186864000    288.77305    329.17317      472.292   -37829.264    37828.466   -143.11883     38.85898 
186868000    291.26173     394.9027    218.84484   -37851.184    37845.486    176.05785    38.856913 
186872000    299.77069    579.75696    335.43003   -37860.236    37858.491    244.32694    38.861911 
186876000    289.99339    404.42056    459.61963   -37877.452    37866.323   -55.199069      38.8649 
186880000    278.01819    266.11826    405.91874   -37875.453    37876.696   -139.80048    38.866446 
186884000    285.78303    282.56158    320.97598   -37876.668    37877.497   -38.414407    38.864292 
186888000    293.03912    263.39701     332.4942   -37886.494    37876.574   -69.097192    38.857194 
186892000    281.56669    252.61742    397.74464   -37885.001    37899.229   -145.12722    38.855092 
186896000    258.80627    413.89553    322.90799   -37878.437    37903.212    90.987546    38.851755 
186900000    265.17031    333.92309    425.03046   -37879.836    37911.897   -91.107369    38.853438 
186904000    278.86473    305.38854    235.62238   -37896.583    37897.979    69.766163    38.845325 
186908000    301.18128    214.73761    319.85106   -37893.692    37902.917   -105.11345    38.841859 
186912000    287.48258    531.19118    301.04811   -37891.746    37903.063    230.14307    38.834675 
186916000    275.44355    329.28909    235.26228   -37889.595    37890.302    94.026806    38.839279 
186920000    303.26296    524.06591    290.44691   -37909.887    37901.201      233.619    38.840132 
186924000    283.96329    449.03558    274.83802   -37885.969    37886.983    174.19756    38.839136 
186928000    291.95829    375.30836    378.06472    -37900.05    37898.893    -2.756357    38.835685 
186932000     260.7635    326.46925    215.84631   -37891.516    37892.638    110.62294    38.834787 
186936000    313.98361    420.51931    521.61724   -37908.866    37898.583   -101.09793    38.841225 
186940000    294.69987     288.6268    305.07883   -37929.651    37940.652   -16.452033    38.838685 
186944000     295.9126    309.04349    234.86301   -37943.028    37929.788    74.180476    38.835384 
186948000    287.64438    249.99637    528.69039   -37953.482    37950.869   -278.69402    38.834067 
186952000     271.6004    415.60633    416.14599   -37951.097    37956.248  -0.53965863    38.832662 
186956000     272.0877    258.24213    388.36766   -37948.256    37956.176   -130.12553    38.831695 
186960000    270.55919    449.17306    260.94589   -37962.846    37951.051    188.22717    38.832664 
186964000    295.11384    286.61441     273.7511   -37964.986    37967.755    12.863306    38.833653 
186968000    291.30407     398.4023    499.48678   -37974.798    37965.403   -101.08448    38.827752 
186972000    278.99975     352.2042    192.92216   -37983.565    37976.389    159.28203    38.828898 
186976000    278.88912    193.30946    209.97188   -37988.434    37998.214   -16.662413    38.833854 
186980000    278.66025    751.21396    311.96347   -38002.273    37998.294    439.25049    38.845993 
186984000    271.93476    194.54113    415.10063   -38000.056    38018.666    -220.5595    38.843119 
186988000    279.86308    228.09992     533.2512   -38017.139    38019.626   -305.15128    38.845239 
186992000     318.1899    388.66127    391.62971   -38033.367    38035.421   -2.9684428    38.836734 
186996000     281.4115    428.52872    446.73687   -38032.047    38032.548   -18.208154     38.83034 
187000000     323.7693    585.76892    350.93559   -38065.841    38050.762    234.83333    38.841861 
187004000     284.2995    471.83306    377.26688   -38057.375    38061.742    94.566178    38.839922 
187008000    271.02648     249.9959    206.54939   -38065.024    38085.277     43.44651    38.842711 
187012000    302.97067    508.32971    550.87556   -38081.265     38084.15   -42.545855    38.840518 
187016000      302.735    690.23204    384.73293   -38101.297    38101.196    305.49911    38.853708 
187020000    283.74457    347.53515    425.20476    -38112.88    38130.006   -77.669603    38.855927 
187024000    265.68761      273.027    187.25838   -38133.375    38153.637    85.768629    38.848821 
187028000    281.16884    490.91862    210.05844   -38138.704    38149.207    280.86018    38.859466 
187032000    264.34889    217.66253     441.1362    -38125.66    38154.361   -223.47367    38.867838 
187036000    266.34484    360.46161    500.86036   -38150.074    38169.313   -140.39876    38.865907 
187040000    278.41047    424.13303    272.19099   -38161.294    38171.977    151.94204    38.865602 
187044000    270.63374    387.64858    326.54967   -38172.473    38184.073    61.098905    38.867326 
187048000    275.09571    564.78925    171.57316   -38206.331    38198.777    393.21609    38.870967 
187052000    305.22832    233.17811    376.62818   -38208.935    38215.762   -143.45007    38.862706 
187056000    274.98642    317.92943    274.85744   -38210.729    38230.004    43.071986    38.859575 
187060000    291.51403    320.52502    574.17589   -38233.993    38223.781   -253.65088    38.852882 
187064000    284.09917    177.75474    323.76974   -38227.835     38227.83     -146.015    38.856875 
187068000    269.10599    264.90817    268.85216   -38243.141    38244.674   -3.9439859    38.858719 
187072000    297.73733    277.62155    507.15261   -38259.786    38246.807   -229.53106    38.861029 
187076000    263.31661    374.21774    200.06563   -38251.845    38267.039    174.15211     38.86741 
187080000    254.75543     263.1301    272.43055   -38259.263    38279.364   -9.3004566    38.867297 
187084000    262.51695    249.22365    385.60522   -38260.656    38277.958   -136.38158    38.867579 
187088000    294.70561    246.35211    426.24411   -38282.967    38272.341     -179.892    38.867406 
187092000    302.39963    351.77984    548.41669   -38289.226    38279.795   -196.63685    38.858722 
187096000    271.10905    228.53113     445.0236   -38272.626    38286.103   -216.49247     38.85879 
187100000    262.83369    224.30427    193.97154   -38268.864    38302.629    30.332732    38.860631 
187104000    294.00974     545.3422    245.19657   -38298.547    38294.831    300.14563    38.868897 
187108000    281.58401    501.38941    542.39391   -38305.046    38308.195   -41.004502    38.871099 
187112000    279.67273     700.5244    211.40905   -38303.395    38327.103    489.11536    38.875933 
187116000    257.77101    267.01635    326.78136   -38315.398    38337.413    -59.76501    38.870982 
187120000    290.14126    580.47086    146.30772   -38336.027    38335.998    434.16314    38.865644 
187124000    277.94535    319.13203    340.81418   -38338.106    38331.684   -21.682148    38.850641 
187128000    289.64939    337.63389    432.86944    -38340.98    38339.548   -95.235543    38.854482 
187132000      306.479    325.58779    286.06171   -38360.906    38346.479    39.526085     38.85028 
187136000    328.69281    281.84208    368.35322   -38372.261    38346.501   -86.511147    38.834179 
187140000    274.50503    552.82913    464.43429   -38371.826    38375.096    88.394832    38.837141 
187144000    292.07075     410.2387    441.86918   -38374.975    38378.307   -31.630485    38.839873 
187148000    295.20055    579.32063    309.90026   -38380.916    38399.673    269.42037    38.838295 
187152000    258.38689      482.671    377.78415   -38402.202    38411.493    104.88685    38.845327 
187156000    299.69017    416.56215     408.8682   -38421.902    38426.213    7.6939448    38.851922 
187160000    268.71367    230.26182    375.75705   -38420.846    38440.333   -145.49523    38.846696 
187164000    266.45358     580.4262    482.33805   -38402.814    38438.486     98.08815    38.842145 
187168000    267.16166    248.13414    225.63779    -38413.18     38423.13    22.496349    38.844582 
187172000    251.45693    246.01398    409.56703   -38421.823    38438.531   -163.55305     38.84874 
187176000    273.66802    321.48943    355.10701   -38425.213    38453.326   -33.617585    38.850641 
187180000    283.16071    502.28165    360.86671   -38421.327    38428.659    141.41495    38.849734 
187184000    265.82584    658.59705    331.83392   -38405.635    38426.418    326.76313    38.851944 
187188000    273.62924     275.9808    205.67391   -38410.324    38425.061    70.306884    38.849936 
187192000    286.80783    263.69924    285.15756   -38429.917    38428.004   -21.458316    38.837106 
187196000    301.79529    412.69908    403.94187   -38435.005    38417.834    8.7572138     38.84247 
187200000    305.89257    318.35265    247.19522   -38422.611    38406.592    71.157433    38.842182 
187204000    269.59658    266.10701    338.50725   -38418.955    38427.761   -72.400237    38.837417 
187208000    294.40233    211.38599    436.97048   -38437.735    38436.455   -225.58449    38.836877 
187212000    296.80983    351.99741    611.90728   -38446.697    38433.808   -259.90987    38.835307 
187216000    315.51471    331.98313    473.49491   -38465.508    38441.969   -141.51179    38.834741 
187220000    300.03401     516.2429    412.99564   -38479.975    38461.731    103.24726      38.8362 
187224000    313.59379    350.17007    326.78521   -38477.094    38478.716    23.384861    38.832663 
187228000    277.26009    331.27608     363.4591   -38496.218    38498.139    -32.18302    38.832468 
187232000    282.23257      636.777    144.48928   -38510.131    38505.615    492.28772    38.836241 
187236000    264.85947    347.35474    407.02839   -38516.979    38528.745   -59.673647    38.843802 
187240000    287.15598     419.9922    498.59291   -38532.543    38530.608   -78.600719    38.848878 
187244000    304.47761    485.19215    608.80285   -38552.882    38530.912    -123.6107      38.8529 
187248000    293.89817    385.22131    184.91508   -38540.763    38539.135    200.30623    38.854382 
187252000    277.99776    432.04597    227.11779   -38524.355    38524.735    204.92818    38.863676 
187256000    299.60963    496.60684    459.13307   -38524.137    38517.858    37.473777    38.870341 
187260000    323.80324    321.97526    440.26538   -38547.858     38530.74   -118.29012    38.871077 
187264000    280.58655    220.74429    257.71795   -38534.344     38543.47   -36.973656    38.873779 
187268000    253.42842     324.6698     308.6457   -38532.797     38556.59    16.024106    38.869787 
187272000    297.93568    421.78333    466.84966   -38551.058     38541.77   -45.066333    38.874081 
187276000    269.94233    502.82968    359.69587   -38557.425     38551.64    143.13381    38.870293 
187280000    297.89278    484.11652    393.98851   -38547.994    38548.004    90.128011    38.873538 
187284000    291.41782    294.12748    319.88494    -38550.13    38558.173    -25.75746    38.874482 
187288000     295.9774    415.37605    199.14872   -38569.014    38551.793    216.22733    38.865322 
187292000    262.29159    275.59144    332.09634   -38578.679    38567.674   -56.504898    38.861422 
187296000      295.763    504.68061    206.21672   -38585.307    38581.244     298.4639    38.858589 
187300000    298.50058    466.93995    354.27724     -38575.2    38575.003     112.6627    38.857785 
187304000    307.65183    247.66323    425.11802   -38586.647    38575.211   -177.45479    38.862205 
187308000    300.69003    355.23582    332.47287   -38583.064    38584.607    22.762958    38.855794 
187312000    287.33468    329.66135    263.71919   -38590.937    38588.195    65.942157    38.863122 
187316000    285.53595    370.49356    481.90869   -38593.474    38596.739   -111.41512    38.858423 
187320000    269.11358    238.83245    302.63737   -38595.371    38609.825   -63.804928     38.85709 
187324000    234.92292    391.70059    323.05469   -38587.067    38619.648    68.645901    38.859884 
187328000    268.33654    197.36502    451.65137   -38591.928    38618.853   -254.28635    38.852606 
187332000    282.71867    402.51101    324.38083   -38620.115    38623.313    78.130175    38.852941 
187336000    289.05632     376.1578    302.79366   -38610.698    38624.688    73.364146    38.857315 
187340000    310.71415    259.57714    417.60504   -38638.245    38635.101    -158.0279    38.854292 
187344000    272.24449    394.32914    251.08677   -38639.412    38626.669    143.24238    38.850878 
187348000    311.82426    731.51518    427.95307   -38653.587    38638.813    303.56211    38.848373 
187352000    270.33509    141.89903    408.91634   -38642.424    38650.182   -267.01731     38.85336 
187356000    289.43219     187.3576    426.49349    -38651.69    38650.205   -239.13589    38.853139 
187360000    295.89794    384.10654    593.38014   -38660.988    38662.775    -209.2736     38.84991 
187364000    276.70217    334.71006    174.17905   -38678.088    38671.333    160.53101    38.852833 
187368000    283.32863    238.66802    257.44086   -38673.489    38675.562   -18.772846    38.852716 
187372000    284.99738    392.86849    299.13948   -38684.808    38673.508    93.729009    38.848213 
187376000    288.34311    292.48737    338.19329    -38681.25     38696.48   -45.705925    38.848762 
187380000    277.69893     585.2107    357.37663   -38694.376    38701.308    227.83408    38.852654 
187384000     282.7173    492.92205     473.1609   -38696.946    38693.739    19.761148    38.846321 
187388000    273.70392    390.73728    397.54842   -38694.135    38729.641    -6.811146     38.84255 
187392000    270.29957    517.52656    388.98903   -38719.411    38737.084    128.53753    38.835124 
187396000    288.37363    447.52027    335.81222   -38714.503    38740.968    111.70805    38.835566 
187400000    289.45795    586.64022    260.43722   -38727.332    38737.342      326.203    38.833543 
187404000    281.98301    357.44937    354.76744   -38733.361    38728.377    2.6819294    38.831886 
187408000    280.51221    143.70235    330.44159   -38733.278    38743.853   -186.73924    38.826177 
187412000    290.15645    190.70273    212.49131   -38753.727        38757   -21.788579     38.82666 
187416000    299.61656    268.77447    355.72658   -38755.871    38758.884   -86.952111     38.82501 
187420000    268.82895    295.99803    212.17976   -38757.251    38797.656    83.818269    38.825066 
187424000    266.82714    400.79248    521.25064   -38765.558    38787.107   -120.45817    38.826872 
187428000    269.90806    458.14703    216.67064   -38784.074    38786.536    241.47639    38.821022 
187432000    282.13935    441.66016    234.37909   -38798.786    38811.322    207.28106    38.820586 
187436000    279.09284    273.70683     368.3179   -38804.814    38818.431   -94.611077    38.830558 
187440000     253.8869    300.52473    412.15846   -38805.048    38822.167   -111.63373    38.827398 
187444000    260.72733     425.2709    205.16158   -38821.713    38841.844    220.10932    38.823175 
187448000    269.92409    191.32179    196.38259    -38824.79     38851.24   -5.0608075    38.828342 
187452000    272.99512     237.2399    368.47952   -38834.042    38856.739   -131.23962    38.830418 
187456000    268.16738    264.01681    395.04527   -38823.147    38843.893   -131.02846    38.828849 
187460000    253.33831     429.0055    94.804397   -38818.915    38857.623    334.20111    38.835386 
187464000    272.22371    544.75374    344.64319   -38827.467     38849.23    200.11055    38.829377 
187468000    270.50282    475.61764    310.35596   -38845.361    38842.912    165.26168    38.829321 
187472000    268.41731    269.00982    384.90853   -38862.902    38849.173   -115.89871    38.831332 
187476000    274.60301    336.58916    436.22148   -38844.601    38862.695   -99.632322    38.826704 
187480000     292.6793    268.14062     475.5869   -38860.228    38865.419   -207.44628    38.824333 
187484000    275.80634    308.21157    325.88761   -38865.506    38889.936   -17.676041    38.817137 
187488000    284.89132    159.70384    139.33275    -38867.33    38885.124    20.371098    38.813822 
187492000    290.00375    469.66551    350.37501   -38872.379    38872.705     119.2905    38.822584 
187496000    279.41956    345.25632    563.73792   -38863.457    38877.387   -218.48159     38.82445 
187500000    246.34277      316.137    271.82932   -38862.804    38894.919    44.307687    38.820306 
187504000    280.96218    364.18969    276.12933   -38868.451    38873.236    88.060362    38.828396 
187508000    312.79344      349.256    334.51053   -38883.279    38878.931    14.745471    38.833657 
187512000    284.93729    439.36736    342.21887   -38881.764    38871.924    97.148494    38.827798 
187516000    294.18828    612.77318    776.03065   -38882.895    38867.205   -163.25747    38.823306 
187520000    303.26797    429.45325    310.31688   -38896.399    38886.266    119.13637     38.82457 
187524000    287.09443    428.32982    270.44125   -38903.666    38894.625    157.88856    38.824198 
187528000    281.15525    282.55962     364.2639   -38901.381    38916.738   -81.704282    38.818786 
187532000    282.52766     503.7006    286.74756   -38906.595    38926.641    216.95304    38.815763 
187536000    307.43618    522.95774    120.22811   -38934.331    38937.126    402.72963    38.821516 
187540000    297.15716    234.04849    453.45229   -38949.244    38935.878    -219.4038    38.820583 
187544000    298.50988    312.42272    393.50814   -38956.161    38962.998   -81.085413    38.822461 
187548000    295.23839    420.24989     356.1949   -38971.098    38979.442    64.054987    38.821724 
187552000     283.8913    292.19797    266.63532   -38974.032    38966.259    25.562655    38.827457 
187556000    292.22869    370.38214    344.76852   -38989.595    38982.703    25.613618    38.823021 
187560000    313.20857    408.82502    603.31707   -39007.502    38987.584   -194.49205      38.8276 
187564000    296.60916    462.50287    370.11008   -39009.368    38996.091    92.392794    38.823756 
187568000     265.9962    364.02257    178.17306   -39003.503    39001.396    185.84951    38.829327 
187572000    273.07195     490.5858    156.31239   -39014.801    39030.039    334.27341    38.824233 
187576000    275.30187    468.52576    163.25322   -39024.284    39045.902    305.27254    38.818949 
187580000    266.40443    449.27289    248.52651   -39048.315    39054.351    200.74638    38.818619 
187584000    285.42353    290.18561    135.11243   -39057.345    39071.055    155.07318    38.821316 
187588000    260.68663    254.64534    286.16122   -39070.069    39085.115   -31.515876    38.820794 
187592000    301.93524    371.15251    340.82416   -39086.015    39081.692    30.328344    38.827764 
187596000    283.98941    255.03397    369.67463   -39088.744    39081.015   -114.64066    38.831692 
187600000    291.11018    349.19982    119.44144   -39108.904    39100.232    229.75837    38.837778 
187604000    272.97922    392.15502    194.88024   -39098.577    39107.325    197.27479    38.841254 
187608000    289.31683    315.04571    427.58126   -39125.978    39126.786   -112.53555    38.842261 
187612000    276.39317    239.97117    328.97431   -39120.294    39124.934   -89.003144    38.837615 
187616000    264.52893    202.82533    430.54275   -39128.679    39139.956   -227.71742    38.838453 
187620000    276.90511    289.12883    131.22821   -39154.462     39139.73    157.90062    38.841359 
187624000    281.57966    153.62526    435.78797   -39130.016    39135.719   -282.16271    38.836475 
187628000    282.63897    390.80008    493.28304   -39140.304    39142.739   -102.48296    38.838154 
187632000    290.44774    569.92574    278.97917   -39139.034    39144.568    290.94657    38.839061 
187636000    295.41535    346.74128    206.53069   -39149.805    39144.225    140.21059    38.839094 
187640000    284.11358    558.57339    261.33261   -39155.372    39145.553    297.24078    38.841366 
187644000    293.77552    909.45376    257.28623   -39144.542    39149.115    652.16753    38.847158 
187648000    285.77548     447.3488    433.75491    -39157.16    39140.741    13.593892    38.846323 
187652000    310.75695    382.38523    396.14582   -39162.624    39139.632    -13.76059    38.851647 
187656000    302.29254    337.84536    527.05043   -39174.355    39156.779   -189.20507    38.844696 
187660000    291.51391    335.04316    388.90031   -39171.047    39176.358   -53.857149    38.842966 
187664000    296.12679    394.21109    320.78172   -39187.443    39186.949    73.429371    38.848068 
187668000    297.66944    749.17427     485.1934   -39190.305    39194.111    263.98087    38.856833 
187672000    281.20787    355.65116    335.12348   -39198.762    39201.527    20.527674    38.860708 
187676000    251.23203    321.95725    648.31968   -39200.386    39218.201   -326.36243     38.85732 
187680000    280.18027    438.32838    396.90032   -39224.258    39235.154    41.428057    38.856275 
187684000    249.77349    386.22242    308.49399   -39214.298    39238.424    77.728433    38.855146 
187688000    292.12673    333.14046    394.16572   -39215.955    39221.654   -61.025254    38.856343 
187692000    294.23976     198.2689    592.16417   -39236.789    39222.529   -393.89528    38.856678 
187696000    331.09098    362.67958    226.84358   -39250.271    39231.236      135.836    38.854244 
187700000    307.81081    439.45004     261.6188   -39244.439    39251.066    177.83124    38.856259 
187704000    276.93287     233.6262    328.93726    -39251.32    39266.368    -95.31106    38.864008 
187708000    309.70297     408.2052    445.33028   -39259.329    39251.115   -37.125083    38.858365 
187712000    269.51823     204.2147    489.87175   -39269.985    39279.037   -285.65705     38.85501 
187716000    274.39491    469.04042     389.2449   -39275.883    39282.608     79.79551    38.858153 
187720000    280.04803    372.47287    355.71097   -39266.663    39291.366    16.761907    38.867413 
187724000    290.46035    356.68066    521.99068   -39261.194    39273.653   -165.31002    38.858831 
187728000    265.97653     312.2938    354.52686   -39268.476    39292.894   -42.233065    38.856485 
187732000    302.93312    785.28407    148.50982   -39286.249     39289.99    636.77425    38.859493 
187736000    272.16192    282.94965    285.11557    -39290.62    39304.128   -2.1659286    38.862012 
187740000    296.11164    370.25756    440.64595   -39313.233    39301.885   -70.388389    38.860608 
187744000    269.05738    358.33508    343.09685   -39304.797    39307.653    15.238238    38.864001 
187748000    258.89844    254.02711    296.21979   -39310.148    39329.324   -42.192675     38.87031 
187752000    284.10582     463.9806    316.31403    -39350.24    39346.488    147.66657    38.874269 
187756000    305.48163    400.24835    459.72155   -39362.219    39344.441   -59.473197    38.873137 
187760000    322.44468    311.90382     346.4818    -39380.45    39356.666   -34.577982    38.867028 
187764000    270.58879    315.27288    226.74958   -39379.814    39367.077      88.5233    38.868027 
187768000    281.24178    588.71081    312.71568   -39383.742    39375.743    275.99513    38.866937 
187772000    244.86029    196.80845    497.80717   -39363.508    39397.278   -300.99873     38.86202 
187776000    273.26046      337.395    439.75954   -39401.139    39413.962   -102.36454    38.861268 
187780000    294.49757    452.79673    484.38599   -39403.286    39408.047   -31.589259    38.858472 
187784000    280.87138    373.01494    378.52502   -39410.302    39426.988   -5.5100808    38.869328 
187788000    282.99263    361.25687    385.86627   -39420.596    39432.431   -24.609408     38.86908 
187792000    269.44559    399.21606    378.87813   -39421.451     39435.24    20.337937    38.857901 
187796000    311.87008     332.3629    377.87154    -39448.17    39437.144   -45.508636    38.858807 
187800000    275.97451    238.09956    295.44697   -39438.296    39447.219   -57.347404    38.848328 
187804000    253.63486    245.20976    183.32398   -39430.741    39448.244    61.885781    38.844417 
187808000    281.26404    266.88322    425.58863   -39436.766    39451.737   -158.70541    38.838801 
187812000    293.88655    427.41914    369.28902    -39457.05    39459.861     58.13012    38.841235 
187816000    295.92766    293.95486     233.8998   -39458.536    39467.275    60.055055    38.838781 
187820000    293.70658    373.94515    130.66487    -39469.86    39476.484    243.28029    38.839021 
187824000     309.6651    337.43345    398.59108    -39485.48    39473.673   -61.157635    38.840891 
187828000    294.18583    267.78122    282.00389   -39482.806    39472.991    -14.22267    38.837866 
187832000    275.66719    224.86604    227.03944   -39474.652    39478.432   -2.1734083     38.83809 
187836000    285.71983    489.26061    341.75072   -39479.654     39476.78    147.50989    38.845569 
187840000     306.9031    587.15944    357.36204   -39497.927    39480.226     229.7974    38.845913 
187844000    315.68365    520.21089    523.93339   -39512.928    39492.596   -3.7224993    38.849649 
187848000    279.44928    225.89546    163.52683   -39528.431    39512.389     62.36863    38.854626 
187852000    276.12683    351.99754    283.59017   -39516.841    39528.724    68.407376    38.853892 
187856000    314.35825    326.13597    362.28905   -39536.503    39541.289   -36.153075    38.854617 
187860000    300.72978    681.60151    412.05425    -39553.59    39540.831    269.54726    38.862207 
187864000    313.16026    530.44994    265.34863   -39568.503    39562.051    265.10131     38.86713 
187868000    271.95134     469.2076    221.96037   -39567.219    39559.276    247.24722    38.869076 
187872000    288.99212    403.41339    371.14182   -39571.933    39579.291    32.271575    38.874616 
187876000    260.32304    397.60668    374.93867   -39564.142    39594.838    22.668006    38.875719 
187880000    254.43005     237.4634     467.4692   -39571.087    39590.524    -230.0058    38.876511 
187884000    290.75238    338.33145    285.27414   -39600.345    39609.842    53.057312    38.872491 
187888000    284.63328    251.34098     363.6742   -39610.223    39627.907   -112.33323    38.874723 
187892000    279.79578    215.39938    280.08198    -39617.66    39634.043   -64.682598    38.873882 
187896000     294.6796    306.80733    283.08379   -39627.022    39638.673    23.723538    38.866418 
187900000    288.36032    334.52262    419.19485    -39639.18     39637.74   -84.672236    38.870575 
187904000    267.16996    213.98023    198.31453   -39634.224    39643.049    15.665704    38.869212 
187908000    289.79796    486.86134    279.74448   -39653.469    39644.193    207.11686     38.86651 
187912000    297.52273    400.78753    354.34194   -39670.536    39660.844    46.445585    38.864402 
187916000     305.0222    352.16559    232.68431   -39668.852    39667.281    119.48128    38.867357 
187920000    281.02429    302.21047    271.09902   -39668.547    39671.962    31.111448    38.862197 
187924000    298.39701    582.26539    243.96488   -39675.012    39669.039    338.30051    38.854662 
187928000    273.78792      233.715    306.72782   -39672.516    39667.089    -73.01282    38.853116 
187932000    285.55643    272.75242    514.89721   -39671.707      39672.5   -242.14479    38.856038 
187936000    327.13894    298.80302     379.4104   -39671.345    39667.273   -80.607375     38.86691 
187940000    274.45109    275.08249    306.32828   -39682.508    39676.252   -31.245791    38.866746 
187944000    276.37722    337.21804    341.77948   -39669.512    39697.487   -4.5614377    38.862674 
187948000    303.09547    148.04042    400.91903   -39670.525    39682.199   -252.87861    38.872175 
187952000     295.0028    504.36345    366.08897   -39706.007    39703.405    138.27448    38.864763 
187956000    280.47428    303.23501    327.67078   -39714.338    39712.018   -24.435769    38.866301 
187960000    288.90136    348.50937    257.72012   -39708.704    39728.102    90.789247    38.861931 
187964000    269.83713    453.44908    444.23792   -39702.349     39720.99    9.2111623    38.863133 
187968000    268.28722    214.57883     553.6548   -39718.969    39720.708   -339.07597    38.862428 
187972000    293.89846    256.64943    359.22265   -39719.735    39723.796   -102.57322    38.868815 
187976000    250.34519    361.37969    286.59574   -39728.876    39736.201    74.783952     38.87415 
187980000    319.18121     302.6794       319.59   -39750.946    39739.578   -16.910595    38.875624 
187984000    277.68796    504.14861    419.24928   -39746.512    39750.851    84.899327    38.872372 
187988000    263.56545    224.83397    277.28686   -39746.807    39745.177    -52.45289    38.867524 
187992000    319.75656     299.1723    488.90414   -39752.107    39742.117   -189.73184     38.87283 
187996000    291.43192    583.33772    238.88562   -39768.083    39756.328     344.4521    38.865754 
188000000    307.80355    248.91336    298.03839    -39766.92      39752.3   -49.125038    38.861145 
188004000    293.79933    514.60561    379.35176   -39781.453    39763.606    135.25384    38.857263 
188008000    367.13192     417.2174    371.91675   -39802.035    39758.777     45.30065    38.851439 
188012000    291.20899    257.50266    394.66804   -39782.826    39780.759   -137.16538    38.860756 
188016000    291.38045    404.48999    259.82831   -39800.838     39789.18    144.66169    38.858782 
188020000    305.99538    348.88136    186.56244    -39805.89    39806.509    162.31892    38.857676 
188024000    297.88013    361.45801    385.86204   -39808.842    39813.371   -24.404032    38.851136 
188028000    298.92094    639.58125    186.62672   -39819.781    39820.395    452.95453     38.85152 
188032000    282.25187    672.09371    293.15131   -39806.615    39800.623    378.94241     38.85736 
188036000    300.80258    464.07302     215.4859   -39815.145    39816.337    248.58712    38.862088 
188040000    266.96011    261.67465    366.19229   -39831.907    39845.864   -104.51764    38.863072 
188044000    307.49971    709.12986    275.44815   -39872.209    39852.555    433.68171    38.867898 
188048000    280.93472    484.89803    165.82553   -39873.799    39863.957     319.0725    38.863636 
188052000    272.81104    286.13655    315.71683   -39871.152    39892.762   -29.580286    38.863455 
188056000    295.64334    397.76379    438.35568     -39883.2    39882.438   -40.591887    38.867835 
188060000    248.86949    430.59522    408.43135   -39877.878    39898.765    22.163871    38.874064 
188064000    259.04274    167.44687    452.82273   -39897.514    39904.896   -285.37585    38.877052 
188068000    248.50635    383.17397    411.69007   -39895.842    39916.288   -28.516104      38.8729 
188072000    276.10719    488.13563    425.10921   -39905.076    39900.461    63.026424    38.877785 
188076000    272.28043    311.38202    185.02801   -39892.068    39908.855    126.35401    38.881501 
188080000    301.29047    432.05156    439.56968   -39892.638    39897.697   -7.5181195    38.882694 
188084000    275.48419    454.63567    196.75584   -39894.653    39905.762    257.87983    38.892182 
188088000     263.1209    353.26444     171.1436   -39882.451    39915.591    182.12084    38.887291 
188092000    252.57735     256.5747    177.52611   -39898.876    39926.359    79.048596    38.889676 
188096000    291.42155    462.49447    481.93715   -39920.339    39899.925    -19.44268    38.886675 
188100000    264.88526    336.77294     359.0002    -39923.19    39927.165   -22.227263     38.88424 
188104000    280.28172    208.94592    495.42606   -39925.829    39942.638   -286.48013    38.883681 
188108000    270.49072    337.03803    301.01514    -39927.25    39937.847    36.022892    38.887325 
188112000    280.87845    410.37831    248.10735   -39941.751    39947.919    162.27096    38.888965 
188116000    273.09919     475.1482    268.39191   -39943.269    39957.364    206.75629    38.895375 
188120000    281.30507     283.5802    490.99967   -39947.619    39948.982   -207.41947    38.900431 
188124000     272.9796    244.48104    179.42519     -39950.6     39951.39    65.055851    38.892636 
188128000     304.7499    482.86599    382.22781   -39960.314    39948.165    100.63818    38.887963 
188132000    294.44227    322.62109    346.80404   -39983.483    39971.533   -24.182951    38.891295 
188136000    276.15757     180.7819     235.7669   -39992.446    39997.824      -54.985    38.896288 
188140000    288.13909    437.35485    326.61632   -39999.506     40003.12    110.73853    38.894259 
188144000    271.86022      357.783    247.31802   -40006.419    40018.014    110.46498    38.888433 
188148000    273.12701    482.54164    469.41885   -40016.212    40025.435     13.12279    38.895359 
188152000    276.53353    311.10083    391.47079   -40025.233    40016.249   -80.369966    38.899839 
188156000    289.43215    367.24324     305.4216   -40025.506    40042.016    61.821647    38.902211 
188160000    290.40623    197.46119    332.85301   -40034.347    40036.891   -135.39182    38.902657 
188164000    282.68813    235.67599    362.38737   -40026.044    40042.418   -126.71138    38.899074 
188168000    264.49641    389.06051    253.78193   -40033.049    40063.267    135.27858      38.8952 
188172000    281.02738     465.7694    339.21611   -40048.562     40077.11    126.55329    38.903756 
188176000    273.85999    579.81305    226.49249   -40063.617    40085.762    353.32056    38.908185 
188180000    296.34778    345.99918    586.18559   -40084.446    40086.585   -240.18642     38.91069 
188184000    275.01383    297.14004    457.48442    -40076.67    40100.257   -160.34438    38.906656 
188188000    275.81088    495.72439    271.87085   -40090.773    40095.559    223.85353    38.903839 
188192000    299.86946    299.89275    246.48562   -40110.752     40099.09    53.407126    38.915075 
188196000    313.77785    521.30091    297.67391    -40114.97    40097.392      223.627     38.91025 
188200000    336.26563    337.57305    343.65795   -40136.136    40095.336   -6.0849058    38.903175 
188204000    317.73119    473.77171    359.31268   -40139.055    40110.676    114.45903    38.909218 
188208000    279.65491    414.22113    222.25396   -40134.485    40126.215    191.96717    38.908314 
188212000     310.8337    240.74528    204.04637   -40144.378    40124.642    36.698916    38.897828 
188216000    303.27641    432.41076     327.3428   -40142.775    40141.579    105.06796     38.90045 
188220000    299.69186    300.50332    285.89677   -40155.469    40141.395    14.606548    38.888504 
188224000    303.92816     360.2359    577.21435   -40131.226    40133.811   -216.97845     38.88851 
188228000    292.07459    438.24278    362.24785   -40133.573    40140.933     75.99493    38.885785 
188232000    281.93474    461.72231    414.46146   -40141.172    40137.365    47.260857    38.893791 
188236000    278.21931    362.54196    407.10737   -40145.429    40159.822   -44.565402     38.89888 
188240000    272.88642    275.32628     326.1692   -40167.576    40179.384    -50.84292     38.89675 
188244000    291.56176    425.42753    170.94788   -40177.388    40189.113    254.47965    38.903765 
188248000    261.17456     419.3888    245.55341   -40183.024    40193.549     173.8354    38.899064 
188252000    259.99174    455.56618     412.3496   -40176.234    40201.536    43.216585    38.898345 
188256000      258.972    228.72644    149.61397   -40176.647    40205.599    79.112469     38.90403 
188260000    263.69042    298.07054    421.30143   -40185.611    40206.926   -123.23088    38.901334 
188264000    275.10406    282.88461    198.86169   -40205.309    40226.168    84.022924    38.908321 
188268000    281.88963    273.09053    317.22939   -40212.296    40214.099   -44.138861     38.91028 
188272000    270.70478    433.45239    274.33675   -40226.905    40212.663    159.11565    38.913954 
188276000    293.06854    201.44341    387.43501   -40230.947    40231.375   -185.99161    38.918526 
188280000     297.2744    571.30309    254.22541   -40221.356    40222.744    317.07769    38.920015 
188284000    289.00699    270.30484    438.70693   -40218.003    40215.412   -168.40209    38.916168 
188288000    292.68084    451.91666    604.66597   -40244.149    40229.415   -152.74931    38.921131 
188292000    283.13458    287.69973    308.94733   -40244.956    40243.554   -21.247596    38.918265 
188296000    282.61394    623.46827    281.87666   -40264.856    40254.182    341.59161    38.922576 
188300000    295.81497    296.88204    275.75258     -40247.4    40248.384    21.129463    38.923799 
188304000    282.99919    487.55102    300.45163   -40247.517    40256.342    187.09939    38.922216 
188308000    274.05554    560.61018    301.93777   -40251.942    40266.204    258.67241    38.924633 
188312000    258.45318    393.46495    328.21306   -40248.586    40275.497    65.251886    38.923819 
188316000    296.42062    405.43522    301.36538   -40267.444    40276.119    104.06984    38.923447 
188320000    264.41133    376.13532    526.05133   -40268.684    40273.377   -149.91601    38.927724 
188324000    281.81542    251.52905    219.72504   -40288.858    40291.193    31.804013     38.93021 
188328000     313.6787    357.53941    490.29379   -40307.229    40300.058   -132.75438    38.933504 
188332000    292.59615    441.45921    319.27483   -40318.067    40323.364    122.18439    38.931065 
188336000    277.88688    183.82693    310.15805   -40327.251    40333.532   -126.33112    38.939614 
188340000    272.82891    274.10781    299.11588   -40328.304    40336.359    -25.00807    38.939903 
188344000    252.90871    426.37132    263.52564   -40332.731    40352.505    162.84568    38.939235 
188348000    286.13044    310.74016    568.36295   -40346.457    40330.063   -257.62279    38.933814 
188352000     290.9348    344.79765    266.86325   -40360.062    40361.114    77.934404    38.936148 
188356000    259.40167    494.28788    328.77899   -40372.587    40383.048     165.5089    38.929249 
188360000     270.4969     576.8593    259.25793   -40370.453     40385.17    317.60137    38.933352 
188364000    270.24113     350.8128     199.5973   -40384.446    40391.789     151.2155    38.934947 
188368000    313.69534    359.19432    380.97877   -40403.697    40391.076   -21.784453    38.932185 
188372000    259.35187    240.34961    222.75935   -40383.474    40407.825    17.590265    38.933165 
188376000     287.6555    529.76196    334.83418   -40404.763    40413.182    194.92778    38.938354 
188380000    294.76036    212.41003    308.99142   -40418.601    40431.376   -96.581392    38.934657 
188384000    296.35212     267.4567    233.62655   -40440.192    40444.931     33.83015    38.941543 
188388000    302.65672     443.9375    458.79599   -40438.709    40430.515    -14.85849    38.941201 
188392000    273.26077    264.68273    257.87069   -40446.114    40439.071    6.8120397    38.941252 
188396000    266.88381    264.58431    255.95985   -40445.217    40460.481    8.6244648    38.944408 
188400000    266.23878    370.25058    338.66878   -40436.408    40461.156    31.581804    38.941858 
188404000    281.41364    402.10969    424.25761   -40443.455    40459.651   -22.147911    38.941544 
188408000    281.84652    372.85358    363.81617    -40457.26    40461.026    9.0374022    38.941395 
188412000    269.44915      310.907    410.26024   -40461.671    40476.414   -99.353237    38.944402 
188416000    290.28127    443.60967    746.71248   -40473.257     40468.29   -303.10281    38.946037 
188420000    266.81529    402.69091    484.24171   -40497.363    40508.159     -81.5508    38.943437 
188424000    269.58629     382.2064    351.53038   -40492.541    40510.405    30.676019    38.944147 
188428000    290.07332    265.00531    379.72646   -40506.487    40524.472   -114.72115    38.941286 
188432000    295.22659    354.46357    489.59731   -40515.788     40525.58   -135.13374    38.938379 
188436000      263.526    512.02379    324.89149   -40520.955     40527.79     187.1323    38.941767 
188440000    266.45105    373.17822    199.59503    -40534.33    40539.095    173.58319    38.942466 
188444000    291.85923    350.47581    223.95895   -40550.323    40557.132    126.51686    38.938441 
188448000    270.49595    424.72221    278.67849   -40536.762    40549.484    146.04373     38.93435 
188452000    279.93807    381.84751    289.34075   -40548.392    40550.304    92.506759    38.931403 
188456000    277.52311    397.02264    206.62475   -40572.873    40572.665    190.39789    38.939589 
188460000    293.55301    369.64348    569.46892    -40585.43    40569.385   -199.82544    38.939844 
188464000    248.41034    227.74206    158.47583   -40568.225    40597.197    69.266226    38.938179 
188468000    279.49134    422.00561    379.15529   -40590.757    40596.768    42.850314     38.94338 
188472000    280.00712    312.85234    414.31634   -40608.305    40612.341     -101.464    38.938197 
188476000    299.03311    352.79809    456.07334   -40611.026    40610.011   -103.27525    38.931187 
188480000    273.80762    347.45183    393.05721   -40619.011    40610.228   -45.605383    38.927056 
188484000    316.42575    435.13081    214.34619   -40636.405    40615.595    220.78462      38.9259 
188488000    287.50249    310.41433    409.40425   -40633.409    40632.019   -98.989929    38.917931 
188492000     262.7635    277.60463    355.69727   -40634.451    40643.376    -78.09264    38.910453 
188496000    277.39601    315.16367    236.68665    -40641.37     40656.82    78.477021    38.908378 
188500000    277.24566    365.76635      434.245   -40649.192    40657.351   -68.478648    38.914466 
188504000    280.75407    329.75903    312.78764   -40662.084    40660.192    16.971386    38.911641 
188508000    312.25835    463.93509    406.94871   -40671.041    40662.391    56.986376    38.909285 
188512000    248.60889    165.00147    299.21921    -40668.37    40693.419   -134.21775    38.909999 
188516000    270.46662    162.88043    207.34705   -40682.507    40693.089   -44.466621    38.911764 
188520000    329.31889    449.89101    175.73319   -40700.464    40694.548    274.15782    38.907446 
188524000    283.38033    172.36531    518.81569   -40718.468    40705.812   -346.45039    38.905028 
188528000    295.25617     378.3594    224.14992   -40740.971    40736.922    154.20948    38.912124 
188532000    290.21228    223.31498    672.57274   -40731.972    40738.393   -449.25776    38.912741 
188536000    299.04034    362.44423    357.48247   -40742.589    40721.869    4.9617536    38.911898 
188540000    284.23178    426.89414    193.98528    -40734.03    40742.492    232.90886    38.912619 
188544000    287.16492    265.19906    356.18623   -40736.249    40733.958   -90.987173    38.913951 
188548000     269.9053    289.73238    279.87978   -40738.362    40733.491     9.852597     38.92105 
188552000     301.2026    437.63592    298.82306   -40729.641    40749.539    138.81285    38.913927 
188556000    289.55871    755.23509    399.38665   -40755.614    40764.471    355.84845    38.907394 
188560000     278.9641    275.35185    224.82864   -40758.588    40769.458     50.52321    38.905525 
188564000    285.70503    312.85695    574.19882   -40755.297    40763.918   -261.34187    38.907466 
188568000    293.63563    267.85213    244.82864   -40770.577    40780.502    23.023492    38.904373 
188572000    280.09481    456.45469     359.4949   -40773.983    40774.726    96.959788    38.907983 
188576000    251.31013    158.21773    213.32513   -40775.503    40784.578   -55.107406    38.903013 
188580000    278.68996    461.73456    302.05128   -40789.842    40793.493    159.68328    38.906579 
188584000    315.26509    213.57888    324.32224   -40811.862    40779.852   -110.74336    38.910498 
188588000     322.5347    456.63346    269.46242   -40826.451     40784.38    187.17104    38.911664 
188592000    275.51772    379.98519    266.71688   -40812.863    40806.159    113.26832    38.908373 
188596000    271.34156    272.56607     410.4826   -40800.853    40824.563   -137.91652    38.911712 
188600000    278.77485    651.79124    216.78963   -40828.875    40832.406    435.00161    38.907875 
188604000    278.04645    408.35733    462.99047   -40827.906    40830.793   -54.633137    38.903178 
188608000    307.79077    428.54319    550.58524   -40844.136    40828.757   -122.04205     38.90134 
188612000    300.41145    282.16325    332.25501   -40841.421    40836.451   -50.091764    38.901257 
188616000    299.44932    331.69638    152.82244   -40849.531    40830.166    178.87394    38.900432 
188620000    287.36682    581.06518    241.93103   -40860.629    40850.547    339.13415    38.906404 
188624000    286.61217    323.13148    124.92095   -40865.826    40857.809    198.21053    38.905407 
188628000    294.10596    302.57597    208.54916   -40866.857    40863.182    94.026807     38.90761 
188632000    298.89098    530.11602    284.35155   -40871.458    40859.302    245.76447    38.904522 
188636000    318.83315    232.94344    216.55537   -40862.563    40859.553     16.38807    38.907797 
188640000    312.52669    489.16835     304.3244   -40872.131     40862.42    184.84395    38.898532 
188644000    300.31385    293.62107    461.90813   -40865.735    40868.355   -168.28706    38.893103 
188648000    276.36015    499.74451    563.16046    -40881.62    40879.911   -63.415951    38.898348 
188652000    272.19692    249.95939    214.90222   -40887.425    40891.159    35.057176    38.896168 
188656000    278.94625    447.98104     232.0629   -40884.581     40893.72    215.91815    38.902788 
188660000    301.70668    205.37341    371.98734   -40894.343    40889.916   -166.61393    38.912425 
188664000    285.01832    278.48143    436.22201   -40890.612    40891.026   -157.74058    38.904474 
188668000    286.87284    380.52867    281.47161   -40893.354    40893.532    99.057058    38.906873 
188672000    293.53205    659.90612    681.34477   -40908.353    40898.816   -21.438646      38.9039 
188676000    275.48146    221.59368    227.15338   -40907.956    40910.956   -5.5596917    38.903622 
188680000    263.25637    473.78704    371.20712   -40909.698    40931.347    102.57992    38.916454 
188684000    298.64313     399.9725    341.79451   -40920.417    40919.686    58.177992    38.916016 
188688000    285.07231     526.2673     284.0887    -40917.09    40923.777     242.1786     38.92095 
188692000    276.93355     305.8693    298.63193   -40929.763    40936.527     7.237375    38.923907 
188696000    270.56299    166.25061    280.48444   -40938.515    40941.836   -114.23384      38.9264 
188700000    271.95657    381.25724    324.97642   -40933.442    40956.832    56.280821    38.926526 
188704000    283.22892    333.62569    420.33119   -40951.336    40954.654   -86.705501    38.921121 
188708000    300.64654    389.75271    221.31369   -40989.121    40972.646    168.43901    38.920938 
188712000    299.48903     651.0642    191.29908   -41003.272    41004.241    459.76513    38.925639 
188716000     281.1735    413.39997    144.55918    -40998.38    41005.174    268.84079    38.926427 
188720000    255.67822    341.84273    249.69403   -40994.701    41023.243    92.148708     38.92251 
188724000    286.57484    213.89564    522.29526   -41023.018    41018.268   -308.39962    38.915413 
188728000    276.83938    360.61464    226.77331   -41026.226    41018.332    133.84133    38.919732 
188732000    290.46589    380.44361    325.37952   -41041.943     41027.58    55.064091    38.924293 
188736000    303.22846    444.48295     336.1085   -41048.211    41031.618    108.37445    38.931832 
188740000    283.45099     211.3264    386.91899   -41045.238    41045.816    -175.5926    38.932756 
188744000     304.8634    388.35927    412.72143   -41075.663     41049.52   -24.362168    38.938942 
188748000    291.30753    312.83211    315.05539   -41068.268    41070.981   -2.2232884    38.936192 
188752000    318.89447    418.22547    598.74593   -41093.266    41054.109   -180.52047    38.932621 
188756000    292.65957      546.243    322.49173    -41078.46    41080.255    223.75127    38.937589 
188760000    274.31955    255.35597    282.68367    -41078.11    41085.381   -27.327708    38.934514 
188764000    309.93015    452.56999     214.6356   -41087.126    41084.509    237.93439    38.932077 
188768000    262.64708    280.35059    372.06367    -41082.84     41103.35   -91.713074    38.935169 
188772000    279.13157    419.38214    145.92106   -41109.481    41119.763    273.46108    38.941495 
188776000    279.00065    365.69287    649.56994   -41106.259    41114.038   -283.87707    38.949314 
188780000    280.71983     321.1454    515.83486   -41122.388    41126.393   -194.68947    38.947383 
188784000    314.13685    267.19175    344.18453   -41133.955    41106.369   -76.992785    38.943303 
188788000    297.67069     222.1819    452.21696   -41142.855    41132.318   -230.03506    38.951404 
188792000     298.8985    287.89019    421.01297   -41153.991    41132.806   -133.12278    38.950547 
188796000    288.81676     469.6108    272.99767   -41156.463    41169.039    196.61313    38.951278 
188800000    255.24489     338.0145     338.2538   -41143.758    41181.158  -0.23929713    38.948601 
188804000    256.91095    666.66837    189.04089   -41152.901    41177.806    477.62748    38.949758 
188808000     286.3493    553.21477    256.57542   -41175.992    41167.238    296.63934    38.949849 
188812000    313.88373    421.66764    340.52588   -41212.311    41172.068     81.14176    38.949538 
188816000    313.59304     523.3465    339.82955   -41208.414    41184.783    183.51695    38.953624 
188820000    317.55655     333.5956    227.58614   -41215.545      41199.1    106.00945    38.949313 
188824000    271.37499    392.27237    96.100661    -41212.33    41214.856     296.1717    38.948186 
188828000     308.5984    226.05696    507.62622   -41219.467     41212.54   -281.56926    38.946374 
188832000    286.96788    239.97946     345.4671   -41215.022    41222.942   -105.48765    38.942236 
188836000      267.444    287.89056    364.02549   -41222.156    41236.434   -76.134928    38.935884 
188840000    272.87283     417.4905    387.65977   -41237.022    41248.982    29.830725    38.931855 
188844000    265.92577    366.75347    475.40228   -41242.435    41265.099    -108.6488    38.934746 
188848000    273.45626    277.90585    398.89932   -41250.533    41269.946   -120.99347    38.930618 
188852000    237.16453     369.7759    340.42673   -41258.131    41294.389    29.349174    38.931863 
188856000    268.76544    382.94189    243.33894   -41276.283    41306.414    139.60295    38.928684 
188860000    244.53361    242.00665    121.26302   -41283.597    41322.695    120.74363    38.930997 
188864000    270.97416    414.85102    187.47181   -41297.568    41314.739    227.37921    38.921595 
188868000    259.99942    210.48913    555.18086   -41295.099    41327.824   -344.69173    38.922977 
188872000    240.61659    498.04901    268.09175   -41309.618    41348.508    229.95726    38.932088 
188876000    242.69442    170.50889    405.72499   -41304.912    41348.097    -235.2161    38.928753 
188880000    267.62051    254.62491    314.31309   -41316.746    41342.295   -59.688178    38.919586 
188884000    270.93197    612.73834    246.40097   -41354.121    41359.822    366.33737      38.9159 
188888000    286.06243    332.88612    343.73074   -41366.752    41361.383   -10.844619    38.911079 
188892000    245.14712     321.2672    366.60495    -41349.53    41369.683   -45.337749    38.914091 
188896000    272.16358       286.21    264.78094   -41353.212    41362.615    21.429061    38.909841 
188900000    270.90859    279.52125    295.83224   -41351.173     41368.06   -16.310987    38.913269 
188904000    289.96283    203.47889    304.63242   -41366.452    41368.354   -101.15353    38.915174 
188908000    326.74218    468.60369     582.5783   -41389.404    41371.365   -113.97461    38.913524 
188912000    281.15483     400.3763    361.18722   -41401.719     41389.46    39.189082    38.910085 
188916000    297.29366    448.10472    354.36803    -41403.75    41404.155     93.73669    38.910962 
188920000    304.18029     226.5879    272.27315   -41420.024    41407.686   -45.685247    38.910687 
188924000    303.89701    309.45137    572.01658   -41439.606    41426.781   -262.56521    38.912498 
188928000    302.76279    356.70091    398.69121   -41443.271    41436.472   -41.990297    38.914818 
188932000    268.39703    202.82475     378.1844   -41435.309     41469.45   -175.35965    38.917844 
188936000     280.7032    269.44813    453.70193   -41455.354    41458.408    -184.2538    38.916479 
188940000     302.2049    358.35844    243.85351   -41489.876    41488.425    114.50493    38.920856 
188944000    282.01854    389.96269    213.37762   -41486.187    41491.796    176.58507     38.91995 
188948000    292.95476    521.26911    422.96364   -41499.609     41494.42    98.305476    38.926217 
188952000    310.79809    307.51541    539.28885   -41519.003     41501.63   -231.77343    38.928487 
188956000     296.0163    283.49825    305.88951   -41527.594    41515.644   -22.391257    38.920045 
188960000    316.86284    422.05172     540.5614   -41539.107    41520.785   -118.50968    38.916233 
188964000    329.19951    365.53494    561.22809   -41557.472    41536.886   -195.69315    38.918115 
188968000    292.68521      363.134    205.16368   -41546.886    41540.112    157.97032    38.915897 
188972000    267.05073    279.65989    317.25811   -41545.873    41563.336   -37.598212    38.915561 
188976000    273.94358    381.32076    262.99837   -41544.849    41568.995    118.32239    38.918294 
188980000    290.13825     349.6546    290.28557   -41545.528    41564.035    59.369027    38.917681 
188984000     291.4579    287.22179    323.71112   -41564.937    41570.515   -36.489328    38.926333 
188988000    261.52448    409.66264    341.76082   -41565.108    41580.936    67.901816    38.923835 
188992000    265.18244    431.76823    300.71741   -41569.889    41567.733    131.05082    38.926844 
188996000      284.642    366.56764     253.9122   -41573.772      41576.8    112.65544    38.931214 
189000000    276.18732    256.01411    274.08761   -41554.481    41572.173   -18.073498    38.931018 
189004000    283.66827    310.89984    369.73455    -41558.83    41573.762   -58.834708    38.934396 
189008000    278.71774     494.6444    141.94587   -41579.058    41585.886    352.69853     38.93374 
189012000     269.8112     280.8011    297.96788   -41606.336    41601.962   -17.166779    38.933381 
189016000    266.33144    215.59062    514.41543   -41595.704    41595.548   -298.82481     38.92683 
189020000    282.84215    594.50475    85.928509   -41615.537    41607.054    508.57624    38.931154 
189024000    302.55576    356.20246    497.90199   -41617.554    41609.546   -141.69953     38.93038 
189028000    305.45874    336.18534    289.31558   -41636.407     41620.31    46.869764    38.927561 
189032000    333.04029    158.13895    228.08259   -41637.101    41621.804   -69.943636    38.921777 
189036000    285.89861    398.93515    390.99799   -41643.382    41640.626    7.9371577    38.924326 
189040000    288.74937    449.67292    493.05823   -41648.977    41651.045   -43.385311    38.931636 
189044000    291.09861    375.83823    199.64609   -41646.296    41663.155    176.19214    38.933256 
189048000    279.18041      354.537    292.61192   -41647.549    41666.737    61.925084     38.93489 
189052000    286.44682    627.22145    133.84886   -41641.381    41663.379    493.37259    38.932937 
189056000    257.72552    275.60175    188.95123   -41638.832    41667.246    86.650524     38.93177 
189060000    275.92616    474.11815    222.69552   -41662.616     41679.65    251.42263    38.924716 
189064000    256.25477    365.12926    266.06272   -41658.357    41681.871     99.06655    38.924426 
189068000    260.04786    472.82602    353.86726   -41683.647    41699.178    118.95877    38.925986 
189072000    275.83644     228.0162    369.32462   -41690.353    41692.158   -141.30842    38.920516 
189076000    302.62729    410.83783    436.77937   -41710.132    41697.191   -25.941545    38.917391 
189080000    313.51355    288.75692      363.637   -41721.175    41695.998   -74.880079     38.92292 
189084000    289.84791    432.54494    170.85907   -41738.203    41706.318    261.68587    38.922713 
189088000    309.85491    413.79836    410.68561   -41753.389    41722.188    3.1127478    38.919031 
189092000    292.38536    340.05268    226.87802   -41737.429    41746.547    113.17466    38.920223 
189096000    269.24798    398.12241    393.96534   -41754.093    41762.827     4.157073    38.915773 
189100000    290.63775    186.17713    332.26697   -41760.604    41755.894   -146.08984    38.918731 
189104000     285.1487    337.25177    232.90857   -41752.117     41777.24     104.3432    38.919852 
189108000    268.01924     193.6706    282.59133   -41745.171    41754.886   -88.920734    38.911389 
189112000    304.39516    386.04692    341.83347   -41781.149    41770.822    44.213452    38.911154 
189116000    260.45147    345.65059    397.01411   -41783.985    41778.937   -51.363524    38.915958 
189120000    275.45237    463.61448    457.75394   -41808.627     41808.51    5.8605341    38.915357 
189124000    279.42323    376.36234    421.37592   -41796.938    41805.787   -45.013583    38.919217 
189128000    292.17091    429.10151    317.38351    -41779.52    41802.078      111.718     38.91734 
189132000    263.41596    326.81294    244.99033     -41791.7     41825.48    81.822613     38.91304 
189136000     291.6023    433.82483    461.34059   -41800.786    41815.359   -27.515761    38.913251 
189140000    266.78097    241.45073    225.45001   -41826.393    41818.179    16.000726    38.917976 
189144000     288.0963    295.71276     486.4938   -41820.567    41814.575   -190.78103    38.914976 
189148000    262.61837    115.64908    286.32263   -41823.013    41836.456   -170.67355    38.913362 
189152000    309.15059    520.56718    357.85763   -41855.391    41827.411    162.70955    38.913312 
189156000      290.167    359.15748    453.50874   -41829.174    41823.114    -94.35126    38.915181 
189160000    276.79088    406.06298    483.90565   -41844.786    41847.972   -77.842668    38.910818 
189164000    293.24286    395.09115    158.06776   -41873.049    41850.103    237.02339    38.915169 
189168000    326.75218    395.58186    480.34615   -41875.146    41859.803   -84.764284    38.918899 
189172000    298.62705    429.17319    212.20504   -41878.483    41867.681    216.96816    38.910489 
189176000    291.85895     470.6393    360.58664    -41885.01    41877.081    110.05266    38.911189 
189180000    275.21229    251.22414    169.94264   -41885.498    41890.047    81.281502     38.90246 
189184000    303.05025    288.16179    278.87703   -41894.049    41896.749     9.284759    38.898794 
189188000     314.7127    483.09138    289.86018   -41915.239    41906.981     193.2312     38.89847 
189192000    289.48992    575.91834    501.15693    -41928.37    41914.551    74.761416    38.889711 
189196000    270.74042    332.86322    311.26853    -41917.55    41941.847    21.594697    38.885032 
189200000      268.346    337.71003    303.50617   -41927.612    41947.874     34.20386    38.883885 
189204000    259.42544    432.16083    268.43888     -41922.3    41956.038    163.72196    38.887937 
189208000    274.52333    312.13745    288.14705   -41914.669    41952.025      23.9904    38.881299 
189212000    256.08714    483.90964    332.82218   -41934.755    41957.563    151.08746    38.877791 
189216000    258.35911    385.67546    205.08458   -41941.895    41974.662    180.59088    38.877401 
189220000    256.71249    297.87325    303.44819   -41939.521    41968.519   -5.5749424    38.874507 
189224000    268.29585    534.97125    539.02469   -41964.834    41985.992   -4.0534449    38.877411 
189228000    257.36149    290.02971    336.37111   -41973.915    41993.333   -46.341401     38.87537 
189232000    254.94851    259.77892    436.42047   -41995.695    42015.912   -176.64156     38.88161 
189236000    271.31615    351.90694    275.81879   -42003.855    42014.392    76.088148     38.88851 
189240000    285.06738    494.77562    359.14207   -42013.659    42030.973    135.63356    38.891381 
189244000     262.2973    272.14408    419.19066   -42015.547    42043.138   -147.04658    38.899262 
189248000    259.45941    266.42657    163.44738   -42043.296    42059.148    102.97919    38.896925 
189252000    292.52528    383.62016    414.70888   -42044.549    42053.229   -31.088714    38.899209 
189256000    264.77598    616.60806    257.87484   -42059.683     42060.37    358.73322    38.903375 
189260000    278.69637    256.09578    330.84321   -42055.497    42070.865   -74.747432    38.893216 
189264000    310.53998    392.39051    308.22651   -42059.797    42065.979    84.164003    38.902628 
189268000    263.09054     284.3948    283.39372   -42068.067     42076.71     1.001073     38.90154 
189272000    282.86594    291.78346    392.25878   -42078.895    42079.413   -100.47532    38.903168 
189276000    270.71193    386.64149     563.6534    -42080.83    42105.662   -177.01191    38.910413 
189280000    273.28534    386.50625      280.086    -42107.01    42119.397    106.42025    38.906123 
189284000    264.18189    229.72088    394.08981   -42098.405    42132.363   -164.36893    38.907635 
189288000    275.55727    169.12747    370.90706   -42118.892    42134.366   -201.77959    38.902578 
189292000    261.29517     393.2552    187.97531   -42137.893    42149.456     205.2799      38.8997 
189296000    276.20406    186.01343    422.02688   -42147.452    42162.165   -236.01345    38.901208 
189300000    297.39607    466.68105    322.67303   -42177.157    42175.743    144.00802    38.906863 
189304000    282.57791    381.31636    297.79293   -42181.188    42191.019    83.523431    38.905906 
189308000    283.29172    504.34642     355.5738   -42189.369    42178.115    148.77262    38.905072 
189312000    291.42524     338.3971    408.72297   -42184.528    42195.213   -70.325863    38.903031 
189316000    290.96638    257.17117    797.61534   -42186.132    42190.979   -540.44417    38.894232 
189320000    264.88261     220.9941    388.61346   -42202.755    42224.638   -167.61936    38.890457 
189324000    299.75964    292.93933    455.70644   -42226.659    42225.314   -162.76711    38.889698 
189328000    276.34849    273.75263    382.85459    -42225.07    42248.422   -109.10197    38.885475 
189332000    261.06121    486.36272    324.89363   -42237.788    42261.448    161.46909    38.882512 
189336000    280.56434    221.21134    433.49055   -42252.572    42263.105   -212.27921    38.883622 
189340000    279.49207    258.57324    134.89344   -42276.071    42286.175     123.6798    38.892972 
189344000    280.70901    426.82385     363.0102   -42284.157    42286.332    63.813656    38.896552 
189348000    274.72761    255.02344    428.85947   -42291.634    42292.932   -173.83603    38.897289 
189352000    292.95134     277.2647    404.01009    -42295.55    42296.631   -126.74538     38.89515 
189356000    271.33109    291.95217     440.7895   -42307.202    42330.802   -148.83733     38.89196 
189360000    268.92431    356.03292    160.98715   -42322.675    42326.179    195.04577    38.892351 
189364000    289.34956    439.29821    412.22526   -42312.567    42328.413    27.072941    38.892836 
189368000    268.71515    243.29239    149.54481   -42321.927    42338.735    93.747587    38.891194 
189372000    286.41813    335.93356    322.67615   -42332.442    42340.601    13.257413    38.889313 
189376000    294.82707     484.7683     455.5095   -42346.294    42340.015    29.258796    38.888764 
189380000    277.84515     604.6206    354.24057   -42350.192    42347.167    250.38003     38.88581 
189384000    263.58556    514.71779    377.00834   -42347.507    42346.745    137.70946    38.883607 
189388000    257.26943    508.43403    399.11296   -42352.644    42372.953    109.32107     38.87745 
189392000       281.33    330.32328    503.90666   -42367.835    42373.951   -173.58338    38.876795 
189396000    281.67149    448.87296    382.56213   -42357.502    42374.937    66.310829    38.878298 
189400000     289.3515    374.43797    314.27657   -42371.279    42370.587    60.161394    38.875744 
189404000    303.53274    384.08007    487.04913   -42387.141    42377.022   -102.96907    38.877451 
189408000    281.56847    325.09187    348.63753   -42395.876    42398.044   -23.545657    38.872419 
189412000    266.87179    377.86725     493.7575   -42398.196    42416.084   -115.89024    38.871589 
189416000    260.78559    236.58782    577.16342   -42392.107     42412.54    -340.5756    38.873294 
189420000    322.42087    273.66166    547.92353   -42413.488    42390.625   -274.26187    38.874328 
189424000    283.25466    351.54154    461.66601   -42396.508    42405.132   -110.12448    38.880942 
189428000    290.58411    379.25756    264.01228   -42413.101    42425.525    115.24528    38.881994 
189432000    288.82181    299.87477     496.0231   -42429.647    42448.466   -196.14833    38.879835 
189436000    264.76759     458.2005    262.42433   -42430.673    42463.425    195.77617    38.881134 
189440000    281.54481    467.75855    299.35912   -42440.927    42463.095    168.39943    38.878993 
189444000    286.49874    315.25045    249.90334    -42455.09    42463.277    65.347104    38.887123 
189448000    281.01882     203.8698     266.6242   -42456.403    42473.817     -62.7544    38.884842 
189452000    280.40797    822.68174    210.79304   -42471.882    42478.594     611.8887    38.887655 
189456000    264.56583    371.76695    313.06057   -42468.826    42501.292    58.706386    38.884184 
189460000    260.56132    317.67941    196.94493   -42493.232    42532.219    120.73449    38.888654 
189464000    270.60018    609.81574    329.68383   -42524.867    42551.231    280.13192    38.884697 
189468000     285.1291     259.4628    278.09629   -42540.484    42550.884   -18.633491      38.8807 
189472000    288.09047    182.67436    306.72363   -42533.654    42545.097   -124.04927    38.878575 
189476000     287.4836     330.9597    613.85367   -42533.655    42541.119   -282.89397    38.877597 
189480000     297.2339     336.1709    343.49865    -42545.34    42539.259   -7.3277485     38.87683 
189484000    289.34163    394.41494    306.83561   -42556.735    42546.876    87.579326      38.8769 
189488000     293.9909    363.91456     317.9653   -42589.053    42584.853     45.94926    38.870586 
189492000    288.08061    579.21584    303.01014   -42598.522    42597.333    276.20569      38.8723 
189496000    310.32142     541.0719    366.84915   -42603.978    42600.923    174.22274    38.871231 
189500000    281.91841    385.74512    328.37724   -42586.125    42596.841    57.367885    38.868476 
189504000    265.61495    395.80509    431.57967   -42603.258    42617.444   -35.774574    38.869233 
189508000    265.90838    414.26923    351.39982   -42615.152    42623.847    62.869413    38.873421 
189512000    299.56065     295.8315    329.10386   -42630.151    42622.659   -33.272359    38.870012 
189516000     315.5958    558.63561    525.90976   -42634.915    42610.866    32.725852    38.874503 
189520000     285.1886    312.78614    574.45468   -42627.538    42635.705   -261.66855    38.878006 
189524000     271.1436    533.65822    463.90743   -42615.433    42643.137    69.750789    38.874412 
189528000    259.99615    369.60726    310.63635   -42618.882     42641.54    58.970912     38.87518 
189532000    307.94417    426.78293    407.60838   -42632.502    42637.591    19.174556    38.874405 
189536000    254.68086    363.05041    353.28748   -42614.771    42647.036     9.762928    38.869045 
189540000    259.47741    482.74705    396.76594   -42610.612    42645.339    85.981105    38.868836 
189544000    284.75358    337.52186    545.73591   -42631.185    42634.817   -208.21405    38.864543 
189548000    283.62959    444.25644    506.80634   -42636.905    42652.196   -62.549898     38.86236 
189552000    290.76631    395.21062    323.49993   -42652.065    42661.581    71.710691     38.85791 
189556000    295.90333    252.47029    204.80571   -42675.611    42672.013    47.664577    38.856725 
189560000    285.42128    357.01347    332.55173   -42693.358    42691.111    24.461741    38.855255 
189564000    303.93157    452.86276    403.50649   -42700.904    42693.794    49.356269      38.8444 
189568000    279.19142    450.80325    470.97777   -42716.507    42713.658   -20.174522    38.841961 
189572000    290.81605    530.99652    293.06154   -42715.914    42726.942    237.93499    38.843865 
189576000    273.73468    305.02823    362.09361   -42701.884    42722.224    -57.06538    38.845899 
189580000    288.41025     374.0681    489.66344   -42712.286    42727.727   -115.59534    38.844364 
189584000    294.68513    344.28647    333.00525   -42724.526    42734.809    11.281226     38.84176 
189588000    299.36739    526.46096       350.25   -42729.119    42744.968    176.21095    38.848354 
189592000    270.72645    375.71902    292.81441   -42734.643     42745.22    82.904612     38.85628 
189596000    280.46743    217.17947    490.47737   -42741.184    42752.274    -273.2979    38.858957 
189600000    255.61295    300.46894     277.5387   -42748.243    42785.401    22.930234    38.850782 
189604000    274.85442    409.22827    311.71087   -42765.581     42782.71    97.517402    38.852133 
189608000    257.59933    391.74089    389.52459   -42779.764    42800.968    2.2163039    38.859125 
189612000    246.40827    336.63136    288.93505   -42806.202     42810.88    47.696312    38.857279 
189616000    291.65434    364.49877    317.92289   -42807.439    42817.167    46.575879    38.852791 
189620000    303.80299    439.60436    200.51655   -42824.471    42818.197    239.08781    38.850291 
189624000    313.98911    352.49055    420.58371   -42834.734    42806.844   -68.093157    38.842697 
189628000    313.17531    430.43709     240.1556   -42857.693    42833.427    190.28149    38.836591 
189632000    282.10063    330.32472    214.15938   -42841.317    42843.044    116.16534    38.832507 
189636000    304.87055    216.16605    334.39759    -42848.81    42852.411   -118.23155    38.830211 
189640000    294.45084     329.7655    409.82032   -42844.653    42835.985   -80.054821     38.82099 
189644000    267.95822    232.36568    526.64593   -42836.813    42841.467   -294.28025    38.826088 
189648000    296.37634    297.82692    444.53751   -42853.209    42845.119   -146.71059    38.822128 
189652000    313.10527    415.65802     457.7409   -42868.682    42862.427   -42.082878    38.826665 
189656000    280.87718    439.35652    244.53159   -42862.851    42877.453    194.82493    38.832477 
189660000    254.25085    428.38797    204.17739   -42881.972    42904.345    224.21057    38.834802 
189664000    288.53602    359.74731    248.19123    -42895.37    42911.765    111.55608    38.832009 
189668000    248.80793    223.00842    252.75221   -42893.305    42910.101   -29.743791    38.829099 
189672000    272.02846    138.71644     373.0292   -42904.903    42920.158   -234.31275    38.832728 
189676000     253.8166    272.21049    291.38871   -42909.084    42945.304    -19.17822    38.830461 
189680000    261.48652    338.99173    390.35789   -42924.815    42947.315   -51.366162    38.828107 
189684000    273.09633    474.26527     265.0889   -42951.457    42971.943    209.17637    38.826225 
189688000    265.92355    476.15976    330.13869   -42984.537    42992.791    146.02107    38.828821 
189692000    275.48909    253.22174    430.95661    -42981.05    42998.747   -177.73486    38.824087 
189696000    284.16284     316.4755    438.31576   -42981.297    42988.416   -121.84025    38.819388 
189700000    272.06165    270.96175    349.49208   -42986.261    43001.152    -78.53033     38.81825 
189704000    270.57759    271.17935    287.91558   -42989.331    43000.993    -16.73623    38.816779 
189708000    280.08184    386.63037     471.3218   -43011.554    43010.394    -84.69143    38.818389 
189712000    299.34317    411.37725    340.80321    -43007.53    43021.887    70.574033    38.813707 
189716000    266.53001    182.62165    319.43482   -43018.625    43036.661   -136.81317    38.818207 
189720000    262.67086     250.4504    577.37991   -43041.442    43043.388   -326.92951    38.819654 
189724000    250.84572    207.28595    391.97022   -43028.392    43054.721   -184.68427    38.827281 
189728000    286.34964    273.09422    238.42344   -43029.856    43058.042    34.670778     38.82715 
189732000    253.54983    334.67179    305.65625   -43040.346    43049.202    29.015544    38.825612 
189736000    276.74257    359.87749    330.94054   -43037.588    43055.956     28.93695    38.825552 
189740000    299.51021      613.722    422.78444    -43052.96    43060.085    190.93756    38.825428 
189744000    299.87261    187.25597    222.00057   -43053.036    43066.503   -34.744595    38.826321 
189748000    269.86287    377.48808    381.59633   -43060.777    43071.077   -4.1082534    38.829066 
189752000    291.91299    345.98561    259.04947   -43052.026    43071.592    86.936143    38.827304 
189756000    278.82104    407.70948    299.07001   -43062.163    43072.055    108.63947    38.824864 
189760000    279.03406    412.36717    279.89916   -43083.062    43078.673    132.46801    38.831807 
189764000    300.06658    348.31465    539.19861   -43094.525    43077.246   -190.88396    38.835385 
189768000    309.91577    274.58055     351.2232   -43096.824    43096.281   -76.642649    38.841342 
189772000    321.13188    408.58531    499.71973   -43114.393    43103.105   -91.134421     38.84884 
189776000    311.81204    546.37628    357.15247   -43134.956    43122.084    189.22382    38.848748 
189780000    287.41224    268.34755    340.75863   -43147.805    43143.259   -72.411082    38.846116 
189784000    293.35987    371.84038    369.17352   -43147.532    43161.913    2.6668637    38.844111 
189788000    288.01248    407.46114    551.18532   -43166.301    43162.684   -143.72418    38.839181 
189792000    288.92665    568.80821    245.85094   -43183.133    43182.042    322.95727    38.838048 
189796000     273.0197    345.61683    162.12392   -43179.431    43183.954     183.4929    38.843353 
189800000    248.34577    380.19894    175.81434   -43177.872    43206.072     204.3846    38.844929 
189804000    259.49031    668.17962    237.48558   -43183.394    43209.012    430.69404    38.847146 
189808000    271.71633    348.51384    397.70191   -43179.983    43189.775   -49.188068    38.849536 
189812000    286.21877    399.40716    321.44324   -43181.472    43188.904    77.963918    38.850103 
189816000    307.19261    589.36582    548.26332   -43192.858    43195.375    41.102505     38.85326 
189820000    279.49189    392.63119    318.97566   -43203.875    43209.491    73.655533     38.84954 
189824000    290.85835    253.51231    387.54835   -43220.182    43211.454   -134.03604    38.842864 
189828000    278.44428    291.01195    272.68498   -43228.171    43221.804    18.326972    38.839487 
189832000    288.66432    430.53212    475.95568    -43235.62    43239.699   -45.423562    38.842545 
189836000    263.50738     508.7981    433.25384   -43251.163    43270.483    75.544265    38.847889 
189840000     269.0806     390.8731    206.15963   -43249.287    43268.952    184.71346    38.842968 
189844000    259.49462    468.89425    290.60606   -43245.368    43283.185    178.28819    38.841998 
189848000    279.12212    379.58802    238.08068   -43256.805    43278.199    141.50734    38.838749 
189852000    293.56026    374.22115    237.62432   -43263.216        43286    136.59683     38.84099 
189856000    273.24986     440.9185    328.87168   -43294.936    43286.299    112.04682    38.832788 
189860000    284.71619    381.33805    414.71735    -43308.54    43315.568     -33.3793    38.825688 
189864000    257.70616    302.09224    602.42069   -43309.446    43330.694   -300.32845    38.818276 
189868000    294.76577    477.16782    559.62356   -43345.452    43334.823    -82.45574    38.805969 
189872000    279.83871    368.87097    432.09841   -43354.636    43357.064   -63.227437    38.807448 
189876000    332.72841     455.1403    213.58212   -43364.592     43343.48    241.55818    38.806376 
189880000    317.83452    331.98938     406.0349   -43380.132    43353.685   -74.045523    38.805131 
189884000    281.55424    157.57799    254.02283   -43371.271    43373.169   -96.444831    38.807455 
189888000    279.16929    469.18692    296.24079    -43379.67     43367.82    172.94613    38.808682 
189892000    313.14502    448.24358    381.30875   -43381.544    43381.873    66.934835    38.810698 
189896000    288.45076    313.71582    288.35905   -43380.296    43384.714    25.356763    38.817463 
189900000    299.20891    287.46563    350.19503   -43374.244    43384.392   -62.729401    38.810059 
189904000    269.76209    217.49812    282.12342   -43379.934    43391.256   -64.625292    38.814033 
189908000    281.47572    341.80834    291.54395   -43385.088    43390.374    50.264382     38.81655 
189912000    282.94878    416.36364    368.18534   -43367.928    43385.641    48.178303    38.817458 
189916000    285.89426    279.90474     436.3022   -43376.479    43386.509   -156.39746    38.820621 
189920000    282.64223    206.19096    331.25663   -43390.097    43382.751   -125.06568    38.818427 
189924000    270.10662    296.19443    355.42824   -43410.372    43392.206   -59.233809    38.816072 
189928000    304.59583     362.6873     452.9901   -43420.812    43416.846   -90.302803     38.81968 
189932000    287.62955    326.62685    327.17952    -43427.41    43416.221  -0.55266927    38.817795 
189936000    290.63663     465.2302    372.03203   -43432.833    43428.909     93.19817      38.8181 
189940000    267.50717    233.73999    108.68479   -43433.622    43434.124    125.05521    38.815806 
189944000    297.33729    277.89045    213.51219   -43453.121    43443.126    64.378269    38.813751 
189948000    282.64124    296.94767    383.49667   -43447.063    43462.303   -86.549001    38.807097 
189952000    283.76742    523.25582     386.5592   -43458.336    43467.601    136.69662    38.803424 
189956000    275.27736    405.89541    203.03659   -43472.741    43487.352    202.85882    38.803051 
189960000    256.31429    338.66799    276.52652   -43480.663    43509.642    62.141473    38.797532 
189964000     283.5189    371.74121    346.93528   -43494.717    43504.614    24.805924    38.788203 
189968000    307.02449    544.59368    230.98264   -43505.575    43513.464    313.61104    38.788173 
189972000    297.18524    416.10504    126.15038   -43527.391    43519.777    289.95466    38.794008 
189976000    278.66595    157.00298    204.99603   -43519.808     43515.68   -47.993053    38.796541 
189980000    247.56774    502.78556    297.45728   -43519.771    43529.785    205.32828    38.794321 
189984000    283.45871    288.70208    636.00738   -43520.896    43514.507    -347.3053    38.791564 
189988000    287.41598    303.96503    568.45875   -43511.506      43516.8   -264.49373    38.785528 
189992000    294.80111     345.7859    343.21332   -43530.317    43522.258    2.5725867    38.789375 
189996000    268.34309    301.31594    609.12496   -43530.341    43518.118   -307.80902    38.783855 
190000000    272.33217    400.28929    337.91781   -43533.587    43537.234    62.371483    38.777517 
190004000     249.3174      326.941    340.21696   -43530.591    43546.037   -13.275956    38.779138 
190008000    257.16391    250.06561    132.83054   -43528.428    43564.637    117.23507    38.774095 
190012000    263.81923    609.53154    352.14725   -43544.269    43573.065    257.38429    38.781817 
190016000    263.12874    365.22046    163.21767   -43552.953    43589.259    202.00279    38.782097 
190020000    258.35735    245.99858    489.92675   -43574.245    43583.143   -243.92817    38.771462 
190024000    277.64673    370.57951    306.81409   -43565.891    43591.479    63.765418    38.773741 
190028000    283.12063    294.98139    429.90228   -43575.595    43575.541   -134.92089    38.774819 
190032000    292.17118    567.53517    488.78853   -43572.795    43584.993    78.746636    38.773225 
190036000     264.8651    292.75622    399.85184   -43584.806    43593.389   -107.09562    38.769439 
190040000    271.49029    502.96014    387.25283   -43587.895     43612.97    115.70732    38.779996 
190044000    255.70605    429.49805    154.72606   -43595.291    43632.456    274.77199    38.778089 
190048000    281.01088    367.91469     253.5912    -43634.45    43628.462    114.32349    38.775311 
190052000    284.84988    489.06552    232.13931   -43630.759    43637.552    256.92621    38.767217 
190056000    281.55917    439.30653    341.88886   -43644.254    43644.179    97.417679    38.765775 
190060000    298.82336    212.78739     461.6487   -43652.526    43646.779   -248.86131    38.760404 
190064000    239.62773    205.20447    377.92758   -43636.889     43660.87   -172.72311    38.759789 
190068000    255.93188    257.58224    320.44812   -43642.984     43662.56   -62.865882    38.762341 
190072000    261.69866    537.27578    393.26191     -43640.3    43659.952    144.01387     38.76299 
190076000    281.44369    261.10221    486.77203   -43637.404    43648.829   -225.66982    38.761917 
190080000    295.12271    363.64278    325.63871   -43652.023    43673.153    38.004072    38.766579 
190084000    273.14373    424.92973    315.56666   -43659.164    43674.539    109.36307    38.767204 
190088000    277.84809    541.78428    220.79488   -43651.942    43663.183     320.9894    38.775215 
190092000    266.74075    526.77455    364.28966   -43655.154    43680.425    162.48489    38.781713 
190096000    283.79981    609.40025    424.28873   -43659.395    43668.311    185.11152    38.779131 
190100000    263.85598    407.82219    203.30066   -43663.477    43689.069    204.52153    38.781672 
190104000    274.93239    465.87396    257.86676   -43672.357     43694.29     208.0072     38.78118 
190108000    295.43281    450.60169    261.87377   -43694.707    43701.914    188.72792    38.780228 
190112000    287.85216    344.26458    282.46653   -43704.676    43701.121    61.798045    38.774087 
190116000    275.24591     352.8726    372.71637   -43686.662    43703.759   -19.843776    38.776869 
190120000    275.81153     273.9672     437.4608   -43711.643    43729.992   -163.49361    38.772902 
190124000    258.51221    284.82648    276.17125   -43706.594     43735.73    8.6552359    38.771141 
190128000    278.38194    250.26198    326.16422   -43718.216      43735.3   -75.902241    38.769223 
190132000    297.06119    337.59251    393.47603   -43731.334    43740.169   -55.883524    38.768468 
190136000    301.10419     789.2712    341.81497   -43747.726    43755.887    447.45623    38.769999 
190140000    279.34813    530.64502    303.52227   -43754.032    43778.635    227.12275    38.770641 
190144000    280.52798    416.34632    269.50377   -43768.028    43786.689    146.84254    38.768416 
190148000    281.62291     317.3438    337.36216   -43788.155    43783.631   -20.018357    38.770362 
190152000    301.74573    514.62884    281.01327   -43802.845    43807.765    233.61557     38.77379 
190156000    282.66736    412.42338    338.49489   -43800.226     43804.65    73.928491    38.770876 
190160000    283.25875    550.61185    173.25029   -43806.615    43814.915    377.36156    38.767885 
190164000    278.03309    304.17876     286.9839   -43795.341    43817.696    17.194855    38.772082 
190168000    289.42238    213.43998    242.84078   -43807.453    43817.953   -29.400809    38.771682 
190172000    293.99194    468.23977    438.72128   -43821.312    43825.442    29.518487    38.767472 
190176000    266.85077    195.33539    404.92682   -43820.737    43833.807   -209.59143    38.772398 
190180000    274.57198     360.2884    305.60387   -43811.489    43826.986    54.684528    38.775346 
190184000    291.84531    358.99867    279.41975   -43847.132    43841.839    79.578914    38.775006 
190188000    301.72389    265.71787    540.16898   -43843.821    43855.582   -274.45111    38.772253 
190192000    285.41669    271.84222    517.42837   -43865.687    43877.015   -245.58615    38.769407 
190196000    272.47969    337.03506    391.69643   -43875.213    43879.594    -54.66137    38.761687 
190200000    292.93348     419.0917    670.13459   -43876.116    43882.338   -251.04289    38.762146 
190204000    277.14767     415.2189     429.7222   -43901.055    43888.718   -14.503302     38.75426 
190208000    293.62392    270.37186    361.25035   -43881.471    43882.635   -90.878495    38.746058 
190212000    267.78923    420.66149    437.93314   -43887.478    43883.981   -17.271655    38.745415 
190216000    302.11138    587.76805    405.95996   -43870.702    43880.652    181.80809    38.748628 
190220000    260.07755    375.09785    350.57517   -43862.801    43877.313    24.522675    38.753409 
190224000    286.21174    395.88287    229.69885   -43856.842    43870.242    166.18402    38.754751 
190228000    274.76631    538.79425    203.51566   -43863.477    43878.598    335.27859    38.756551 
190232000    271.49346    305.58183    264.13258   -43872.588    43888.328    41.449255    38.748981 
190236000    295.82776    280.73642    545.45562   -43888.651    43893.811    -264.7192    38.746603 
190240000     281.1178    364.53824    383.09038   -43894.236    43914.916   -18.552139    38.740397 
190244000    291.47277    391.70341    484.45576   -43906.565    43914.186   -92.752353    38.735388 
190248000    272.42891    431.31163    189.90964   -43912.983    43946.532    241.40199    38.726324 
190252000    243.63617    250.80846     280.6806   -43931.369    43966.526   -29.872138     38.73049 
190256000    276.32184    332.61961     345.9418   -43947.048    43969.516   -13.322191    38.732646 
190260000    255.89472    221.92827    282.27438   -43949.564    43980.617   -60.346109    38.734695 
190264000    283.82734    346.38061    522.49575   -43972.233    43977.304   -176.11514    38.729947 
190268000    290.14951    437.48594    323.20475   -43982.419    43988.372    114.28119     38.73042 
190272000    268.40004    504.72902    332.69459   -43967.912    43987.694    172.03443     38.73061 
190276000    309.60522    265.03785    453.49519   -43982.182    43976.865   -188.45735    38.731295 
190280000    315.31662     316.8207    349.15137   -43986.788    43989.793   -32.330669    38.736529 
190284000    285.40102    209.40382    323.82503   -43994.919    43999.626   -114.42121    38.733082 
190288000    288.41718    523.04267     286.9885   -44000.645    44005.101    236.05417    38.727012 
190292000    250.90727    321.56339    294.61949   -43980.731    44030.978    26.943904    38.726453 
190296000    257.92869    302.05856    568.40527    -43981.73    44023.561   -266.34671    38.726693 
190300000    256.87898    259.64048    220.66508   -43992.536    44036.169    38.975398    38.735209 
190304000    235.83363    240.00741     152.3622   -44011.898    44038.475     87.64521    38.741692 
190308000    297.31119    306.79171    135.61543   -44058.149    44043.914    171.17629     38.73661 
190312000     285.8621    606.55784     373.8406   -44057.388    44050.458    232.71724    38.736306 
190316000     279.1432    304.67786    424.91826   -44049.478    44059.695   -120.24039    38.730375 
190320000    295.98114    517.50362     556.3379   -44046.973    44056.605   -38.834277    38.730291 
190324000     286.8436    559.61866    306.94413   -44059.944    44066.104    252.67452    38.731459 
190328000    267.28089    226.67137    323.08064   -44042.565    44064.119   -96.409271    38.728608 
190332000    327.66843    437.42768    503.80888   -44059.242    44056.235   -66.381203    38.723186 
190336000     268.1529    156.04313    323.51293   -44049.356    44077.841   -167.46981    38.727665 
190340000    293.75768    405.55465    334.58696   -44067.502    44067.951    70.967693    38.728233 
190344000    285.84475    278.47627     253.8052   -44087.359    44071.619    24.671067    38.724626 
190348000    297.22947    223.75384    265.74787   -44090.718     44092.66   -41.994034    38.720855 
190352000    287.38701    299.03567    212.69818   -44088.673    44084.219    86.337493    38.720509 
190356000    289.34167    636.99666      311.613   -44088.851    44091.694    325.38366    38.729177 
190360000    280.08349    384.83081    348.07848   -44095.155    44094.575    36.752328    38.733255 
190364000    286.85797    409.25064    399.48307   -44113.765    44115.249    9.7675687    38.733072 
190368000    302.67574    531.62737      549.155   -44110.587    44113.089   -17.527624    38.730658 
190372000    280.04024    269.92374    296.65446   -44113.646    44117.676   -26.730724    38.727478 
190376000     265.1151    373.38907    318.44491   -44100.933    44141.799    54.944164     38.73402 
190380000    246.50335    246.36871    274.17837   -44090.882    44132.359   -27.809666    38.737282 
190384000     264.3008    412.77189    298.15737   -44093.257    44121.965    114.61453    38.735887 
190388000    275.06625    216.48492    367.08703   -44118.116    44127.543   -150.60211    38.736348 
190392000    285.33262    288.57424    232.75834   -44126.653    44128.603    55.815904    38.737309 
190396000    293.93583    514.98699    268.44278   -44149.648    44126.041    246.54421     38.73236 
190400000    298.55265    235.68791    356.26563   -44131.526    44139.425   -120.57771    38.736059 
190404000    282.47964    300.21146     244.5706   -44144.182    44159.005     55.64086    38.733332 
190408000    264.66093    456.27667    158.17813   -44138.025    44159.772    298.09854    38.735617 
190412000     271.2845    372.46311    275.29578   -44159.887    44163.564    97.167328    38.732979 
190416000    285.40778    463.18725     366.1106    -44168.07     44159.21    97.076654    38.735821 
190420000    309.87808    485.10662    406.46234   -44185.028    44179.226    78.644277    38.738838 
190424000    301.71988    408.39698    196.28038   -44190.849    44187.939     212.1166    38.741672 
190428000    292.82004    411.08425    444.26677   -44192.674    44184.556   -33.182521    38.746059 
190432000    280.79169    402.03808    264.81705   -44207.957    44222.529    137.22103    38.749472 
190436000    282.95951    405.07767    200.65843   -44219.189    44230.467    204.41924    38.747463 
190440000    292.13433    398.91198     430.4974   -44246.582    44221.796   -31.585417     38.75259 
190444000    322.28495    256.41154    429.58822   -44255.317    44225.904   -173.17668    38.746276 
190448000    306.96303    339.76538    519.84914   -44253.676    44248.025   -180.08377    38.744765 
190452000    273.68058    249.96448    233.04387   -44234.846    44253.391    16.920618    38.741496 
190456000    235.92046    315.39721    225.52184   -44247.302    44261.459    89.875378       38.743 
190460000    324.92493     252.5617    408.53511   -44268.219    44261.582   -155.97341     38.74394 
190464000    269.62961     185.0549     379.4474    -44261.69    44271.287    -194.3925    38.745896 
190468000    279.55864     532.4591    299.48274   -44260.075    44272.984    232.97635    38.751643 
190472000    299.53893     442.4156    464.96778   -44267.505    44273.547   -22.552184    38.750668 
190476000    289.43738     169.6057    180.87288   -44288.025    44282.125   -11.267185    38.752064 
190480000    289.31599     205.8729    410.40433   -44290.582    44283.101   -204.53143    38.756472 
190484000    263.17528    472.00874    263.71297   -44281.577    44296.441    208.29577    38.765007 
190488000    283.42999    438.50278    298.61638   -44274.767    44300.037     139.8864    38.762938 
190492000    267.96875     421.6957    225.61063   -44274.519     44302.92    196.08507    38.766708 
190496000    294.90347    493.18954    411.22839   -44305.308    44304.365    81.961148    38.776951 
190500000    286.52908    695.07333    299.75253   -44295.356    44297.628    395.32081    38.774256 
190504000    289.61864    266.43477    477.18824   -44281.771    44294.657   -210.75347    38.770532 
190508000     268.9663    554.46413    403.12688   -44289.594    44305.339    151.33725    38.767326 
190512000    265.37273    165.80989    569.81389   -44279.304    44302.876     -404.004    38.764587 
190516000    275.24435    233.68846     440.7843   -44297.217    44307.365   -207.09583    38.757496 
190520000     263.4907    399.86086    304.41383   -44292.789    44310.354    95.447028    38.756812 
190524000    289.34778    337.47713    291.38983   -44302.462    44311.378    46.087301    38.757871 
190528000    271.50524    391.82542    383.48763   -44303.895    44314.318    8.3377879    38.756328 
190532000    268.61779    347.53798     379.7675   -44311.918    44328.083   -32.229524    38.750182 
190536000     266.7964    300.11442    194.73782    -44334.22    44342.824     105.3766    38.750474 
190540000    293.12751     526.3154    275.42127   -44329.022    44353.706    250.89413    38.746407 
190544000    294.47011     479.8994    416.20145   -44352.097    44356.278     63.69795    38.746525 
190548000    288.19825    226.38178     394.5023   -44348.679    44350.122   -168.12052    38.744114 
190552000     298.4833    806.29079    156.55075   -44375.961    44361.852    649.74005     38.74138 
190556000    269.89202    367.18469    128.96521   -44358.453    44378.977    238.21947    38.745636 
190560000    286.55636    248.04314    366.21295   -44353.454    44359.615   -118.16981    38.743165 
190564000    322.35123    466.33308    281.45245   -44371.076    44354.191    184.88063    38.741009 
190568000    305.50372     381.1785    221.97753    -44368.84    44354.057    159.20097    38.742606 
190572000    302.50034    715.99167    369.42217   -44367.608    44359.936     346.5695    38.751004 
190576000    283.51685    442.77651    198.95607   -44383.965    44390.867    243.82044    38.759326 
190580000    256.72094    442.41688    391.10211   -44386.683    44408.522    51.314768    38.757603 
190584000    292.93084    286.65109    363.47098   -44397.155    44406.245   -76.819887    38.757971 
190588000    289.49918    401.68238    418.97402    -44413.36    44418.492    -17.29164     38.75813 
190592000    290.53788    281.21644    351.18979   -44414.538    44433.952   -69.973344    38.753893 
190596000    282.34992    545.10181    315.25864   -44435.257    44445.898    229.84316    38.752901 
190600000    268.51138    324.87871    287.64817   -44435.729    44445.498    37.230543    38.753147 
190604000    294.23818    380.21723    199.13686   -44466.287    44448.537    181.08037    38.755582 
190608000    281.24415     426.2789    334.16135   -44441.867    44447.302    92.117553    38.758995 
190612000     277.9021    431.92706     304.2651   -44435.826    44459.334    127.66196    38.766458 
190616000    262.47836    319.18931    452.94863   -44428.391      44446.7   -133.75932    38.765397 
190620000    273.84406    363.52616    222.67662   -44432.946    44446.186    140.84954    38.761908 
190624000    289.01299    241.48114    283.00777   -44440.583    44449.066   -41.526626    38.757056 
190628000    294.68528    515.90724    331.89524   -44472.096    44462.859      184.012    38.753721 
190632000     281.9839     456.9817    276.13352   -44475.287    44469.954    180.84818    38.757577 
190636000    288.55931    431.16646    343.11621   -44466.882    44486.245    88.050243    38.760448 
190640000    264.47179    224.94947    279.06585   -44456.982    44492.145   -54.116377     38.76254 
190644000    274.52201    313.55255    357.53185   -44479.054    44512.046   -43.979296    38.760905 
190648000    288.50517    365.79183    430.25577   -44471.389    44484.799   -64.463941    38.765177 
190652000    286.42411    247.16084    223.16329   -44481.882    44498.583    23.997556    38.765828 
190656000     263.0219    275.10358    265.11187   -44493.022    44510.108    9.9917085    38.768533 
190660000    291.49671      470.978    294.30419   -44503.441    44512.756    176.67381    38.768107 
190664000    265.57783    442.14884    356.36952   -44512.605    44530.043     85.77932    38.769415 
190668000    270.36042    375.36815    336.78969   -44529.621    44527.056    38.578456    38.770065 
190672000    290.59172    263.52133    210.66484   -44513.843     44527.79    52.856487    38.776555 
190676000    286.34481     426.0405     354.6785   -44521.218    44522.339    71.362001    38.776665 
190680000    259.75694    418.16473    301.09286   -44522.998    44546.795    117.07187    38.771488 
190684000     294.0374    549.30209    318.75223   -44538.064    44541.339    230.54986    38.777038 
190688000    284.50983    355.37974    377.23033   -44547.622    44564.353   -21.850594    38.768528 
190692000    261.22404    296.92624     251.7336    -44547.88     44572.27    45.192642     38.76479 
190696000    268.66745    286.03083    228.08182   -44553.298    44571.941    57.949006    38.766866 
190700000    284.71136     310.7396    296.32874   -44553.596     44561.98    14.410868    38.759523 
190704000    267.82117    434.13037    304.87162   -44536.635    44558.778    129.25876    38.762564 
190708000     289.4277    267.92766    285.49823   -44574.039    44578.615   -17.570576    38.766756 
190712000    256.79937    346.50288    192.07011   -44593.035    44619.646    154.43277    38.756837 
190716000    286.16684    431.40425    420.12089   -44607.819    44619.442    11.283358    38.755507 
190720000    293.35099    390.08967    518.53321   -44613.172    44623.251   -128.44354    38.756584 
190724000    295.29345    204.62423    447.13157   -44635.957    44640.211   -242.50734    38.762703 
190728000     324.7059    517.49724    308.39956   -44646.197     44638.94    209.09768    38.757385 
190732000    314.42066    354.71205    406.66393   -44648.659    44636.556   -51.951881     38.75804 
190736000     264.3417    306.96964    340.45383    -44652.75    44654.755   -33.484187    38.759806 
190740000    274.80686    316.59792    283.43887   -44646.898    44662.459    33.159042    38.767866 
190744000    299.41582    433.25176    278.98453   -44649.947    44655.923    154.26722    38.766423 
190748000    278.24443     269.5794     218.9274   -44652.052    44669.541    50.652002    38.765164 
190752000    287.74662    403.41882     498.8904    -44637.91    44652.949    -95.47158    38.758932 
190756000    306.79497    381.93974    301.43377   -44653.077    44642.053    80.505971     38.75842 
190760000    322.73014    357.98248    357.93043   -44659.768     44648.99  0.052048204    38.761065 
190764000    287.99657    601.70938    299.67607   -44661.209    44660.752    302.03331    38.763511 
190768000    288.17208    422.09047    454.48603   -44672.107     44675.88   -32.395558    38.763315 
190772000      264.386     332.4192    539.46025   -44674.693    44696.741   -207.04106    38.754045 
190776000    278.69747    418.12749    556.67745    -44685.68    44685.152   -138.54996    38.748998 
190780000    262.33545    189.92589    307.86599    -44682.43    44704.701   -117.94009    38.752591 
190784000    269.21704    313.05423    274.34668   -44686.935    44700.087    38.707555     38.74829 
190788000    303.55614    244.38735    266.47934   -44703.138    44708.153   -22.091989    38.755279 
190792000    288.61739    277.98676    225.34372   -44711.429    44718.666    52.643037    38.755923 
190796000     294.1289     287.7018    303.47758   -44719.037    44708.099   -15.775788    38.753792 
190800000    290.34768    501.64539    518.63157   -44709.572    44724.448   -16.986179    38.745797 
190804000    254.90561    570.51329    251.59146   -44729.347    44753.274    318.92183    38.740024 
190808000    273.55295    450.82466    245.68769   -44746.126    44761.694    205.13697    38.732676 
190812000    296.94393    342.47146    369.86293   -44767.047    44753.687   -27.391474    38.739669 
190816000    278.69521    483.79537    267.39543   -44754.687    44764.128    216.39994    38.741506 
190820000    284.96136    426.20811    204.65961   -44770.153    44771.514     221.5485    38.745201 
190824000    302.23265    463.01453    263.23319   -44794.848    44787.475    199.78134     38.74527 
190828000    306.50597    163.07193    254.00998   -44795.963     44799.91   -90.938047    38.743756 
190832000    308.62245    429.90821    574.67282   -44811.294     44811.78   -144.76461    38.746142 
190836000    278.03076    336.19273    267.50416   -44801.156    44819.768    68.688569    38.748847 
190840000    278.80742    351.03776    228.45845   -44806.884    44815.891    122.57931    38.748959 
190844000    288.32823    457.36097    257.86131   -44809.625    44803.521    199.49966     38.75227 
190848000    295.85253    814.47309    349.72974   -44800.041    44810.373    464.74335    38.755323 
190852000    244.02527    205.46151    398.41834   -44794.153    44814.243   -192.95682    38.758734 
190856000    285.68486    183.26102    755.07223   -44792.156    44803.342   -571.81121    38.762608 
190860000    295.86043    215.87341    257.34663   -44790.145    44809.378   -41.473224    38.755655 
190864000    291.51314    410.05762    267.20714   -44805.631    44815.549    142.85048    38.756912 
190868000    301.90089    319.79382    353.35305   -44827.185    44809.628   -33.559238    38.759677 
190872000    301.15569    401.37495    250.35223   -44833.037    44824.665    151.02272    38.760892 
190876000    310.60217    537.15388    108.83425   -44849.068     44827.12    428.31963    38.766521 
190880000    335.92409    298.74268    353.13653    -44854.87    44834.039   -54.393844    38.771021 
190884000    297.81477    262.21452    229.69673   -44850.822    44850.783    32.517792    38.772357 
190888000    263.46935    350.34421    202.64036   -44844.187    44866.021    147.70386    38.777195 
190892000    264.04373    212.81556    288.09483   -44843.523    44863.871   -75.279273    38.777831 
190896000     267.5605     364.0033    262.25928   -44857.511    44879.453    101.74401    38.773087 
190900000    329.88569    356.77487    542.83546   -44898.205    44853.694    -186.0606    38.775071 
190904000    339.33342    293.02089    310.72866   -44897.223    44857.056   -17.707771    38.777702 
190908000    332.92804    233.70922    366.45892   -44910.879     44873.12    -132.7497    38.773535 
190912000    312.69226     299.9791     462.4404   -44900.467    44882.067    -162.4613    38.769197 
190916000    268.56869    316.73733    331.02935   -44886.576    44902.322   -14.292018    38.767337 
190920000    299.04385    212.32865    371.23583   -44905.334    44914.988   -158.90718    38.767821 
190924000     275.1337    352.23576    256.64127   -44915.835    44936.581    95.594497    38.764076 
190928000    256.35919    346.91572    417.43574   -44919.821    44953.803   -70.520024      38.7656 
190932000    257.92991    346.53428    190.86998   -44955.357    44969.212    155.66431    38.766007 
190936000    289.35527    647.12847    107.75377   -44974.801    44980.481     539.3747    38.774742 
190940000    259.67042    480.21843      300.787   -44971.638    44988.737    179.43142    38.779543 
190944000    246.35261     385.9846    228.59602   -44972.881    45005.728    157.38858    38.782929 
190948000    255.26377    273.22852    281.62638   -44949.334    44993.282   -8.3978579    38.786093 
190952000    305.80528    414.47551    237.93602   -44979.113    44966.517    176.53948    38.788337 
190956000    266.48446    336.73013    388.94804   -44971.202    44984.487   -52.217914    38.790944 
190960000    302.09868    291.45877    480.10441   -44964.282    44980.273   -188.64565    38.791987 
190964000    291.69523    295.81211    279.66823   -44990.691    44993.783    16.143884    38.798602 
190968000    290.84256    544.18486    399.35634   -44995.021    45013.352    144.82852    38.798542 
190972000    264.77621    391.94308    382.16857   -44987.476    45015.866    9.7745095     38.80075 
190976000     309.4396    410.05366    405.32182   -45026.152    45032.425    4.7318433    38.798196 
190980000    279.30956    433.67257    412.28937   -45043.824     45053.46    21.383193    38.793528 
190984000    281.52502    341.54903    269.40526   -45045.742    45053.083    72.143766    38.798474 
190988000    295.74351     465.0172    254.44842   -45059.814    45070.943    210.56877    38.800387 
190992000    253.34848    584.74641    341.14967   -45059.388    45095.431    243.59674    38.797273 
190996000    286.44614    552.61503     526.3699   -45088.327      45096.4    26.245128    38.794887 
191000000     290.2162    430.86341    375.00659   -45083.625    45089.046    55.856826    38.794488 
191004000    263.98003    240.80303    339.25314   -45081.689    45108.574   -98.450109    38.792791 
191008000    277.47878    462.15101    319.42362   -45098.726    45114.741    142.72738    38.790256 
191012000    288.58267     290.8531      302.096   -45111.199    45124.747   -11.242898    38.795839 
191016000    268.65786     326.8048    488.76985   -45129.681    45142.713   -161.96505    38.797749 
191020000    275.05905    563.45429    114.39758   -45149.772    45153.416    449.05671    38.796839 
191024000    287.38743    563.31146    196.54627   -45152.544    45154.787    366.76519    38.800627 
191028000    293.28932     270.5485    335.31522   -45166.109    45156.232   -64.766714    38.793791 
191032000    284.32127    284.33383    405.97357   -45171.047    45153.048   -121.63973    38.793793 
191036000      293.391    175.70581    347.39785   -45166.634    45178.188   -171.69204    38.786777 
191040000    280.36139    207.50498    362.98663   -45165.761    45173.641   -155.48165    38.793278 
191044000    270.50894    428.67634    288.19579   -45167.714    45186.269    140.48055    38.795266 
191048000    280.41089    497.98346    471.94005   -45177.404    45172.877    26.043405    38.791529 
191052000    270.16501    429.68403    278.63018   -45191.891    45204.687    151.05385    38.788441 
191056000    254.68465    258.29105    273.80409    -45182.25    45211.475   -15.513039    38.787371 
191060000    275.12127    510.53483    327.64152   -45196.877    45204.276    182.89331    38.793215 
191064000    282.77401    270.68959    377.26545   -45198.448    45206.366   -106.57586    38.794033 
191068000    280.35977    323.33839    563.80029    -45221.16    45224.753    -240.4619    38.795569 
191072000    275.69286    203.00589    524.92272   -45225.488    45236.618   -321.91683    38.801613 
191076000    286.88184    422.81073    200.28004   -45245.651    45248.407    222.53069    38.802387 
191080000    282.14605     397.4797    369.75597   -45245.387    45266.178    27.723728    38.796369 
191084000    266.14509    395.10869    311.53646   -45247.647    45268.715    83.572229    38.791713 
191088000    295.81088    354.00035     226.2196   -45255.457    45257.953    127.78074     38.78885 
191092000    287.99847    117.18061    273.73099    -45259.05    45278.512   -156.55038    38.782281 
191096000    269.68581    309.98869     257.3703   -45266.041    45280.706    52.618387     38.78605 
191100000    283.56016    646.37937    299.04867   -45278.941    45291.665     347.3307    38.786421 
191104000     263.4648    422.85521    293.71332   -45276.781    45302.717    129.14189    38.788831 
191108000    276.62886    431.17948    230.76488    -45291.34    45303.908     200.4146    38.787944 
191112000     285.9256    233.53621    415.60786   -45316.147    45308.554   -182.07165    38.781477 
191116000    281.29611    347.01931    313.20092   -45314.434    45330.873    33.818394    38.785428 
191120000    295.28189    284.60799    376.01723   -45310.448    45319.781   -91.409244     38.78187 
191124000    287.39554    491.79709    299.41973     -45302.9    45327.446    192.37736    38.783068 
191128000    279.11117    325.96919    199.07884   -45309.569    45319.678    126.89035    38.780119 
191132000     288.6652    323.98584    218.41196   -45314.046    45325.999    105.57388    38.779206 
191136000      265.198    320.03641    357.13674   -45323.639    45333.929   -37.100334    38.777563 
191140000    295.13022    372.12224    247.49109    -45358.09    45343.927    124.63115    38.782789 
191144000    283.49438    397.07238    236.33753   -45350.692    45343.972    160.73485    38.778183 
191148000    287.36865    323.45723    210.35782   -45344.495    45344.908    113.09941    38.771152 
191152000    286.08054     544.0481    263.46551   -45359.599    45364.849    280.58259    38.774392 
191156000     290.7473    594.22211    374.95046   -45356.347    45365.483    219.27165    38.773268 
191160000    284.21382    342.38413    370.61993   -45376.549    45367.253   -28.235797    38.772888 
191164000     264.9325    283.44888    269.27694   -45366.973    45374.534    14.171937    38.773074 
191168000    300.16423     335.5341    272.81045   -45384.127    45377.404    62.723653     38.78166 
191172000    290.93564    626.68909    331.25033    -45389.44    45373.481    295.43876    38.781719 
191176000    246.92645    299.59277    268.93084   -45370.439    45396.857    30.661936    38.778312 
191180000    290.76192    300.41728    368.38081   -45389.019    45397.944   -67.963524    38.770599 
191184000    284.57772    546.11923    285.14773   -45405.235    45407.095     260.9715    38.768649 
191188000    286.62148    443.79563    373.63325   -45429.094     45420.02    70.162373    38.772272 
191192000    302.97425    444.25909    340.37086   -45429.948    45428.117    103.88823     38.76894 
191196000    290.66664    501.04572    232.36272   -45436.717    45438.571      268.683    38.775255 
191200000    285.90526    402.07591    285.64035   -45417.802    45420.581    116.43555    38.771812 
191204000    292.97226    228.93125    341.14028   -45421.829    45404.856   -112.20904    38.775807 
191208000    283.16815    381.61169    350.19977   -45415.895    45416.137    31.411925    38.779866 
191212000    297.20994    321.80453    359.17132   -45432.094    45417.833   -37.366794    38.786622 
191216000     285.4755     375.5818     441.7974   -45442.331    45443.175   -66.215602    38.788254 
191220000    290.29441    392.53564     264.5897   -45452.382    45456.543    127.94594    38.789666 
191224000    267.00647    222.51427    295.83701   -45459.549     45473.43   -73.322742    38.790348 
191228000    267.63077    216.68901    416.85297   -45467.964    45483.466   -200.16397    38.785148 
191232000    241.44616     427.6595    229.54672   -45470.408    45513.177    198.11278      38.7821 
191236000    289.42361    421.12219    454.00237   -45507.816    45519.977   -32.880173    38.788178 
191240000    282.82428    380.81631    371.27452   -45510.434    45522.487    9.5417954    38.790328 
191244000    272.89171    388.66707    438.89751   -45503.513    45502.176   -50.230446    38.789195 
191248000    284.92273    192.82836    259.78718   -45507.073    45508.087   -66.958822    38.784818 
191252000    267.74253    424.01205    279.71195   -45510.795    45526.302     144.3001    38.783735 
191256000    287.40028    345.98062    197.91481   -45531.941    45537.096    148.06582    38.783944 
191260000    265.64372    439.84216    534.44641   -45524.637    45544.042   -94.604257    38.789113 
191264000    272.59873    219.73667    242.09342   -45532.359    45552.287   -22.356746    38.791727 
191268000    266.79443    401.13308    261.75104   -45542.613    45559.014    139.38204    38.797108 
191272000    286.59038    344.62761    369.09276   -45554.425    45572.445   -24.465145    38.799284 
191276000     274.9685    357.43913    344.36468     -45566.5    45573.489    13.074456    38.798444 
191280000    246.13474    388.52555    417.92352   -45571.985     45602.09   -29.397971     38.79897 
191284000    257.82034    245.52703    291.28881    -45587.22    45598.202   -45.761784    38.793466 
191288000    305.03435    553.49791    407.96301   -45609.733    45590.409    145.53491    38.789836 
191292000    299.54994    404.18193    397.54276   -45616.804    45605.649    6.6391711     38.78381 
191296000    294.42819    392.94321    452.91357   -45621.029    45623.446   -59.970358    38.788808 
191300000    278.57522    184.57759    228.48909   -45615.484    45633.264   -43.911492    38.787757 
191304000    296.27205    323.05715    297.59518   -45639.411    45648.482    25.461972    38.785743 
191308000    264.33525    381.96564    469.05566   -45628.431    45655.599   -87.090013    38.780965 
191312000    272.04155    477.55554    522.96842   -45650.403    45665.464    -45.41288      38.7801 
191316000    312.80015    438.21566     240.1211   -45675.393    45671.893    198.09455    38.779815 
191320000     294.7079    319.03042    294.86403   -45671.859    45676.253    24.166398    38.778486 
191324000    290.77844    524.17134    423.02888   -45671.891    45676.718    101.14246    38.771412 
191328000    307.32664    291.68853    446.65023   -45697.474      45684.5    -154.9617    38.773329 
191332000    293.10253    333.58328    550.32256    -45708.65    45697.008   -216.73928    38.771121 
191336000    281.49822    253.97828    232.94868    -45707.18    45713.135    21.029596    38.771352 
191340000    275.48173    379.87617    459.18102   -45697.427    45719.528   -79.304849    38.775004 
191344000    276.87547    339.51161    349.13192   -45714.909     45715.72   -9.6203103    38.785214 
191348000    289.83551    315.21191    290.01168   -45728.133    45736.597    25.200229    38.787764 
191352000     286.9468    417.30508    457.67641   -45734.471    45752.542   -40.371324    38.780877 
191356000    288.01962    403.06871    456.85432   -45752.755    45747.858   -53.785609    38.781702 
191360000    260.91845    335.26085    350.37884   -45747.949    45758.434   -15.117993    38.777565 
191364000    275.27788    307.36411    305.15059   -45750.689     45773.14    2.2135213     38.77456 
191368000    252.66897    474.50715     163.3017   -45748.297    45772.439    311.20545    38.776072 
191372000    279.43069    493.35738    330.32115   -45763.488    45781.791    163.03623    38.773134 
191376000    265.40784    441.98798    441.55917   -45774.202    45778.429   0.42880538    38.769038 
191380000    284.21201    465.40368    454.91554   -45760.984    45769.935    10.488141    38.766569 
191384000    276.38353    363.02977    119.77024   -45775.311    45785.441    243.25952    38.766502 
191388000    312.14801    297.77008     345.4018   -45778.244    45789.054   -47.631713    38.767559 
191392000      280.222    256.35895    190.27257   -45785.482    45794.108    66.086381    38.763804 
191396000    300.05375    339.52905     285.2061   -45815.421    45798.409    54.322943    38.768844 
191400000    301.08838    502.74828    362.98817   -45807.566     45803.12    139.76011    38.770757 
191404000    282.57974    241.69723    289.21843    -45795.37    45799.989     -47.5212    38.768555 
191408000    300.03659    621.63631    461.26261   -45803.801    45807.586     160.3737    38.768593 
191412000    288.14502    236.99542      201.326   -45814.281    45817.269    35.669429    38.772219 
191416000    273.79041    323.91679    330.33449    -45801.67    45829.386   -6.4176947    38.769407 
191420000    272.52929    395.40287    408.81328    -45828.55    45846.306   -13.410409    38.768379 
191424000    275.05956    412.86586    314.90047   -45853.013    45868.132    97.965389    38.772444 
191428000    264.13225    380.87289     243.5717   -45872.989    45881.557    137.30119     38.77871 
191432000    283.58982    508.85231    220.06972   -45882.032    45891.728    288.78259    38.778841 
191436000    294.55608    395.95721     541.4525   -45888.558     45899.65   -145.49529    38.772784 
191440000    284.22258    484.32192     290.7654   -45907.097    45918.531    193.55652    38.774866 
191444000    275.03716    355.37599    293.68671    -45925.53    45940.169    61.689288    38.775538 
191448000    314.62279    219.11506    299.81848   -45938.699    45926.411   -80.703426    38.768836 
191452000    298.16116    230.01828    398.34957   -45937.154    45929.426    -168.3313    38.766125 
191456000    312.74406    346.16254    414.55396   -45957.617     45945.57   -68.391425     38.76017 
191460000      279.241    249.62644    246.40745   -45951.364    45948.969    3.2189857    38.751526 
191464000    276.07081    313.98613    284.92156   -45954.841    45959.353    29.064578    38.748937 
191468000     304.3835    360.59834    349.54004   -45955.932    45961.008      11.0583    38.747348 
191472000     285.4601    245.50695    601.48513   -45970.505    45963.625   -355.97818     38.74275 
191476000    285.33268    381.94466    178.27997   -45988.299    45984.479    203.66469    38.742748 
191480000    323.48984    681.60422    261.39916     -45999.5    45989.885    420.20506    38.740336 
191484000    290.06386    557.23248    711.68067   -46000.698    45997.183   -154.44819    38.741504 
191488000    285.16922    269.58058    547.42795   -45996.479     46012.84   -277.84737    38.738898 
191492000    267.78901    365.56309    401.37697   -46000.165    46026.444   -35.813884     38.74504 
191496000    282.02039    267.32197    428.14059   -46012.006    46013.158   -160.81862    38.748437 
191500000    278.42714     461.1028    467.58154   -45999.109     46022.86   -6.4787409     38.74818 
191504000    274.45858    368.82779    225.32617   -46015.391    46031.281    143.50162    38.755426 
191508000    285.53074    468.39513    266.31803   -46025.545    46040.252    202.07711    38.753485 
191512000    272.62925    263.40289    373.14612   -46022.953    46041.242   -109.74323    38.755748 
191516000    283.16037    375.90424    415.04983    -46043.77    46045.394   -39.145594    38.749436 
191520000    267.63701    503.06698    374.49947   -46045.678    46059.126    128.56751    38.743883 
191524000    291.86882    434.80824    210.75465    -46060.24    46047.925     224.0536    38.746842 
191528000    269.29311    284.50727    168.51795    -46067.88      46071.2    115.98932    38.744604 
191532000    277.17201    282.34729    190.20778   -46079.178    46079.642    92.139501    38.744654 
191536000    272.59589     541.8434    245.39746    -46081.43    46095.453    296.44594    38.748783 
191540000    261.50505    406.00677    681.48532   -46081.295    46085.714   -275.47855     38.74975 
191544000    270.36907    290.94698    184.48385   -46089.563     46106.82    106.46313     38.74908 
191548000    285.70322    341.89184    314.68092   -46081.356    46092.265    27.210915    38.756344 
191552000     281.2013    438.53233    354.64974   -46085.013    46095.763    83.882596    38.754185 
191556000    280.46469    322.59646    406.09709   -46098.971    46107.627   -83.500633    38.750945 
191560000    286.37026    264.87858    356.19469   -46106.362    46119.607   -91.316112      38.7525 
191564000    301.26823    367.26914    396.23535   -46137.155     46117.97   -28.966207    38.750193 
191568000    309.23495    284.52913     419.7055   -46137.432    46133.733   -135.17637    38.752412 
191572000    274.51148    415.05703    360.54645   -46138.194     46149.85    54.510579    38.753168 
191576000    258.90852    367.42902    261.19276   -46132.664    46158.208    106.23626    38.754302 
191580000    299.92424    379.57339    231.53269    -46152.43    46149.882     148.0407    38.752191 
191584000     284.9301     336.0106     265.7094   -46154.904    46148.494    70.301193    38.752112 
191588000    303.18908    399.51582    283.86825   -46159.807    46161.706    115.64758    38.747167 
191592000    281.87059    597.68114    336.39122   -46163.085    46185.017    261.28992    38.750146 
191596000    283.37315    373.50519    286.59054   -46171.922    46176.148    86.914655    38.749336 
191600000    309.93289    281.96288    502.09868   -46173.314     46170.61   -220.13579    38.753146 
191604000    309.71443    313.02217    445.69255   -46179.031    46179.489   -132.67038    38.756215 
191608000    264.57437    287.43645    369.76079   -46182.581    46194.385   -82.324334    38.752288 
191612000    290.19452     425.8576    278.43353   -46196.511      46191.8    147.42407    38.751396 
191616000    302.07256    289.40113    313.85933   -46216.092    46195.651   -24.458198    38.751151 
191620000    294.32873    529.86894    345.88131   -46239.059    46235.147    183.98762    38.750306 
191624000    272.39012    325.46914     295.0961    -46217.75    46234.515    30.373041    38.750319 
191628000     276.0661    445.39112    480.07498   -46241.942        46249   -34.683861    38.746572 
191632000    276.60106    510.17841    237.71192   -46258.654    46257.279    272.46649    38.748381 
191636000    295.01983    316.67434    297.82609   -46254.053    46263.662    18.848248    38.746021 
191640000    280.50557     321.8501    313.92479   -46261.636    46263.826    7.9253159    38.750327 
191644000    278.78354    254.21268    369.50319   -46263.515    46269.318    -115.2905    38.747003 
191648000    279.47103    637.61004     388.4552   -46282.698    46281.758    249.15484    38.753605 
191652000    298.30648    577.87538    218.77209   -46280.342    46287.026    359.10329    38.760907 
191656000    275.69699    422.33135    247.82153   -46273.106    46293.256    174.50982     38.74766 
191660000    289.36304    571.15599    596.99442   -46293.065     46298.01   -25.838439    38.748536 
191664000    282.72346    213.60149    309.92091   -46308.879    46307.049   -96.319413    38.749526 
191668000    282.21367    444.36645     378.7519     -46323.2    46318.261     65.61455    38.749907 
191672000    263.87644    372.08799    309.00054   -46321.591    46332.843    63.087452    38.749645 
191676000    286.38748     350.5081     631.1115   -46334.901    46343.601    -280.6034    38.753626 
191680000    309.64864    462.40955    459.53293   -46340.137    46341.406    2.8766206    38.761764 
191684000    254.74008    457.51355    324.81391   -46349.019    46364.853    132.69964     38.76119 
191688000    299.08881    441.34438    125.95308   -46362.119    46365.829    315.39129    38.761634 
191692000    302.17636    291.53216    451.49945   -46380.495    46375.686   -159.96729     38.76713 
191696000    300.78888    229.56291     414.7073    -46385.39     46385.79   -185.14439    38.764278 
191700000     259.3295     509.5623    367.52292   -46387.336    46404.401    142.03938    38.766018 
191704000    274.02225    355.98486    366.54694   -46398.679     46416.56   -10.562085    38.772494 
191708000    244.32132    317.85338    321.08186   -46403.577    46436.026   -3.2284785    38.768984 
191712000    273.38473     548.6824    261.94953   -46429.211    46431.903    286.73288    38.773636 
191716000    280.28308    474.44201    435.39307   -46429.822    46434.144    39.048945    38.772948 
191720000    278.03705    389.01534     264.2812   -46448.506    46446.309    124.73413    38.778614 
191724000    285.27306     506.7789    206.82494   -46462.938    46460.597    299.95396    38.782194 
191728000    281.85291    410.54537    354.93273   -46467.378    46469.728    55.612638    38.778019 
191732000    284.59441    371.76197    295.79917    -46461.34    46481.644    75.962797     38.77463 
191736000    281.80507    505.15337    386.15817   -46474.813    46481.004     118.9952    38.773902 
191740000    271.17114    230.50563    279.42025   -46468.361    46498.023   -48.914617    38.775083 
191744000     273.4859    485.46036    310.56971   -46461.685     46490.88    174.89065    38.772554 
191748000    267.85769    317.11221     386.9255   -46461.621    46490.822   -69.813296    38.769721 
191752000    275.14352    344.33992    423.97609   -46481.094    46499.067   -79.636169    38.773552 
191756000    316.31327    394.42466    421.80715   -46518.114    46505.284   -27.382488    38.768128 
191760000    315.62038    599.77223    378.70257   -46517.459    46512.508    221.06966    38.772023 
191764000    258.33685    281.63623    259.73212   -46505.546     46529.01    21.904112    38.765306 
191768000     284.0254    257.05081    486.32381   -46505.923    46515.514     -229.273    38.756855 
191772000    310.86296    605.57957    473.00302   -46533.208    46517.126    132.57655    38.756073 
191776000    276.69096    488.62094    420.18161   -46523.374    46533.154    68.439326    38.756303 
191780000    270.05944    348.46825    355.09135   -46541.387     46543.05   -6.6231064    38.752815 
191784000    259.28786    410.90445    364.33219   -46533.998    46553.235    46.572265    38.755895 
191788000     267.9447    461.70062    287.58079   -46567.114    46582.377    174.11983     38.76222 
191792000    265.99075    460.81089    394.55597   -46564.063    46591.242    66.254928    38.774162 
191796000    253.65099     221.8197     235.1639   -46568.197    46589.792   -13.344197     38.77088 
191800000    300.61679    365.78168    391.93506   -46581.868    46574.147   -26.153386    38.767793 
191804000    287.73139    358.78188    283.14439   -46566.651    46571.018     75.63749    38.771999 
191808000    287.33652     405.1459    445.85884   -46577.722    46573.984   -40.712932    38.768592 
191812000    280.86882    510.12223    243.83251   -46591.266    46585.427    266.28972    38.779847 
191816000    272.37852    400.24768    378.32834   -46576.102    46581.966     21.91934    38.784156 
191820000    275.67976    347.52069    475.28232   -46580.695    46593.508   -127.76163    38.776084 
191824000    299.39428    407.32049     547.3977   -46606.332    46604.977   -140.07722    38.777763 
191828000    301.06723    284.66652    440.98789   -46627.229    46628.763   -156.32137    38.775824 
191832000    300.19146    566.09097    410.56713   -46643.563    46652.053    155.52384    38.779753 
191836000    296.35439    434.03244    427.04106   -46660.463    46655.731    6.9913862    38.781833 
191840000    292.37511    519.89563    324.16351   -46671.956    46668.476    195.73212    38.779805 
191844000    286.60013    366.30869    143.90463   -46670.198    46681.634    222.40407    38.779238 
191848000    262.25016    333.48946    357.99274   -46663.107    46693.121   -24.503278    38.781069 
191852000     289.5481    366.64771    309.34907   -46671.668    46690.806    57.298644    38.773812 
191856000    297.48945    357.61172     327.4931   -46682.988     46677.08    30.118621    38.777597 
191860000    266.79147    363.77828     189.3299   -46693.902    46687.836    174.44838    38.775439 
191864000     279.0703     511.6993    341.04754   -46701.608    46706.171    170.65177    38.782867 
191868000    311.70021    282.56654    621.00205   -46719.303    46704.698    -338.4355    38.779883 
191872000    292.53575    464.69275    335.68972   -46734.179     46738.86    129.00303    38.779608 
191876000    288.23218    418.77265     263.6285    -46742.51    46750.973    155.14414    38.788835 
191880000    321.20096    396.81183     438.4349   -46747.947    46738.847   -41.623067    38.792144 
191884000    277.77003    423.49514    334.11737   -46750.515    46766.138    89.377762    38.788421 
191888000    269.25011    395.40178    195.72752   -46762.656    46776.529    199.67426    38.787516 
191892000    281.19019    340.43466    243.32946   -46759.521    46782.781    97.105196    38.790168 
191896000    279.78881    364.53489    362.72617   -46769.333    46786.703    1.8087271    38.787489 
191900000    280.63904    391.79099    351.78201   -46786.666     46774.54    40.008974    38.779401 
191904000    309.26426     389.6951    291.94409   -46793.338    46792.191     97.75101    38.776459 
191908000    284.71956    281.88511    215.69966   -46810.006    46816.623    66.185447    38.776437 
191912000    276.50255    511.85284    390.32985   -46805.429    46832.339    121.52299    38.772703 
191916000    278.17561    310.13271    245.36737    -46808.13    46819.704    64.765336     38.77041 
191920000    297.98509    338.69005    235.66418   -46817.991    46814.081    103.02587    38.775973 
191924000    255.08802    475.78078    375.12842   -46812.087     46824.11    100.65236    38.781725 
191928000     267.4362    415.82511    238.39624   -46814.989    46833.664    177.42887    38.784603 
191932000    269.38428    422.90223     437.4785   -46817.455    46829.563   -14.576274    38.787176 
191936000    277.13756     296.9041    423.74282   -46825.579    46837.974   -126.83872    38.777469 
191940000    282.30344     293.8365    540.68534   -46840.426     46848.55   -246.84884    38.774724 
191944000    284.79684     212.0576    204.68831   -46844.575    46849.512    7.3692942    38.773836 
191948000    251.76376    340.17385    369.30538   -46846.527    46861.447   -29.131531    38.777342 
191952000    250.07641    246.48045    297.62355   -46854.209    46873.243   -51.143093    38.778662 
191956000    285.76141     247.4637     257.3315   -46851.171    46874.578   -9.8677939    38.777883 
191960000    289.25271    326.56697    417.94706   -46880.604    46869.401   -91.380098    38.783289 
191964000    278.56484    433.83269    306.36948   -46875.901    46877.524    127.46321    38.785272 
191968000    299.19225    468.76581    546.59374   -46882.411    46884.868   -77.827927    38.782257 
191972000    270.13972    516.14043    220.44699    -46896.39    46885.732    295.69344    38.774704 
191976000     315.6211    406.05671    373.65817   -46891.656    46871.215    32.398543    38.772336 
191980000    297.79466    484.84294    491.70028   -46883.535    46869.282   -6.8573408    38.765724 
191984000    300.96091    331.01362      495.439   -46895.338    46884.009   -164.42538    38.762337 
191988000    285.62231    418.70289    245.27624   -46891.417     46902.22    173.42665      38.7608 
191992000    281.05336    216.01758    420.35785   -46909.455    46930.666   -204.34027    38.758676 
191996000    275.55549    385.18006    433.76128   -46919.228    46947.904   -48.581219    38.755723 
192000000    274.05189    467.41772    231.45962   -46926.405    46949.296     235.9581    38.759562 
192004000    286.15758    322.85118    272.09053   -46944.029    46937.298    50.760652    38.758608 
192008000    318.80323    414.63393    266.49626   -46970.969    46950.692    148.13767    38.762818 
192012000    292.72354     297.0857    274.58894   -46968.305    46957.187    22.496764    38.767346 
192016000    269.62173    359.58631    270.55857   -46967.143     46978.92    89.027742    38.775434 
192020000    271.48236    189.88423    257.39732   -46966.893    46978.545   -67.513086    38.777069 
192024000    283.11822    280.20939    475.38641   -46965.193     46973.73   -195.17702    38.765149 
192028000    311.93114    453.62216    354.50055   -46984.499    46961.945    99.121613    38.764299 
192032000     280.8674    303.42863    310.03122   -46978.754    46975.571   -6.6025913    38.763226 
192036000    270.50669    512.23081    410.87759   -46982.436     46992.45    101.35321    38.767028 
192040000    272.88844    521.89718    311.99799     -46990.3    46995.423     209.8992    38.767239 
192044000    294.57289    453.39824    523.77545   -46993.405     47000.47   -70.377214    38.760771 
192048000     302.5208    569.89405    285.64976   -47006.411    47003.422     284.2443    38.762236 
192052000    305.79367    486.32198    324.10145   -47015.397    47005.869    162.22053    38.771245 
192056000    283.33217    419.08069    347.22921   -47017.412     47005.83    71.851484    38.767367 
192060000    285.04958     180.6775    260.65159   -47015.227    47026.294   -79.974087     38.76469 
192064000    270.32086     244.6624    445.43501   -46996.256    47026.196   -200.77261    38.767541 
192068000    266.24624    258.44681    179.28139   -47005.909    47041.451    79.165416    38.766191 
192072000    270.58687    400.09168    312.93646    -47036.03    47048.604    87.155225    38.769336 
192076000    280.60268    404.02543    413.90749   -47043.286    47053.115   -9.8820552    38.778167 
192080000    308.99741    615.09851    276.92685   -47053.078    47044.294    338.17166    38.775587 
192084000    285.04082    364.84038    375.53858   -47036.267    47053.617   -10.698196    38.778377 
192088000    301.79845    262.94403    339.60767   -47052.826    47055.573    -76.66364    38.774178 
192092000    272.62041    595.38509    220.23015    -47042.19    47062.512    375.15495    38.771975 
192096000    251.94065    249.90751    332.57032   -47039.603    47078.906   -82.662806    38.774185 
192100000    272.67764    217.11204    160.29496   -47053.849    47069.889    56.817082    38.773878 
192104000    269.42467    363.55703    268.33969   -47053.994     47075.78    95.217341    38.769854 
192108000    293.97025    352.34305     398.2665   -47062.972    47063.666   -45.923441    38.766425 
192112000    283.74792     254.5605    291.62649   -47068.672    47073.645   -37.065987    38.767402 
192116000    312.02941    254.65347    381.76185   -47086.843    47066.921   -127.10838    38.763413 
192120000    306.87796    296.62037    227.36107   -47101.669    47078.351    69.259302     38.77329 
192124000    311.21263    639.73354    529.77259   -47096.557    47086.524    109.96095    38.779599 
192128000    293.01463    325.31361    628.71017    -47113.27    47116.577   -303.39657    38.778527 
192132000    287.17074    582.51032    274.89363   -47122.435    47146.361    307.61669     38.77391 
192136000    282.62124    343.92786    234.11971   -47138.785     47143.24    109.80815    38.773852 
192140000    300.04914    374.84234    151.26894   -47139.659    47138.875     223.5734    38.773426 
192144000    290.95204    361.11447    310.00072   -47136.054    47139.748    51.113744     38.76959 
192148000     269.1099    407.46614    238.59028   -47124.795    47145.301    168.87585     38.77042 
192152000    302.95821     319.4959    171.71857   -47133.519    47151.242    147.77734    38.778207 
192156000    257.81623    220.29845    298.31318   -47126.328    47145.053   -78.014732    38.781808 
192160000    242.85883    154.87965    282.24178   -47113.667    47159.307   -127.36213    38.778912 
192164000    269.62776    375.81753    419.96658   -47139.302    47152.429   -44.149042    38.778554 
192168000    268.21201    282.45405    269.35916   -47141.151    47149.706    13.094887    38.776884 
192172000    269.91069    390.28482    361.85298   -47150.817    47167.597    28.431847    38.775796 
192176000    273.24257    293.46571    241.59543    -47168.15    47176.836    51.870276    38.782618 
192180000    305.50208    470.29595    276.42421   -47181.142    47178.588    193.87174     38.77988 
192184000     273.2203    380.82836    499.24612   -47160.813    47180.056   -118.41776    38.778677 
192188000    297.08061    409.72275    421.21918   -47180.672    47176.364   -11.496425    38.775785 
192192000    295.84504     439.8668    377.54932    -47186.16     47185.59     62.31748    38.773742 
192196000    270.19615    418.44868     357.5749   -47178.123    47177.357    60.873785    38.775626 
192200000    294.27677    313.63638    472.26017   -47187.643    47180.031   -158.62379    38.776565 
192204000    304.58557    707.64725    341.66501   -47198.194    47174.547    365.98224     38.77504 
192208000    291.65001    522.75521    258.83858   -47199.804    47199.671    263.91663    38.772099 
192212000    231.44577    488.27816    214.57263   -47186.143    47228.234    273.70553    38.777526 
192216000    254.38141    467.68351    372.87074   -47193.005    47216.369    94.812765      38.7776 
192220000    284.32961    384.08882    312.79294   -47219.407    47235.157    71.295886    38.770561 
192224000    281.73024    386.60056    292.90882    -47229.12    47241.221    93.691739    38.767385 
192228000    253.56292    324.27918    196.28238   -47227.748     47244.09     127.9968    38.770469 
192232000    342.47057    614.66247    568.61968   -47264.704     47232.49    46.042786    38.764505 
192236000    301.29634    612.04552    275.20359   -47269.372    47252.883    336.84193    38.762162 
192240000    325.27162     387.4182     436.0894    -47258.09    47249.815   -48.671197     38.75736 
192244000    316.14305    787.06677    402.42635   -47278.167    47268.318    384.64042    38.760159 
192248000    272.55498    360.26128    349.51355   -47274.088    47276.463    10.747725     38.76776 
192252000    316.95336    301.75637    448.79125   -47295.502    47281.583   -147.03488    38.765969 
192256000    277.14804    280.74066    314.87502   -47297.827    47299.757   -34.134361    38.766471 
192260000    289.53828    300.66593     302.6387   -47314.804    47313.001   -1.9727698    38.766907 
192264000    283.29411    301.46156    268.87533   -47319.496    47333.664    32.586231    38.764473 
192268000    267.97956    387.54813    374.01424   -47312.677    47339.569    13.533882    38.763226 
192272000    279.97216    610.24518    195.61811   -47329.146    47324.015    414.62707    38.763779 
192276000    293.45448    365.22452    463.06283   -47326.094    47343.939   -97.838306    38.762044 
192280000    300.88637    275.57412    226.29325   -47338.708    47330.583     49.28087    38.761661 
192284000    253.08348    207.06545    328.77837   -47343.053     47377.42   -121.71292    38.763687 
192288000    277.66659    264.43418    483.10898   -47372.925    47383.582    -218.6748    38.759816 
192292000    280.36087    393.72075    278.17983   -47386.849    47379.418    115.54092    38.761463 
192296000     248.5194    360.69002    233.74565   -47372.351    47413.027    126.94437    38.761487 
192300000    232.81495    541.37049    370.43797   -47378.722    47413.618    170.93252    38.753847 
192304000    286.06085    404.70246    520.56747   -47390.188    47409.174     -115.865     38.75262 
192308000    289.07301    183.80221    553.57976   -47403.748     47411.79   -369.77755    38.754631 
192312000    306.66968    448.21103    326.37359   -47409.849    47413.636    121.83744    38.754342 
192316000    268.42948    422.28284    453.35921    -47406.08    47420.247   -31.076375    38.761697 
192320000    273.90964    419.22965    208.95165   -47410.907    47425.196      210.278    38.757783 
192324000    277.99006    392.58138    440.51354   -47437.906    47443.012   -47.932161    38.758646 
192328000    283.17454    373.42508    303.40071   -47433.317    47452.363    70.024371    38.765128 
192332000    259.16845    363.77452    355.88603   -47421.858    47437.885    7.8884918    38.769706 
192336000    279.23874    273.14802    231.33866   -47428.222    47426.929    41.809361    38.763193 
192340000    262.21193    268.60196    308.01591   -47428.278    47439.669   -39.413946    38.763919 
192344000     284.8938    589.18494    391.99767   -47426.215    47444.098    197.18728    38.768062 
192348000    310.64559    416.34332    279.09594   -47450.927     47445.98    137.24738    38.769765 
192352000    289.66962    158.32132    416.33523    -47450.47    47456.885   -258.01391    38.769731 
192356000    296.18712     502.3921     275.8432   -47462.009    47471.751     226.5489    38.765312 
192360000    286.25418    435.52408    234.96187   -47477.251    47476.248    200.56221    38.767592 
192364000    270.70699    484.51892    303.03448   -47478.997    47487.764    181.48445    38.766742 
192368000    287.98849    465.10052    216.25877   -47493.999    47491.916    248.84175    38.765715 
192372000    302.83323    517.18297    185.53659   -47512.368    47495.557    331.64638    38.771064 
192376000    294.92856    303.22094    240.60436   -47504.835    47517.301    62.616583    38.765404 
192380000    263.69977    155.49592    231.32391    -47506.91    47525.352   -75.827984    38.762748 
192384000    285.46508    281.09041    444.17306   -47521.781    47530.443   -163.08266    38.759086 
192388000    285.15225    303.12179    398.77939   -47523.404    47528.561   -95.657595    38.758812 
192392000     302.9222    338.47014    425.08589   -47542.651    47543.172    -86.61575    38.758718 
192396000    270.28494    227.22981    379.55272   -47536.845    47551.515   -152.32291    38.754197 
192400000    286.78824     682.5108    325.74572   -47556.259    47568.138    356.76509    38.756843 
192404000    265.53667    215.30338    284.37011   -47540.299    47564.959   -69.066725    38.754259 
192408000    257.10954     138.1829    172.01519   -47540.993    47578.186   -33.832292    38.757856 
192412000    287.94328    350.49541     275.1845   -47580.408    47574.108     75.31091    38.759442 
192416000    280.79354    177.20617    208.25888   -47586.373    47576.268   -31.052707    38.766833 
192420000    281.32989     563.7402    286.43812   -47598.921    47605.444    277.30208    38.769722 
192424000    299.88746    448.36332    461.69065   -47601.629    47594.728   -13.327324    38.763985 
192428000    287.72807    454.00923    190.98477    -47612.88    47615.408    263.02447    38.753692 
192432000    289.43468    426.05192    152.32469   -47614.053     47621.51    273.72722    38.753035 
192436000    270.01241    191.81751    350.63133   -47605.547    47621.811   -158.81381    38.752682 
192440000    273.41861    669.05804     218.3343   -47630.438    47645.667    450.72374    38.759585 
192444000    274.25559    205.49268    363.83184   -47634.089    47648.808   -158.33916    38.762444 
192448000    254.72624    291.92389    97.459074   -47649.623    47678.205    194.46481    38.760402 
192452000    321.64021    534.00159     337.5273   -47664.947    47663.511    196.47428    38.758086 
192456000    307.51893     420.9652     639.4294   -47667.169    47665.018    -218.4642    38.756725 
192460000    294.70236    323.46095    273.53678   -47669.497    47664.373    49.924175    38.760802 
192464000    264.44439    256.02925    246.03953   -47683.462    47681.699    9.9897176    38.768432 
192468000    303.90675    563.30067     521.7564   -47681.631     47676.97    41.544266    38.769798 
192472000    292.80334    491.77154    299.23112    -47672.35    47681.944    192.54041    38.767877 
192476000    258.11184    526.14483       434.64   -47675.624    47690.827    91.504825    38.769574 
192480000     266.2571    274.00006    430.93327   -47688.115    47699.693   -156.93321    38.762579 
192484000    280.99539    384.77832    355.20641   -47682.857    47686.482    29.571909    38.764875 
192488000    274.29785    362.30345     425.5315   -47691.178    47709.525   -63.228056    38.756549 
192492000    271.65801    392.64775    215.16495   -47722.351    47745.117     177.4828    38.760396 
192496000    262.40097    343.06014    342.13752   -47725.909    47765.759   0.92261564    38.761288 
192500000    277.30482    300.42827    384.57424   -47734.303    47749.618   -84.145968    38.759545 
192504000    298.72663    422.74235    309.33203   -47739.889    47750.071    113.41032    38.762371 
192508000    279.96889    255.96321    519.41918   -47756.482    47763.882   -263.45597    38.762796 
192512000    312.23914    459.33223    372.34926   -47769.091    47773.176    86.982963    38.765912 
192516000     281.2738     347.7845    271.91694   -47796.212    47777.781    75.867559    38.766026 
192520000    288.30844     322.6538    172.50968   -47802.451    47802.348    150.14412    38.766563 
192524000     299.0313    298.21697    353.07465   -47798.606    47794.788   -54.857683    38.762074 
192528000    309.95827    432.77504    655.17302   -47810.011    47787.053   -222.39798    38.765592 
192532000    291.86001     406.9928    392.50256    -47813.42    47803.129    14.490249    38.761461 
192536000    276.46951    429.73797    249.17245   -47806.188    47815.723    180.56552     38.75381 
192540000    293.73149    228.78273     347.4973   -47806.489    47806.845   -118.71457    38.757563 
192544000    306.26598    337.60578    457.63949   -47807.342    47809.271    -120.0337    38.756427 
192548000    307.57101    328.83703    467.28165   -47815.153    47809.922   -138.44462    38.758367 
192552000    285.02042    343.43058    342.62276   -47819.218    47817.355   0.80782024    38.761118 
192556000    307.26587    195.84665    148.71731    -47850.21    47841.457    47.129337    38.762236 
192560000    297.02329    295.77764    160.27024   -47867.211    47857.037    135.50739    38.762698 
192564000    285.09752    373.18841    182.25456   -47883.142    47880.172    190.93384    38.761768 
192568000    289.23894    474.11494    423.42324   -47893.249    47885.307    50.691704    38.764985 
192572000    278.60441    224.29077    248.23861   -47911.281    47906.446   -23.947845    38.768821 
192576000    322.42168    256.23675    200.03515   -47912.039    47894.053    56.201606    38.763595 
192580000    278.29614    368.02551    189.62471   -47898.439    47908.889    178.40081    38.761935 
192584000    266.33935    455.46788    246.36485   -47903.778    47924.092    209.10303     38.75603 
192588000    275.28831    107.19715    161.11743    -47902.54    47912.473   -53.920276    38.760401 
192592000    287.33894    381.85158    312.51167   -47922.121    47938.811    69.339908    38.763131 
192596000    262.79593    400.67192      203.453   -47932.938    47960.241    197.21892    38.762455 
192600000    276.85354    484.17299    200.21482   -47968.164    47969.955    283.95817    38.769426 
192604000     312.5034    373.07138    452.19895   -47976.784    47958.999   -79.127563    38.769711 
192608000    273.83258    394.14309     435.7817   -47976.929    47975.436   -41.638614    38.773442 
192612000     266.2885    508.52399     369.4267   -47985.233    48005.471    139.09729    38.770298 
192616000    301.07446    381.86964    315.02033   -48000.204    48008.826     66.84931     38.76804 
192620000     299.7795       283.23    337.82767   -48003.779    48000.156   -54.597671    38.763116 
192624000    287.61931    412.89956    332.85888   -48010.429    48032.147     80.04068    38.758758 
192628000    267.31193    578.48887    260.61871   -48031.063    48053.289    317.87016    38.756999 
192632000    278.25512    357.50295    146.15141   -48048.553    48043.023    211.35154    38.756469 
192636000    301.88265     352.9737    481.48485   -48048.628    48050.014   -128.51115     38.75764 
192640000    276.14795    405.11419    394.26707   -48049.445     48058.08    10.847122    38.760602 
192644000    267.67111    263.05891    143.64621   -48064.362    48070.621     119.4127    38.766458 
192648000    269.81521    445.56058    444.38863   -48055.808    48067.107      1.17195     38.76504 
192652000    278.86848    281.98921     467.6639   -48064.887    48067.686   -185.67469    38.766757 
192656000    300.89877    503.42764     329.5268   -48078.271    48061.001    173.90084    38.769815 
192660000    319.46703    486.49638    426.09521   -48084.566    48060.826     60.40117    38.771939 
192664000    290.11334    284.30137    251.05209   -48090.346    48074.591    33.249286    38.769651 
192668000    303.03737    435.43552    392.44615   -48076.732    48091.812    42.989371    38.766765 
192672000        271.2    188.20356    227.74786    -48081.68    48099.866   -39.544301    38.768216 
192676000     286.2144    353.57472    404.75166   -48083.349    48098.218   -51.176938    38.770131 
192680000    284.84168    367.27195    172.16173   -48088.807    48099.965    195.11021     38.77159 
192684000    238.96151    544.76494    207.36484   -48092.958    48133.202     337.4001    38.766282 
192688000    295.62081    277.08341    384.69588   -48090.936    48112.441   -107.61246    38.770215 
192692000    273.31904    251.99781    253.14307   -48099.931    48100.501   -1.1452648     38.77229 
192696000    265.12512    461.56212    405.97462   -48110.551     48124.36    55.587504    38.774172 
192700000    257.80425    353.94672    284.89422    -48099.54    48117.471    69.052503    38.773019 
192704000    281.39293    306.08549    234.03401   -48124.311    48127.091    72.051482    38.769321 
192708000    262.63605     187.5271    258.41119   -48128.456     48152.45   -70.884089    38.771135 
192712000    284.32553    279.56599    364.90618   -48143.765    48149.882   -85.340188     38.77103 
192716000    295.90266    398.38464    435.51418   -48157.981    48158.842    -37.12954    38.768276 
192720000    268.71767    317.43009    189.66064   -48169.124      48182.6    127.76945    38.765459 
192724000    275.61815    597.64261    267.78506   -48197.888    48203.614    329.85754    38.772039 
192728000    278.55273    308.80744    162.35142   -48201.901    48219.529    146.45601    38.772213 
192732000    294.80507    349.55329    395.75093   -48216.529    48235.247    -46.19764    38.765736 
192736000    298.43526    268.35063    311.78775   -48232.104    48229.366   -43.437118    38.767801 
192740000    298.86247    450.57718     291.0883   -48244.614    48251.809    159.48889    38.771556 
192744000    271.18613     470.9015    426.35771   -48244.165    48254.584    44.543791    38.768019 
192748000    272.67049    354.05538     155.1512   -48261.979    48262.755    198.90418     38.76991 
192752000    290.96287    394.65049    401.52827    -48264.19    48249.075   -6.8777785    38.768284 
192756000    286.41812    454.40358    440.39465   -48253.452    48269.408    14.008928    38.770873 
192760000     291.8631     339.2436    448.25228   -48251.939    48274.392   -109.00868    38.773355 
192764000     282.8418     313.9671     324.0003   -48253.595    48281.033   -10.033203    38.775384 
192768000    270.51115    256.02858    194.83935   -48272.406    48292.533    61.189225    38.778351 
192772000    301.46937    328.83848    320.23332   -48287.806    48289.267    8.6051636    38.776387 
192776000    285.51636    507.23015    427.87242   -48301.128    48320.974    79.357735    38.777023 
192780000    294.99443    474.58222    263.52711   -48292.297    48303.078    211.05512    38.777881 
192784000    267.38199    405.11737    220.90087   -48288.022    48307.359     184.2165    38.778153 
192788000     287.4406     363.9493    302.64206    -48305.15    48305.616    61.307243    38.776263 
192792000    324.44099    354.37459    456.58501   -48316.162     48297.76   -102.21042     38.77525 
192796000    292.82983    349.09628    290.97802    -48328.42    48323.698     58.11826    38.776576 
192800000    246.02377    320.67379    398.82569   -48322.594    48331.599   -78.151907    38.774893 
192804000    295.29181    609.54166    317.10229   -48340.817    48351.685    292.43937    38.779977 
192808000    288.61506    320.47868    470.48952   -48376.316    48372.235   -150.01084    38.780795 
192812000    301.80289    269.32497    342.41257   -48377.968    48395.539   -73.087599    38.781451 
192816000    284.45115    242.64444    256.44306   -48381.458    48393.861   -13.798626    38.787395 
192820000     327.0273    492.39255    518.24012   -48403.243    48399.517   -25.847574    38.784175 
192824000    282.85353    344.04222    288.98145   -48405.669    48409.712    55.060765    38.789278 
192828000    273.94986     562.2392    327.79234   -48425.288    48437.734    234.44686    38.786615 
192832000     281.9471    113.02436    202.90791   -48426.517    48447.584   -89.883547    38.789292 
192836000    293.05063    311.75776    386.91449    -48454.24    48460.113   -75.156738    38.788348 
192840000    308.13173    426.05902    224.36305   -48470.963    48458.399    201.69596    38.784768 
192844000    303.19573    247.96649    259.16239    -48457.45    48455.519   -11.195898    38.785215 
192848000     292.9622    572.43401    444.14954    -48456.01     48453.23    128.28447    38.785122 
192852000    291.07857    379.91096    353.05223   -48451.508    48449.758    26.858733    38.788068 
192856000    290.37925    424.83243    312.53785   -48471.779    48460.969    112.29458    38.787182 
192860000    299.45629    187.13841    216.78623   -48471.756    48466.953   -29.647816    38.787135 
192864000    300.51452     484.1565    321.38926   -48491.701    48464.779    162.76724     38.78685 
192868000    313.69083    365.33569    440.72511   -48489.801    48468.822   -75.389423    38.789869 
192872000    324.07729    378.39997    577.07685   -48492.438    48471.705   -198.67688    38.792054 
192876000    275.16635    383.93427    363.31672   -48481.542    48493.703    20.617556    38.794556 
192880000    288.47859    379.56849    441.83312   -48487.481    48494.464   -62.264635    38.789479 
192884000    257.36045    357.00932    282.18595   -48498.106    48503.795    74.823368    38.794607 
192888000    300.11099    317.88111    316.94962   -48498.443    48499.251   0.93149188    38.795223 
192892000    263.28731    324.17634    192.58652   -48503.821    48520.427    131.58982    38.798758 
192896000    270.04323    448.37342    382.84221   -48496.931    48516.271    65.531207    38.809613 
192900000    233.04625    289.78017    526.08643   -48489.492    48531.397   -236.30626    38.799264 
192904000    270.51717    323.10385    408.82628   -48523.679    48533.609    -85.72243    38.796719 
192908000    282.78009    324.15447    350.47459   -48513.547    48535.568   -26.320117    38.802115 
192912000     287.1549    255.33344    232.88565   -48515.848    48520.796    22.447788    38.801824 
192916000    286.58537    329.32856    514.77372   -48514.029    48522.206   -185.44516    38.809338 
192920000    265.35623    328.46369      225.424   -48516.332    48524.494    103.03969    38.810861 
192924000    267.62079    365.14177    285.80652   -48521.544    48547.569    79.335259    38.815713 
192928000    257.40972    281.77398    400.78324   -48517.133    48550.196   -119.00926     38.81915 
192932000    298.05183    355.16154    369.15493    -48532.14    48528.514   -13.993393    38.814534 
192936000    276.89361    235.00582    305.65738   -48545.774    48541.446   -70.651565    38.815122 
192940000    301.75387    318.26189    292.61574   -48554.687    48560.919    25.646146    38.810622 
192944000    277.66747    354.52976    168.22627   -48558.874    48576.094    186.30349    38.810647 
192948000    273.21247    314.89843    310.56426   -48571.527    48578.684    4.3341721    38.807903 
192952000    297.06682    272.10465    426.13263   -48577.306    48578.289   -154.02798    38.800024 
192956000    293.63512    517.50979    265.25196   -48604.317    48611.455    252.25782    38.796381 
192960000    286.03638    406.22254    275.12762   -48590.711    48604.275    131.09492     38.80121 
192964000    254.90131    517.39537    314.61391   -48596.399     48622.04    202.78146      38.8029 
192968000    267.86925    479.01909    340.02625   -48580.335    48599.755    138.99284    38.801327 
192972000    273.09021    386.85073    593.40607   -48578.404    48607.457   -206.55534    38.799671 
192976000    297.75416    309.42498    481.20275   -48597.535    48600.531   -171.77776    38.801604 
192980000    294.81953    362.72275    282.09846   -48594.015    48590.833    80.624289    38.803388 
192984000    267.81552    265.49373    330.97614   -48588.452     48599.15   -65.482413    38.801442 
192988000    309.68689    726.59855    271.53711   -48600.749    48601.344    455.06144    38.800732 
192992000    322.98054    351.70983    551.72185   -48595.289    48596.667   -200.01203     38.80018 
192996000    300.37824    438.34163    249.42576   -48602.884    48599.938    188.91587    38.798632 
193000000    287.62988    276.65269    336.25749   -48631.399      48617.3   -59.604803     38.79572 
193004000    289.57386    549.83163    352.35257   -48637.777    48642.272    197.47907    38.792615 
193008000    265.08228    325.26356    188.82074   -48626.808    48663.776    136.44282    38.792613 
193012000    264.09552    248.67368    290.25278   -48637.611    48657.995   -41.579106    38.787004 
193016000    296.07257    656.21731    613.86226   -48664.395    48664.416    42.355044    38.782297 
193020000     244.7076    478.12388    307.19512   -48650.151    48674.008    170.92876    38.785763 
193024000    255.14479    413.91431    186.39019   -48672.434    48680.097    227.52412    38.779179 
193028000     281.8053    372.24631    236.35468   -48676.857     48680.65    135.89163    38.782386 
193032000    276.05736    702.57582    238.41926   -48686.422    48692.792    464.15655    38.780808 
193036000    257.99209    345.42649    283.53464   -48679.326     48688.72     61.89185    38.784415 
193040000    283.01298    411.16177    368.25492   -48686.033    48695.252    42.906848    38.780247 
193044000     306.1755    425.22737    255.65999   -48701.617    48702.226    169.56737    38.780566 
193048000    294.41279    241.98258     233.4502   -48701.364     48705.11    8.5323771     38.78408 
193052000    274.01448    382.99026    486.16115   -48689.816    48707.111   -103.17089    38.779797 
193056000    260.90426    387.67674    395.96444   -48696.599    48725.379   -8.2877042    38.784669 
193060000    283.76942    366.41753    204.24714   -48714.397     48721.54    162.17039    38.786678 
193064000    278.41801    250.76359    326.28022    -48718.46    48713.918   -75.516627    38.788064 
193068000    317.29561     658.7126    383.38301   -48739.047    48712.388    275.32959    38.788502 
193072000    264.62451    349.62844    323.74223    -48712.58    48728.135    25.886209    38.791556 
193076000    256.39958    366.17357    238.46445   -48719.952     48755.61    127.70912    38.787085 
193080000    303.42175    851.19168    476.37613    -48752.71    48764.701    374.81554    38.782918 
193084000    256.06488    249.71612    363.83033   -48734.726    48765.937   -114.11421    38.782249 
193088000    253.86024    419.15604    180.68413   -48723.433    48761.876    238.47191    38.783602 
193092000    284.53076    328.29136    299.05249   -48738.441    48746.581    29.238869    38.784639 
193096000    253.42576    221.52704    270.45194   -48726.098    48748.018   -48.924894    38.785684 
193100000    289.63651    417.20219    409.98805   -48752.674    48768.898    7.2141402    38.793928 
193104000    284.22498    264.91334    625.65585   -48748.085     48764.01    -360.7425    38.789532 
193108000    294.44986     368.9521     354.2451   -48766.018     48768.61    14.707003     38.78758 
193112000    304.24848     363.9772    345.34916   -48772.917    48763.743    18.628045    38.788281 
193116000     297.0604    460.04475     217.8658   -48757.303    48757.297    242.17895    38.787106 
193120000    276.19269    730.75047    331.98155   -48779.621    48788.417    398.76893     38.78524 
193124000    287.88868     481.1165    426.02183   -48799.381    48800.817    55.094665    38.778817 
193128000    286.89966    265.08872    288.35064   -48798.811    48811.452   -23.261923     38.77082 
193132000     288.2288    426.62678    280.58582   -48811.178    48805.621    146.04096    38.770251 
193136000    289.42583    375.65134    200.87223   -48827.362    48820.403    174.77911    38.765944 
193140000    299.44582    327.54094    494.10775   -48824.076     48812.84   -166.56681    38.763244 
193144000    291.63926     234.6071    373.79875   -48826.589    48809.856   -139.19165    38.761825 
193148000    304.39371    453.85629    714.02825   -48843.367    48826.033   -260.17196    38.765902 
193152000    275.83062    315.07554    325.34905   -48833.681    48833.503   -10.273512     38.77043 
193156000     289.8249    401.63995    330.04763   -48810.599    48841.676    71.592323    38.771032 
193160000      296.742    344.88901    247.14947   -48838.784    48856.366    97.739541    38.774075 
193164000    291.64118    403.33689    305.83825   -48854.401    48854.809    97.498635    38.774696 
193168000    274.06526    260.72291     331.5257   -48836.206    48858.893   -70.802789    38.776176 
193172000    282.84422    422.35304    404.46239   -48864.476      48866.7    17.890655    38.776907 
193176000    279.66803    597.58031    239.09394   -48877.383    48898.095    358.48637    38.778677 
193180000    271.60032     509.1349    343.57591   -48886.168    48902.558    165.55899    38.785217 
193184000    279.96406    374.02157    451.54619   -48899.249    48912.584   -77.524622    38.784553 
193188000    271.39707    280.17351    283.89333   -48890.803    48917.034   -3.7198224    38.782079 
193192000    303.00916    411.01807    419.98291   -48917.076     48915.28   -8.9648376    38.786688 
193196000    284.83615    446.13981    220.89915   -48932.579    48938.836    225.24065    38.790499 
193200000    296.10497    344.71473    329.65108   -48937.149    48954.323    15.063653    38.790635 
193204000    298.11357    274.89353    379.42789   -48942.774     48956.63   -104.53437    38.793266 
193208000    300.38176    338.09725    359.24613    -48960.67    48962.996   -21.148884    38.789258 
193212000    253.50232    569.82749    212.65312   -48971.027    48977.578    357.17437    38.788568 
193216000    303.31887    513.59086    260.19393    -48973.77    48973.673    253.39693    38.787641 
193220000    281.23847    321.51536     412.8857   -48948.234    48976.292   -91.370339    38.782577 
193224000    260.04529    248.82418    244.74841   -48967.068    48988.558    4.0757614    38.788354 
193228000    270.85504    339.23672    329.92904   -48975.577    49002.947    9.3076806     38.78781 
193232000    265.94172    325.80133    236.53412   -48985.769    49023.628    89.267203    38.788438 
193236000     282.0918    547.82713    558.89724    -49002.85    49017.232   -11.070111    38.789879 
193240000    290.66679    425.44526    230.37985   -49028.977    49021.028    195.06541    38.787351 
193244000    293.81025    331.92041    351.49694   -49035.463    49026.157   -19.576529    38.784112 
193248000    281.44171    392.08432    294.93683   -49041.771    49047.147    97.147487    38.784262 
193252000    302.61968    407.95277    312.75971   -49064.235    49068.754    95.193055    38.779652 
193256000    284.38032    343.96593    272.65824   -49071.485    49064.245    71.307692    38.783875 
193260000    258.48277    307.06321    195.97787   -49076.174    49096.882    111.08534    38.782639 
193264000     290.1975    428.81596    322.90398   -49103.344    49110.345    105.91198    38.783074 
193268000    295.38366    343.33934    349.58563   -49113.888     49115.21    -6.246296    38.786422 
193272000    299.22404    282.25616    615.63721   -49128.725     49114.09   -333.38105    38.783121 
193276000    280.56589    434.76032    184.86547   -49122.376    49135.821    249.89485    38.785539 
193280000    256.91557    519.40355    271.39243   -49137.008    49169.821    248.01112    38.790038 
193284000     289.5213    305.66806     355.2628   -49149.785    49158.186   -49.594748    38.791729 
193288000    294.06366     424.4769      153.217   -49153.248    49160.304     271.2599     38.79498 
193292000    279.70501    310.90984    500.70637   -49151.463    49160.698   -189.79653     38.79782 
193296000     289.1378    203.64721    396.45181   -49158.372    49164.163    -192.8046    38.792075 
193300000    299.20286    238.10494    309.69504   -49150.685    49167.267   -71.590097    38.794006 
193304000    305.56684    507.54814    268.64921   -49166.734    49162.393    238.89893    38.796317 
193308000    306.91468    482.19509    503.87654   -49168.798    49173.483   -21.681453    38.794185 
193312000     274.8531    260.94887    437.74826   -49183.198    49185.255   -176.79939    38.787016 
193316000    290.32137    384.69962    245.90401   -49182.882    49192.426     138.7956    38.784342 
193320000    267.25237    338.04208     232.0888   -49191.009    49193.211    105.95328    38.779334 
193324000    262.32374     284.8993    377.18453   -49189.556    49205.192   -92.285229     38.77764 
193328000    279.93468    353.53043    340.31354   -49199.904    49206.806    13.216894    38.779545 
193332000     267.2031    359.52678    360.82323   -49178.737    49211.555   -1.2964524    38.775753 
193336000    284.90715    262.53128    251.52357   -49180.961    49196.535    11.007714    38.783278 
193340000    275.69412    451.63037    326.24905   -49195.441    49195.563    125.38132    38.778817 
193344000    279.40874    325.17783    216.39151   -49194.511    49206.191    108.78631    38.773962 
193348000    269.38648    388.86452    249.96317   -49192.493    49211.729    138.90135    38.773034 
193352000    271.10312    312.47796    263.09786   -49187.054    49214.867    49.380099    38.772398 
193356000    285.14893    445.37893    263.66814   -49213.964    49224.011    181.71079    38.773079 
193360000    277.23678    417.46858     332.6587   -49225.629    49220.753    84.809878    38.770736 
193364000    284.84876    237.69825    341.72037   -49240.905     49250.58   -104.02212    38.764503 
193368000    295.04823    404.08547    277.05558   -49268.062    49256.429     127.0299    38.769658 
193372000    269.47898    234.39458    282.56857   -49265.333    49270.782   -48.173991    38.770679 
193376000    303.28624     343.5488    446.92918   -49298.978    49280.266   -103.38038    38.776188 
193380000    275.50286    372.64788    238.14992   -49290.318     49301.28    134.49796    38.783028 
193384000    286.89308    277.83503     453.6284   -49298.748    49314.648   -175.79337    38.782473 
193388000    302.42411    407.80285    201.11559    -49323.59    49326.091    206.68726    38.779904 
193392000    266.24965    204.99094    349.98739   -49325.084    49334.975   -144.99645    38.779683 
193396000    276.11248    241.62338    825.58404   -49334.313    49341.003   -583.96066    38.771772 
193400000    285.67384    352.80437     464.9397   -49350.864    49363.339   -112.13534    38.771147 
193404000    300.23891    619.28888    312.22652   -49369.553    49377.874    307.06235    38.770466 
193408000    272.56353    455.72055      202.437   -49381.192    49401.258    253.28355    38.773679 
193412000    282.14089    291.07933    440.14227   -49397.035    49399.266   -149.06293    38.770855 
193416000    298.57303    411.76313    338.65307   -49421.779     49406.49    73.110059    38.771329 
193420000    293.60272     462.5416    361.63616   -49417.579    49426.784    100.90544    38.768305 
193424000    312.57126    274.36426    304.39335   -49422.336    49420.203   -30.029083    38.768498 
193428000    267.26833     473.2029    175.24746   -49418.657    49423.032    297.95544    38.771392 
193432000     259.3094    154.07875    241.58783   -49427.965     49444.87   -87.509085    38.777614 
193436000    316.56551     676.9408    387.37168   -49454.525    49447.323    289.56912     38.77707 
193440000    290.86628    349.21633    188.57867   -49446.364    49447.029    160.63766    38.776791 
193444000    286.31161    261.69756    490.47382   -49445.317    49447.935   -228.77626    38.774844 
193448000     290.1663    435.93359    347.64698   -49474.954    49484.521    88.286611    38.774202 
193452000    278.58863    389.91223    232.32407   -49494.231    49497.334    157.58815    38.774564 
193456000    271.18095    356.87799    288.50978   -49487.862    49509.591    68.368211    38.773093 
193460000    265.54203    421.00705    351.06579   -49485.262    49509.309     69.94126    38.775972 
193464000    284.25587    435.67169    446.56333   -49478.542    49496.132   -10.891644    38.775034 
193468000    302.60931    903.75289    533.81918   -49488.726    49486.574    369.93371    38.774368 
193472000    285.35434    225.17665    263.77148   -49485.803    49494.228   -38.594822    38.774861 
193476000    295.57177    321.11897    247.24259   -49504.425    49500.569    73.876385    38.769473 
193480000    315.24211    588.02101    323.19273   -49523.838    49502.264    264.82828    38.773865 
193484000    274.59554    462.89642    375.50599   -49494.858     49506.05    87.390431    38.772838 
193488000    289.10002    192.38648    279.50646   -49511.417     49515.98   -87.119984    38.765378 
193492000     298.1349    413.94952    572.85756   -49506.345    49517.518   -158.90804     38.76069 
193496000    282.17319    329.73383    361.75699   -49519.097    49527.685   -32.023153    38.760445 
193500000    302.86938    480.42297     622.4479   -49526.225    49530.813   -142.02494    38.759563 
193504000     287.5905    530.85431    473.61351   -49531.137    49536.888    57.240796    38.758819 
193508000    271.36823    262.22399    330.20879   -49523.686    49545.231   -67.984796    38.758234 
193512000    287.97033    484.93809    388.44942   -49527.111    49539.329    96.488671    38.760833 
193516000    302.44827    242.24008    402.83639   -49519.988    49523.766   -160.59631     38.76298 
193520000    267.49171    265.85274    215.13889   -49542.454    49548.666    50.713852    38.764359 
193524000    252.60447    326.99364    253.72444   -49560.703    49568.233      73.2692    38.768326 
193528000    296.90195    548.09845     417.8281    -49560.96    49577.193    130.27035    38.772383 
193532000    269.55893    269.24007    384.08746   -49583.091    49583.026   -114.84739    38.772949 
193536000    269.06289     421.1812    367.66522   -49595.675    49611.711    53.515977    38.772717 
193540000    285.65517    288.55989    550.38238   -49598.012    49608.912   -261.82249    38.771465 
193544000    282.40451    323.17957    357.54382   -49601.112    49610.787   -34.364256     38.76702 
193548000    319.15503    483.83705    310.06526   -49595.588    49591.837     173.7718    38.765578 
193552000    296.96301    265.65439    528.41387   -49608.283    49605.975   -262.75948    38.765825 
193556000    254.79956    280.98694    190.18327   -49620.172    49624.256    90.803668     38.76156 
193560000    298.35533    357.86731    387.85556   -49624.335    49627.198   -29.988243    38.755356 
193564000    261.65845     260.2248    405.91951   -49617.812    49642.731   -145.69471    38.754184 
193568000    278.98232    425.32826    378.18653   -49636.492    49659.788    47.141727    38.753433 
193572000    263.49271    467.06926    338.88326    -49633.41    49659.254      128.186    38.753161 
193576000    272.95674    524.05348    285.82913    -49648.37    49667.597    238.22436     38.76108 
193580000     282.2127    431.25955    200.05974   -49665.186    49678.442    231.19981    38.764001 
193584000    298.27812    486.23418    422.44054   -49669.036    49678.945    63.793643    38.768064 
193588000    253.40444    433.22082    418.65943   -49650.554    49671.253    14.561386    38.766662 
193592000    280.04019    700.37534    221.10148   -49661.316    49673.161    479.27386    38.766031 
193596000    272.49665    347.85131    384.14299   -49672.394    49695.699   -36.291688    38.762319 
193600000    281.46696    244.47731    233.94696   -49696.065    49685.782    10.530348    38.760367 
193604000    263.88997    304.61048    380.97499   -49695.364    49705.372   -76.364506    38.754723 
193608000    263.36896    321.26804    112.33454   -49696.276    49702.762     208.9335    38.760307 
193612000    261.02005    541.04221    270.31991   -49699.311    49698.301     270.7223    38.762204 
193616000    261.98323    339.30602    304.86594   -49704.547    49713.645    34.440077    38.760735 
193620000    270.12962    436.15676    153.94161   -49705.033    49734.042    282.21515    38.758485 
193624000    273.67379    454.14312    353.75501   -49722.473    49726.667    100.38811    38.757631 
193628000    287.16006    420.78117    234.35045   -49731.739    49726.504    186.43072    38.760606 
193632000    276.37304    581.10345    270.05812   -49724.527     49737.69    311.04533    38.762324 
193636000    282.82221    318.42844    239.37289   -49732.035    49731.676    79.055552    38.762966 
193640000     308.9065    311.59403    360.90244   -49738.797    49739.794   -49.308408    38.762195 
193644000       312.96     764.4918     449.8747   -49756.857        49753     314.6171    38.761977 
193648000    277.80637    287.40095    351.99497   -49744.864    49773.932   -64.594014    38.764529 
193652000    268.15723      179.604    206.36248   -49752.671      49780.3   -26.758485    38.772429 
193656000    270.45813    193.04316    233.75151   -49753.118     49771.61   -40.708353    38.773078 
193660000    274.64111    452.19974    308.50113   -49768.514    49775.125    143.69861    38.771825 
193664000    260.87929    347.71297     275.4501   -49772.682    49780.595    72.262868    38.771099 
193668000    280.35329    448.10602    420.14121   -49793.691    49809.737    27.964819    38.773979 
193672000    285.52176    282.40281    410.54146   -49782.372    49814.568   -128.13866    38.771065 
193676000    288.26325    509.27991    446.57926   -49810.563    49819.593     62.70065    38.771957 
193680000    299.43186    481.84926      183.163   -49825.018    49820.051    298.68626    38.767686 
193684000    290.63254    247.59535    206.01845    -49809.45    49818.333    41.576904    38.765262 
193688000    305.26703    510.40392    400.11774    -49836.04    49823.548    110.28618    38.761911 
193692000    297.13139    443.80525    407.77537   -49832.108    49849.567    36.029877     38.75866 
193696000    261.65427    683.30812    371.61244   -49856.611    49854.318    311.69568    38.759387 
193700000    248.00735    131.06586    469.06723   -49851.491    49883.669   -338.00138    38.757096 
193704000    257.86153    331.89283    170.76014    -49863.01    49882.968    161.13269    38.756586 
193708000    298.77257    492.57554    340.93811   -49882.869     49894.89    151.63743    38.758353 
193712000    280.66034    268.99639    243.15987    -49891.79    49900.527    25.836513    38.755658 
193716000    270.04186    422.70657    172.15961   -49877.932    49886.057    250.54696    38.754435 
193720000    287.17857    289.83041    199.82359   -49886.282    49890.913    90.006824    38.751007 
193724000    254.86436    162.62135      255.159   -49886.972    49907.988   -92.537652    38.753168 
193728000    277.20133    337.66618    372.18593   -49903.919    49921.852    -34.51975    38.757541 
193732000    275.23203    212.16884    263.86912   -49918.666    49935.533   -51.700277    38.761044 
193736000    290.10044    391.04355    371.61347   -49939.872    49948.275    19.430082    38.765393 
193740000    268.72267     435.7686    301.80609   -49943.871    49959.918    133.96251     38.76529 
193744000    307.09777     384.2339    390.76828   -49969.414    49974.721   -6.5343816    38.767486 
193748000    276.42272    248.51464    378.13364   -49995.976    50003.414   -129.61901    38.772969 
193752000    268.81278    408.45427    283.52456   -50018.258    50025.226    124.92971    38.773328 
193756000    283.84601    348.09109    336.10726    -50031.22    50025.908    11.983832    38.768222 
193760000     319.2695    541.76744    366.51107     -50044.5    50033.773    175.25637    38.763281 
193764000    297.41256    409.97799    218.02686   -50055.946    50061.161    191.95113    38.759664 
193768000    282.71709    283.23259    419.54843    -50068.94     50072.91   -136.31583    38.757461 
193772000    232.59464    414.39778     191.3312    -50064.86    50099.801    223.06659    38.756857 
193776000    276.79944    537.51981    210.52584   -50084.075    50102.972    326.99397    38.763961 
193780000    250.46145    165.92861    312.11204   -50095.712    50105.693   -146.18343    38.767204 
193784000    290.78255    464.55378    324.08055   -50124.802    50128.082    140.47322    38.768353 
193788000    285.90813    324.94894    242.98927   -50134.754    50138.739     81.95967    38.771501 
193792000    282.01869    334.62408    335.14543   -50145.105    50139.157  -0.52135685    38.771561 
193796000    286.53874    204.06068    257.82754    -50140.25    50150.642   -53.766863    38.770338 
193800000    272.94482    223.70121    309.56718   -50150.463    50163.381   -85.865967    38.768586 
193804000     251.1171      260.279    398.89666   -50150.437    50175.834   -138.61766    38.774975 
193808000    303.86532    446.90411    461.34372    -50177.93    50175.246   -14.439612     38.77214 
193812000     266.0718    215.21042    496.28686   -50166.654     50187.19   -281.07644    38.774074 
193816000    296.40217    353.71834    305.45155    -50180.71    50178.648     48.26679    38.773115 
193820000    280.06266    193.54662    217.22473   -50175.621    50192.292   -23.678108    38.776337 
193824000    283.51697    440.30102    259.65297   -50186.976    50201.543    180.64805     38.78403 
193828000    283.66895    350.87592    726.60817   -50194.352    50193.067   -375.73225    38.782407 
193832000    289.82794    254.70209    350.30218   -50206.941    50213.749    -95.60009    38.783897 
193836000    260.29164    371.39097    251.63851   -50193.336    50236.537    119.75246    38.783395 
193840000    276.99107    200.06332    328.44451   -50206.438    50234.677   -128.38119    38.779297 
193844000    282.05558    311.61494    357.22699   -50233.495    50230.965   -45.612049    38.779655 
193848000    288.57625    291.87105    321.26078   -50240.156    50245.602   -29.389723     38.78493 
193852000      291.111    363.97846    246.54969   -50250.934    50252.863    117.42877    38.782105 
193856000    295.48437    422.35505    323.21676   -50233.077    50246.196    99.138286    38.780823 
193860000    279.93251    472.65261    303.82635   -50244.873    50236.815    168.82626    38.786646 
193864000    284.69243      351.468    331.94655   -50229.678    50240.742    19.521445    38.789808 
193868000     301.1477    279.10356    282.32528   -50241.973    50253.295   -3.2217273    38.790029 
193872000    290.62973    471.33521    323.42421   -50243.636    50257.294    147.91099    38.791531 
193876000    287.72425    245.43998    182.82762   -50243.914    50257.355    62.612356    38.799507 
193880000    273.54115    458.95794    371.36837   -50241.602    50252.737    87.589571    38.792537 
193884000    288.04024    276.22993    280.78737   -50261.618    50263.071   -4.5574331    38.793797 
193888000    271.48767    406.28711    384.28214   -50258.496    50276.834    22.004978    38.800092 
193892000    262.68666    215.08871    349.95162   -50255.276    50275.803   -134.86291    38.798563 
193896000    273.63008    460.44269     193.1832   -50262.186    50274.198    267.25949    38.797645 
193900000    280.57885    305.43605    553.66176   -50264.334    50286.795   -248.22571    38.796567 
193904000     295.4255    234.74665     313.1186    -50298.08    50303.885   -78.371953    38.797834 
193908000    271.47737    410.10625    172.21761   -50304.176    50315.695    237.88864    38.799789 
193912000    282.10456    244.56462    346.26298   -50311.899    50322.307   -101.69836      38.7966 
193916000    297.80936    199.35045    387.09032   -50332.272    50316.251   -187.73987    38.795536 
193920000    249.72526    387.04269    473.12316   -50317.183    50323.773   -86.080468     38.79364 
193924000    293.36774    303.23754    337.40366   -50333.312    50336.452   -34.166127    38.799117 
193928000    305.86018     486.6128    393.82016   -50346.112    50339.634    92.792636    38.798421 
193932000    282.00693      359.419     255.1047   -50350.365    50356.681     104.3143    38.795196 
193936000    279.79732     458.4967    313.25782   -50345.868    50370.471    145.23888    38.799909 
193940000    297.29639    645.31463    446.35298   -50371.142    50379.418    198.96164    38.801036 
193944000    274.73457    429.87898    250.69065    -50378.89    50376.695    179.18834     38.79868 
193948000    307.36106    542.95603    255.70217   -50390.685    50372.703    287.25386     38.79672 
193952000    308.93916    183.90722    491.47621   -50373.014      50366.8   -307.56898    38.793519 
193956000    263.90178    193.94481    357.00512   -50374.343    50392.329   -163.06031    38.797437 
193960000    292.00446    275.63665    328.69863   -50392.358    50379.029   -53.061983     38.79887 
193964000    299.65932    560.65686    402.92861   -50393.104    50396.038    157.72824    38.802791 
193968000    282.63025    326.42755    192.15188   -50398.903    50404.692    134.27567    38.797886 
193972000    254.30527    400.55417    214.51942   -50407.409    50415.647    186.03475    38.794946 
193976000    274.30875    301.20806    268.67307   -50405.098    50417.447    32.534996    38.790973 
193980000    280.20893    335.75057    361.39623   -50416.078    50435.012   -25.645656    38.783771 
193984000    267.46917    394.92275    147.13977   -50417.367    50448.913    247.78299    38.782125 
193988000    268.00342    271.23036    558.41516   -50431.448    50441.118   -287.18479    38.782958 
193992000    252.23328    369.64605    191.13388   -50437.717     50459.09    178.51217    38.784608 
193996000    299.62524    354.84291    350.87697   -50462.979    50447.852    3.9659355    38.782937 
194000000    277.47313    332.99428    449.61861   -50460.277    50462.668   -116.62433    38.777314 
194004000    287.86107    273.13401    227.29847   -50473.216    50472.779    45.835538    38.783859 
194008000    298.00608    394.55334    408.44165   -50477.139    50455.263   -13.888317    38.785883 
194012000    298.24765    252.11834    297.72654   -50489.768    50480.355   -45.608201    38.779247 
194016000    278.93132    545.22983    139.88211    -50480.03    50492.779    405.34771     38.77471 
194020000    267.66266    345.31875    317.08999   -50490.115    50519.481    28.228762    38.771496 
194024000    235.92583    218.94547    255.51992   -50487.923    50529.363   -36.574446     38.77428 
194028000    267.88033    299.29524    225.27116    -50498.26      50525.5    74.024085    38.775398 
194032000    254.44791    302.77213    192.09112   -50516.315    50530.253    110.68101    38.774349 
194036000    302.07804    283.44118    462.36616   -50514.426    50526.317   -178.92498    38.773225 
194040000    286.59307    333.15891    283.73871   -50532.522    50541.449    49.420196    38.767606 
194044000     272.5772    373.13142    415.58893   -50529.391    50528.615   -42.457511      38.7702 
194048000    284.87285    359.31317    283.99115   -50538.758    50552.233     75.32202    38.768165 
194052000     286.7603    420.60992    396.13738   -50554.817    50559.824    24.472541    38.769441 
194056000    258.24753    648.27412    392.31462   -50564.303    50576.554     255.9595    38.770851 
194060000    269.84447    483.12535    267.53211   -50560.293    50588.962    215.59324    38.771694 
194064000    292.52166    225.54882     419.9345   -50574.026    50583.153   -194.38567    38.767734 
194068000    255.74803    290.73244    294.11256   -50573.649    50589.607   -3.3801205    38.771226 
194072000    284.52484    192.87887    199.97193   -50567.564    50585.636   -7.0930676    38.767174 
194076000    284.54908    369.22675    387.04603   -50590.127    50597.707   -17.819286    38.772412 
194080000    274.61264    312.31188    288.49481   -50598.846    50619.216    23.817067    38.766845 
194084000    296.32308    286.81106    414.97136   -50610.881    50616.821    -128.1603    38.764766 
194088000    286.24763    407.94598    429.16308   -50601.337     50611.77   -21.217095    38.768191 
194092000    278.56881    280.28406    386.78558   -50592.289    50615.361   -106.50152    38.769949 
194096000    267.99865    233.97158    201.98587   -50606.226    50625.535    31.985715    38.765575 
194100000    268.07892    292.75528    468.74522   -50608.145    50630.757   -175.98994    38.764703 
194104000    263.64194    432.81803    359.69763   -50619.746    50647.832    73.120396    38.769343 
194108000    296.28005    401.06333    352.07387   -50641.846    50635.079    48.989466      38.7709 
194112000    293.59777    480.62972     257.9494   -50657.743    50660.404    222.68032    38.772191 
194116000    297.62197    463.51819    417.54181   -50663.152     50658.82    45.976386    38.774753 
194120000    277.39144    448.45473    282.84587   -50645.479    50655.984    165.60886    38.773715 
194124000    287.29043    453.21854    677.21416   -50656.367    50658.543   -223.99562    38.772427 
194128000    291.05443    429.02961    453.83586   -50663.974    50676.661   -24.806252    38.765459 
194132000    301.40411    516.08983    373.73403   -50700.114    50680.173    142.35581    38.767171 
194136000    286.92722    327.25897    495.19301   -50693.468    50697.926   -167.93403    38.774291 
194140000     300.9232     342.4298    522.95399   -50700.099    50695.264   -180.52418    38.775581 
194144000    290.86165    244.18699    505.15239    -50681.34    50693.185   -260.96541    38.771712 
194148000    311.21769    595.43337    263.41759   -50696.815    50707.013    332.01578    38.771246 
194152000    293.94198    406.73814    373.36944   -50717.108    50711.565    33.368699    38.772252 
194156000    292.12411    509.43792    418.26571   -50734.573    50712.334    91.172209     38.77569 
194160000    311.84801    417.04266    310.57927   -50729.711    50723.964    106.46339    38.772167 
194164000    281.94677    359.00427     353.5735   -50752.747    50748.152    5.4307631    38.772521 
194168000    278.16942    396.80578    360.46878   -50755.529    50767.559    36.337002    38.770821 
194172000    263.09217    515.44366    487.99966   -50750.907    50774.147    27.444001    38.769431 
194176000    265.56743    455.62124    307.67476   -50762.165     50783.93    147.94648    38.765914 
194180000    274.12524    160.88183    424.55615   -50779.096    50805.156   -263.67431    38.765562 
194184000    306.98542     538.8238    479.25496   -50801.084    50796.814    59.568844    38.760107 
194188000    280.68685    420.78884    405.91497   -50823.785    50815.511    14.873867    38.758785 
194192000    311.13162    710.18461    415.62374   -50843.499    50828.968    294.56087     38.75619 
194196000    292.18689    381.91335    339.59413   -50855.129    50851.515    42.319221    38.753901 
194200000    253.24747    308.51904    280.39765   -50841.156     50869.73    28.121393    38.755685 
194204000     288.5884    391.95888    264.07372   -50865.817    50868.533    127.88516    38.751177 
194208000    285.05572    475.35125     437.4636   -50863.037    50872.237    37.887648    38.747554 
194212000    289.50174    405.29678     262.7456   -50872.863     50887.88    142.55118    38.746879 
194216000    255.93812    301.10087    325.26989   -50889.864    50908.586   -24.169018    38.750184 
194220000    283.95313    444.13815    492.25722     -50887.4     50893.18   -48.119074    38.749376 
194224000    295.31787    475.19137    424.40635   -50906.308     50897.66    50.785023    38.748264 
194228000    298.54945    357.09995    415.72815   -50903.875    50915.828   -58.628205    38.748355 
194232000    303.67767    384.12814     428.5021   -50915.142    50908.009   -44.373958     38.75014 
194236000     312.9996    400.98236    378.63686   -50941.995    50914.762    22.345499    38.751922 
194240000    302.93247    299.09518    396.51444   -50930.323    50924.341   -97.419257    38.749151 
194244000    286.39294     429.6634    245.53511   -50943.834    50940.325    184.12829    38.760367 
194248000     247.5023    506.67498     268.6761   -50934.158    50962.248    237.99888    38.763332 
194252000    246.59454    356.19189    314.95577   -50926.217    50967.591    41.236125    38.767138 
194256000    256.62983    347.07848    289.30002   -50932.134     50970.72    57.778454    38.761881 
194260000    260.85631    454.72253    248.86202   -50950.411    50976.995    205.86051    38.761361 
194264000     270.1862    341.77637    255.19675   -50974.992    50986.109    86.579617    38.762057 
194268000    254.05141    349.26695    191.13952   -50970.396    50999.579    158.12743    38.763275 
194272000    251.13047    505.61554    512.67778   -50977.554    51002.682   -7.0622395    38.764163 
194276000    267.87956    368.86217    282.00695   -50991.362    51011.329    86.855224    38.759571 
194280000    270.45798    353.32106    323.49327   -50983.308    51004.375    29.827787    38.757993 
194284000    306.25165    458.22596    301.67042   -50999.207     51012.81    156.55554    38.760617 
194288000    272.25738    288.28664    466.91696   -51007.012    51017.258   -178.63032    38.758191 
194292000    293.24145    603.56563    382.36029    -51016.15    51022.389    221.20534    38.762758 
194296000    239.01265    361.11225    124.43236   -51010.691    51036.402    236.67989    38.768245 
194300000    294.69509    615.82752    628.24063   -51024.626    51030.221   -12.413117    38.767569 
194304000    272.88383    243.89989    515.85109   -51008.089    51029.782   -271.95121    38.765593 
194308000    264.82047    339.24191    309.91779   -51017.085    51048.674    29.324112    38.770933 
194312000    299.58183    505.22045    654.76813   -51025.308    51022.415   -149.54769    38.772775 
194316000    286.70025    549.65282    438.03261   -51040.413    51047.683    111.62021    38.769333 
194320000     270.1946    321.26746    169.68558   -51057.337    51060.045    151.58188     38.76641 
194324000     281.1611    573.42326    308.77601   -51065.028    51066.226    264.64725    38.761092 
194328000    292.52268    474.75094    186.60715   -51085.996    51080.603     288.1438    38.760935 
194332000     334.6397    742.10983    318.48783   -51101.365    51069.758      423.622    38.763844 
194336000    296.34365    478.04475    632.31067   -51100.402    51091.093   -154.26592    38.760104 
194340000    304.03533    307.33547    518.27067   -51093.288    51089.971    -210.9352    38.759025 
194344000    304.25529    252.33085    210.13628   -51103.992    51093.273    42.194567    38.754828 
194348000     292.5128    258.52994    225.13209   -51108.032     51106.51    33.397851     38.74891 
194352000    289.68245    362.43377    252.43234   -51124.867    51134.127    110.00143    38.748069 
194356000    277.20928    491.24503    294.42858   -51133.715    51141.133    196.81645    38.746499 
194360000     282.3612    237.79804     515.8755   -51153.627    51161.303   -278.07746    38.752817 
194364000    294.54478    304.22238    228.18753   -51172.108    51177.388    76.034851    38.752723 
194368000    275.15382    321.36982     732.8197   -51177.983    51175.557   -411.44988    38.749768 
194372000    264.57627    220.82614    280.97084   -51181.503    51217.149   -60.144696    38.749053 
194376000     279.8327    322.42647    218.06913   -51208.722    51223.352    104.35733    38.751651 
194380000     272.3758     308.4204    464.77658   -51209.358    51211.013   -156.35618    38.751143 
194384000     273.7047    297.12262      210.248   -51229.355    51239.867    86.874616    38.751775 
194388000    249.87619    331.52791    509.76633   -51207.433    51239.341   -178.23843    38.749754 
194392000    284.93001    310.26749    347.63645   -51221.187     51232.45   -37.368957    38.755125 
194396000    297.82925    620.24118    512.62714   -51232.042    51231.151    107.61404    38.751813 
194400000    285.70064    447.26387    258.58076   -51238.635    51250.899    188.68312    38.753617 
194404000    270.47628    248.04593    292.18216   -51253.376    51265.944   -44.136227     38.75451 
194408000    269.22302    237.77999    319.68141   -51241.194    51268.407   -81.901419    38.758424 
194412000    303.00989    298.25056    440.35801    -51262.68    51261.126   -142.10745    38.760068 
194416000    285.25934    421.61305    396.14209   -51259.747    51280.188    25.470961    38.771282 
194420000    273.55446    650.02865     383.9969   -51270.391      51274.7    266.03175    38.777839 
194424000    294.50922    401.38345    247.45214   -51285.434    51280.813     153.9313    38.772549 
194428000    275.58175    192.27299    251.34853   -51285.427    51295.583   -59.075546    38.772026 
194432000    250.58902    174.38863    253.35381   -51303.393    51316.994   -78.965181    38.772572 
194436000    275.27001     361.1638    346.76229   -51325.414    51326.175    14.401507    38.772604 
194440000    262.18017    193.87565    373.64637   -51327.696    51333.991   -179.77072    38.772448 
194444000    246.08411    334.45864    259.28721   -51325.543    51351.962     75.17143    38.772187 
194448000    271.84356    367.25306    320.99172   -51356.382    51373.599    46.261343    38.771987 
194452000    303.02822    291.70882    430.55826   -51372.477     51384.99   -138.84944    38.771455 
194456000    283.62732    393.97034    217.12469   -51357.947     51394.73    176.84565    38.771897 
194460000    273.93785    388.64358    244.68596   -51380.931    51395.707    143.95762    38.774659 
194464000    266.07765    267.44326    437.54131   -51383.131    51395.805   -170.09805    38.778974 
194468000    255.06262    200.07927    232.89205   -51381.546    51416.312   -32.812778    38.773805 
194472000    284.35564    571.04903    398.06597   -51409.131    51434.082    172.98306    38.770144 
194476000       265.93    385.96771    201.24305   -51400.197    51434.535    184.72466    38.772636 
194480000    267.97421    480.25284    597.68345   -51412.236    51438.211   -117.43061    38.774155 
194484000    299.88284    302.02401    709.67257   -51421.833    51425.754   -407.64856    38.767204 
194488000    261.73754    373.49659    211.16895   -51417.055    51450.412    162.32764    38.768977 
194492000    285.66989    217.60219    306.83249   -51443.603    51441.828   -89.230301    38.765769 
194496000     307.3533    265.23185    323.05935   -51443.585    51431.491   -57.827502    38.763558 
194500000    280.46668    573.98029    582.10509   -51438.657    51450.493      -8.1248    38.765318 
194504000    294.62079     392.0083    283.58633   -51482.904    51472.411    108.42197    38.765904 
194508000    262.84033     328.0293     354.2331   -51464.235    51492.519     -26.2038    38.763743 
194512000    261.62379    203.05653    185.39646   -51488.029     51507.46    17.660075    38.762884 
194516000    286.51838    163.01562    462.35837   -51493.746    51506.288   -299.34276    38.761623 
194520000    281.86532    326.15729    353.35205   -51497.989    51510.699   -27.194761    38.762331 
194524000    315.94895    518.53158    266.20411   -51508.651    51513.936    252.32748    38.764792 
194528000    288.80367    333.51795    396.66269   -51512.487    51518.722   -63.144744    38.762194 
194532000    287.65307    313.75837    210.94094   -51510.044    51520.196    102.81743    38.762803 
194536000    271.47592    338.37166    403.45988   -51526.423    51543.187   -65.088217    38.761429 
194540000      270.608    286.47831    188.79025   -51529.952    51540.175    97.688059    38.755385 
194544000    283.54713    411.22634    230.56654   -51533.786    51535.509     180.6598    38.755705 
194548000     263.9541     404.3326    114.11102     -51529.4    51553.536    290.22159    38.755649 
194552000    272.05507    410.81522    302.04097   -51541.684     51556.46    108.77425    38.760376 
194556000    300.75852    304.09606    486.14884   -51552.721    51572.429   -182.05279    38.758991 
194560000    260.53545    403.49772    331.56162   -51567.922     51595.79      71.9361      38.7603 
194564000    271.93058    225.80865     302.2797   -51590.445    51614.221   -76.471048    38.755169 
194568000    278.22459    488.36105    299.75186    -51601.36    51599.927     188.6092    38.758694 
194572000     261.4242    302.61157    330.71005   -51592.808    51601.854   -28.098479    38.758954 
194576000    247.11283    370.02603    444.37273   -51585.461    51618.999   -74.346697    38.759967 
194580000    255.22191    278.62105    195.00181   -51595.425    51621.706    83.619244    38.760704 
194584000    266.68442    476.99001    127.80338    -51608.44    51629.545    349.18662    38.770594 
194588000    268.06812    798.65973    226.47443   -51629.434    51640.883     572.1853    38.773183 
194592000    301.32942    574.99038    326.25626   -51646.018     51649.06    248.73412    38.775199 
194596000    277.18684    248.69506    527.84732   -51632.986    51640.758   -279.15227    38.769951 
194600000    268.36924    259.18513    224.07756   -51628.684    51646.057    35.107564    38.767206 
194604000    286.84072    262.10115    418.67907   -51665.172    51679.975   -156.57792    38.769473 
194608000    267.58852    427.77085    284.70383   -51674.833    51675.529    143.06702    38.764732 
194612000    294.18187    309.54681    255.26524   -51689.741    51676.315     54.28157    38.764027 
194616000    276.86227    485.80802    322.83084   -51685.498    51686.933    162.97718    38.766018 
194620000    296.03307    560.47687    354.64579   -51694.095    51687.479    205.83108    38.762299 
194624000    293.07792      448.288    330.33844   -51703.582    51686.847    117.94956    38.756942 
194628000    296.52952    419.35437    309.45375   -51721.912    51719.717    109.90062    38.755928 
194632000    270.06546     314.6957    327.87468    -51718.36    51730.862   -13.178977    38.753849 
194636000    305.00223    618.51026    266.33358    -51751.86    51730.243    352.17668    38.755347 
194640000    328.17572    689.09983     382.3952   -51748.254    51733.758    306.70464    38.764295 
194644000    304.31901    551.28476    380.27386   -51737.329    51729.103     171.0109    38.764453 
194648000    329.71406    788.69137    309.17778   -51744.058    51733.871    479.51359    38.763003 
194652000    293.08504    273.82571    501.47332   -51729.993    51741.939    -227.6476    38.751384 
194656000    285.00525    266.24361    331.78687   -51738.161    51757.727   -65.543255    38.749713 
194660000    294.96161    562.59207    346.41503   -51769.364    51764.505    216.17704    38.750663 
194664000    303.43105    337.91866    529.40177   -51786.673    51789.862   -191.48311    38.753848 
194668000    299.43645    477.28622    307.54213   -51782.058    51803.674    169.74409    38.757424 
194672000    275.32811    359.94222    340.21451   -51793.797    51809.964    19.727709    38.757512 
194676000    281.92537     358.4781    267.54823   -51803.266    51818.497    90.929869    38.763959 
194680000    286.47967    271.59316    520.99227   -51809.146    51805.659    -249.3991    38.767945 
194684000    297.25195    371.94889    317.22797    -51820.01    51818.153    54.720917    38.771468 
194688000     286.9967    384.19078    387.20738   -51799.854    51815.257   -3.0166076    38.768177 
194692000    298.05298    508.62627    384.62556   -51790.472    51797.086    124.00071    38.768717 
194696000    264.56532    348.58442    377.46332   -51781.997    51804.302   -28.878904    38.767135 
194700000    298.73173    461.54382    345.46227   -51779.281    51793.173    116.08155    38.765075 
194704000    254.19811    302.23369    478.20179   -51776.457    51818.602   -175.96809    38.764096 
194708000    282.19218    272.85807    381.43166   -51800.005    51805.421   -108.57359    38.764653 
194712000    293.66366    274.12233    190.28125   -51814.526    51813.298     83.84109    38.764944 
194716000    303.05651    552.21778    559.77792   -51820.923    51811.417   -7.5601384    38.757515 
194720000     267.2174    290.63828    319.56755   -51801.841    51824.251   -28.929262    38.759179 
194724000    261.56187    209.54872    467.75232   -51809.142    51838.851    -258.2036    38.758947 
194728000    281.62617    510.27224    385.83697   -51826.931    51845.164    124.43527    38.758405 
194732000    251.54397     294.6959    290.52301   -51830.848    51856.948     4.172894    38.755275 
194736000    267.82264    378.95954    221.80023   -51841.393    51870.376    157.15931    38.748753 
194740000    282.37257    258.20254    478.13543   -51845.065    51871.817   -219.93289    38.746384 
194744000    262.94775    376.95361    178.40065   -51862.333    51881.048    198.55296    38.745302 
194748000    261.29464    343.97506    309.69702   -51861.932    51900.485    34.278042    38.747651 
194752000    282.32119    341.04384    519.82652   -51890.984    51895.569   -178.78268    38.749312 
194756000    249.02763     292.2953    259.83027   -51897.155    51923.652    32.465024    38.753349 
194760000    289.84315     356.6731    248.30987   -51908.552    51908.702    108.36322    38.755991 
194764000    306.20294    367.45856    305.43875   -51905.433    51924.138     62.01981    38.756818 
194768000    305.28774    304.24804     409.0395   -51923.768    51928.097   -104.79146    38.763975 
194772000    271.22264    431.90202    319.84478   -51929.441    51944.645    112.05724    38.765663 
194776000    278.39068    568.43695    242.39278   -51933.677    51940.791    326.04416    38.767637 
194780000    275.37011    492.10819    381.75392   -51935.641    51944.622    110.35427    38.771146 
194784000    306.35308    422.54996    579.69192    -51945.83    51930.854   -157.14196    38.770287 
194788000    273.85722    381.52739    410.63668   -51931.754    51941.255   -29.109293    38.778406 
194792000     282.8087    607.74403    414.88734   -51939.629     51952.37    192.85669    38.775912 
194796000    262.44691    367.67122    418.98402    -51936.38     51968.39   -51.312799    38.783449 
194800000    308.85189     601.6129    336.08649   -51954.264    51964.067    265.52641    38.777068 
194804000    296.86553    242.59806    520.54075    -51975.32    51973.963   -277.94269    38.775135 
194808000    282.88479    257.69328    334.08581   -51966.734    51984.031   -76.392525    38.780943 
194812000    283.50599    314.77953    375.68719   -51992.698    52010.527   -60.907669    38.784389 
194816000    271.37614    496.00922     191.0583   -52007.903    52031.498    304.95093    38.784565 
194820000    272.81924    625.81971    458.64244   -52015.135    52035.055    167.17727    38.784281 
194824000      272.045    394.28105    204.82715   -52033.412    52051.177     189.4539    38.785339 
194828000    282.06498    389.35844    407.04886   -52055.467     52074.28   -17.690424    38.788034 
194832000    311.31917    384.06759    303.98492   -52072.257    52070.506    80.082666    38.792946 
194836000    322.34742    410.36749     429.1406   -52089.171    52069.957   -18.773104    38.790091 
194840000    282.35706    493.00186    350.30458    -52099.38    52082.841    142.69728    38.795326 
194844000    312.29206    342.34665    297.81168   -52106.954    52092.124    44.534972    38.794344 
194848000     287.0478    538.86075    231.03005   -52100.497    52112.708    307.83071    38.788151 
194852000    285.97705    429.18081    407.57525   -52119.098    52124.896     21.60556    38.785395 
194856000    287.64828    489.71067    211.73393   -52130.588    52127.873    277.97674    38.787219 
194860000    267.31272    271.03002    680.34774   -52135.806    52143.934   -409.31772    38.788698 
194864000    278.86081    536.96848     260.1289   -52143.831    52163.288    276.83958    38.787482 
194868000     293.1564    373.02434    235.41834   -52153.276    52161.333      137.606    38.794236 
194872000    291.63882    368.62992    239.54695   -52171.874     52163.63    129.08297    38.790119 
194876000    286.61675      475.818     341.1215   -52178.357    52156.826    134.69651    38.794375 
194880000    272.03108    370.33785    605.30323    -52153.28    52163.617   -234.96538    38.793297 
194884000    286.23193    340.80577    533.99931   -52157.835    52162.572   -193.19354    38.793911 
194888000    296.51998    631.24293    235.00659   -52164.826    52169.449    396.23634    38.792517 
194892000    287.97001    258.12483    160.42533   -52173.626    52168.399      97.6995    38.796687 
194896000    295.51788    636.97513    310.83569   -52197.845    52188.553    326.13945    38.792371 
194900000    295.99716    257.34946    408.36402   -52176.764    52184.345   -151.01456    38.788511 
194904000    303.72886     492.6718    317.54153   -52210.753    52200.407    175.13027    38.788508 
194908000    273.39062    341.68499    211.13902   -52208.758    52224.927    130.54597    38.789504 
194912000    289.35891    403.40177    295.66167   -52233.909    52238.619     107.7401    38.786445 
194916000    288.21444    468.08828    282.58346   -52243.565    52250.679    185.50483    38.784465 
194920000    290.34723    494.56591    356.88861   -52241.028    52255.557     137.6773    38.772324 
194924000    295.62415    265.46917     581.4995   -52244.699    52268.282   -316.03033    38.770388 
194928000    260.20961      413.198    460.66232   -52257.556    52282.985    -47.46432    38.768447 
194932000    278.86437    357.89713    433.19607   -52272.508    52278.514   -75.298938    38.771691 
194936000    258.29206    327.13486     467.1121   -52263.883    52295.933   -139.97724    38.766252 
194940000     276.6708    575.38799    226.53764   -52285.942    52295.548    348.85035    38.763789 
194944000    256.69185    315.99304    234.84182   -52294.652     52306.08    81.151228    38.765676 
194948000    291.94555    406.79829    457.76372   -52308.727    52317.857   -50.965431    38.759808 
194952000    289.08691    345.69565     297.8679   -52312.457    52328.869     47.82775    38.758671 
194956000    279.92974    460.19178     202.2053   -52320.989    52326.185    257.98647    38.758648 
194960000    306.79163     330.2297    332.32705   -52335.462    52349.032     -2.09735    38.753581 
194964000    285.93925     468.6704     210.0739   -52338.762    52363.377    258.59651    38.751634 
194968000    284.90741    728.42621    357.50164   -52356.526    52359.709    370.92457    38.749531 
194972000    298.54038    396.64807    279.30823   -52358.658    52367.284    117.33984    38.749782 
194976000    303.80312    752.35213    324.94301    -52381.61    52382.478    427.40913    38.759106 
194980000    264.08734    280.02058    444.49911   -52367.738    52374.768   -164.47852    38.762069 
194984000    276.44196    429.33403    387.00564   -52368.836    52393.405    42.328387    38.761028 
194988000    281.04819     478.4814    339.49143   -52380.626    52388.056    138.98997    38.767536 
194992000    278.48878    418.54809    370.49583   -52398.011    52404.755     48.05226    38.763737 
194996000    271.67093    289.08724    309.85064   -52403.356    52436.709   -20.763402    38.761488 
195000000    259.97499    274.76991    294.48812   -52421.031    52443.367   -19.718215    38.760027 
195004000    289.75718    488.90132    373.26641   -52444.627    52439.815     115.6349    38.759369 
195008000    266.54407    512.82763    321.38326   -52437.519    52467.095    191.44438    38.760386 
195012000    317.92393    675.60294    557.98012   -52458.771     52441.33    117.62282     38.76769 
195016000    296.22403    257.75123    446.10977    -52455.78    52459.178   -188.35854    38.762531 
195020000    307.18309    436.88512    303.71287   -52493.611    52482.135    133.17225    38.762751 
195024000    248.60513    158.11226    381.31816   -52481.082     52508.01    -223.2059    38.762561 
195028000     282.5037    493.73278    296.41084   -52493.718    52517.846    197.32195    38.765508 
195032000    256.05441    247.87464    347.09627    -52498.66    52525.204   -99.221625     38.75976 
195036000     294.0588    398.81422    415.04834   -52516.213    52533.808   -16.234117    38.764013 
195040000    307.10316    435.96448    393.12694   -52527.834    52524.988    42.837539    38.764251 
195044000    285.78902    414.56328    256.11586    -52499.09    52531.844    158.44741    38.765535 
195048000    257.53046    211.64574    240.11594   -52509.129     52528.39     -28.4702    38.767062 
195052000    288.19351    237.26799    337.36114   -52520.924    52534.774   -100.09315     38.76992 
195056000    258.35623    419.48949    237.00319   -52515.348    52531.049     182.4863    38.773995 
195060000    286.21091    372.09073     287.7948   -52538.908    52546.272    84.295931     38.77434 
195064000    291.31721    519.33665    392.88941   -52533.598    52537.318    126.44724    38.775434 
195068000    266.51351     422.1505    155.20674   -52560.626    52572.121    266.94376    38.773718 
195072000    302.35697    547.10925    252.09946   -52562.948    52572.155    295.00978    38.774911 
195076000    296.66051    216.42017    337.02558   -52565.257    52572.965   -120.60541    38.768919 
195080000    261.13479    368.96498    362.35665   -52561.722    52589.911     6.608327    38.765352 
195084000    269.14551    389.23045    252.82761   -52591.767    52602.311    136.40284    38.765883 
195088000    283.58954    408.44697    291.91832   -52592.193    52616.687    116.52866    38.763356 
195092000    270.47303    354.22143    403.75958   -52605.306    52628.443   -49.538152    38.757586 
195096000    272.36906    575.88838    359.18773   -52633.526    52644.469    216.70066    38.755347 
195100000    304.64343    574.20357    457.93414   -52637.361        52644    116.26943    38.757447 
195104000    303.32251    299.50749    557.88627   -52632.925    52632.966   -258.37878    38.758854 
195108000    300.88153    668.81091    209.45694   -52648.213    52645.556    459.35397      38.7605 
195112000    298.75244    440.29806    208.98176   -52645.416    52647.457     231.3163    38.760849 
195116000    332.16491    289.13304      409.115   -52653.077    52650.155   -119.98196    38.757151 
195120000    276.61885    378.50712    407.13948    -52656.77    52672.726   -28.632356    38.754877 
195124000    274.69991    543.64557    252.25304   -52679.399    52691.489    291.39253    38.754147 
195128000    294.60296    458.50753    311.14957   -52689.261    52700.542    147.35796    38.752301 
195132000    275.52464    272.21369    277.70383   -52702.868    52713.783    -5.490141    38.753612 
195136000    279.08078    664.31308    427.70068    -52711.69    52719.068     236.6124    38.758452 
195140000    251.34945    434.49537    356.12511   -52716.609    52738.019    78.370254    38.761006 
195144000      269.846    454.54686    342.71701   -52726.919    52759.823    111.82985    38.759145 
195148000    247.88223    299.63545    222.34328    -52721.43    52769.382    77.292168    38.758413 
195152000    256.62921    291.10848    222.23764   -52735.011    52776.108     68.87083    38.759087 
195156000    260.18041    417.97355    282.22105   -52734.689    52757.811     135.7525    38.753987 
195160000    283.59823     248.3656    378.44887   -52757.225    52759.149   -130.08327    38.749832 
195164000    307.30993    612.04416    342.59255   -52746.655    52747.139    269.45161    38.753466 
195168000    286.86074    428.03429    262.67578   -52750.358    52747.999    165.35852    38.751455 
195172000     297.8608    321.45708    490.14329   -52763.775    52762.527   -168.68621    38.749756 
195176000    277.99457    430.99978    473.04203   -52766.691    52768.997   -42.042254    38.748783 
195180000    295.73963    173.68805     362.9136   -52769.328    52765.499   -189.22555    38.747403 
195184000    249.71654    233.92334    309.00009   -52754.098    52783.972   -75.076752    38.747267 
195188000    290.03996    282.54516    391.85201    -52769.01    52771.958   -109.30685     38.74389 
195192000    302.84332    473.70541    457.74912   -52778.976    52780.514    15.956285    38.754149 
195196000    297.66817    300.13642    216.15747    -52779.24    52785.759    83.978951    38.758663 
195200000     270.4665    348.71429    148.90702   -52783.216    52788.014    199.80727     38.75376 
195204000    296.69099    224.11176    259.79198   -52791.718    52787.196   -35.680218    38.756644 
195208000    261.94047     299.5904    253.05015   -52794.006    52813.374    46.540254    38.755639 
195212000    250.56609    173.32475    237.65239   -52806.084    52829.382   -64.327638    38.753595 
195216000    283.10097    289.36809    189.34681   -52798.762    52825.016    100.02128    38.761226 
195220000    259.15393    135.29995    186.47718   -52788.727    52816.262   -51.177223     38.76937 
195224000    286.22893    501.83655    475.25521   -52807.866    52819.336    26.581342    38.768945 
195228000    283.61029    763.71763    311.30387   -52809.792    52816.806    452.41376    38.771941 
195232000     257.6837    352.52017    321.51452   -52810.276    52823.426    31.005644    38.775974 
195236000    287.84526    329.06823    434.15875   -52809.043    52841.296   -105.09052    38.778626 
195240000    276.90167    379.79344    319.80224   -52824.372    52840.312    59.991192    38.778862 
195244000    292.41321    275.91135    238.55895   -52833.962    52843.132    37.352403    38.779262 
195248000    284.77061    441.52017    287.22201   -52844.199    52854.862    154.29816    38.775629 
195252000    268.03294    512.34147    522.28844   -52826.822    52854.615   -9.9469707    38.781195 
195256000    277.94491    436.53804    327.90489   -52839.412    52858.649    108.63316    38.779124 
195260000    303.89249    370.26845    310.93795   -52869.699    52859.593      59.3305    38.786044 
195264000    284.91314    311.16755    370.00312   -52859.293    52868.894   -58.835568    38.786831 
195268000    259.52987     452.5571    377.58702   -52857.229    52897.425    74.970081    38.785322 
195272000    267.69173    409.72306    267.67324   -52868.964    52897.933    142.04982    38.783717 
195276000    271.09412    212.08201    514.78541   -52861.921    52888.004    -302.7034    38.783831 
195280000    256.41788    307.75893    350.00885   -52867.909    52902.073   -42.249912    38.786771 
195284000    264.39941    290.83329    279.88333   -52888.424    52901.818    10.949953    38.786743 
195288000    262.72125     546.9381    417.70204   -52878.692    52904.752    129.23607    38.790391 
195292000    270.32479    488.52798    457.42732   -52875.047    52898.805    31.100655    38.792693 
195296000    299.01965    543.65646    423.37869   -52883.488    52899.099    120.27778    38.794585 
195300000    299.39485      178.455    643.26302   -52887.181    52884.315   -464.80802    38.792948 
195304000    288.97825    326.50099     193.1073    -52900.16    52901.327    133.39369    38.790125 
195308000    297.54796    246.07794    189.72398   -52905.012    52907.963    56.353963    38.797533 
195312000    287.52904    331.96401    234.70374   -52932.126    52920.915    97.260275    38.803201 
195316000    324.66653    472.43222    434.98652   -52926.941    52926.115    37.445698    38.802711 
195320000     291.6001    502.49199    553.39566   -52922.985    52938.155    -50.90367    38.796796 
195324000    271.77902    175.14744     455.4346   -52925.921    52944.166   -280.28715    38.801036 
195328000    297.22451    687.38402    428.16192   -52935.305    52935.559     259.2221    38.800015 
195332000    298.83358    358.67462    527.88221   -52949.117    52944.541    -169.2076    38.802446 
195336000    301.30892    431.43569    406.85919   -52946.449    52937.108    24.576496    38.804272 
195340000    285.80825    376.04439    174.77828   -52963.321    52970.533    201.26611    38.803143 
195344000    290.37135    424.34336    197.57117   -52957.903    52970.054     226.7722    38.802837 
195348000    275.35736    635.60403    198.12082   -52966.963    52972.161    437.48321    38.806638 
195352000    300.64171    409.48494    474.76857    -52977.38    52976.686   -65.283635    38.800868 
195356000    266.36007    387.61439    278.51306   -52975.204    52998.783    109.10133    38.799701 
195360000    292.91659    341.53592    402.62504   -52986.114    52985.824    -61.08912    38.795764 
195364000    301.83524    339.05229    240.83532    -52993.46    52989.881    98.216965    38.795545 
195368000    286.43513    547.70515    223.41194   -52998.226    53000.961    324.29321    38.803862 
195372000     299.1186    416.74564    367.11784   -52990.386    52979.149    49.627802    38.804967 
195376000    286.80797    270.90316    356.59023   -52996.388    52988.777   -85.687076    38.805679 
195380000    302.48334    341.15472    332.10636   -53008.259    53005.367    9.0483523    38.801093 
195384000    286.60555    290.99737    369.41816   -53001.636     53014.58    -78.42079    38.797355 
195388000        281.4    239.30954    308.05362   -53014.393    53022.763   -68.744079    38.792747 
195392000    261.70175     462.7043    233.32182   -53019.364    53033.772    229.38248     38.79031 
195396000    283.00258    380.88677    238.47894   -52996.003    53014.625    142.40783    38.781333 
195400000    296.01762    367.11554    527.39139   -53011.805    53001.502   -160.27584    38.784346 
195404000    278.90991    518.17429    272.79761   -53014.326    53019.101    245.37668    38.780579 
195408000    296.78464    315.59838    356.70537   -53033.896    53031.342   -41.106991    38.777546 
195412000    302.77677    484.48207    310.70921   -53037.832    53048.293    173.77286    38.784823 
195416000    278.84444     376.4745     190.7549   -53033.107    53049.305    185.71959    38.786917 
195420000    286.18265    283.61126    410.56844   -53044.974    53039.253   -126.95718    38.787635 
195424000    301.20054    506.22985    527.09671   -53054.512    53050.134   -20.866868    38.786108 
195428000    288.02467    377.90371    254.92205   -53066.725    53061.479    122.98166    38.787556 
195432000    261.53148    362.94144    379.75431   -53065.975    53092.043   -16.812868    38.785182 
195436000    280.93065     393.9483    556.57793   -53082.862    53101.983   -162.62963    38.784104 
195440000    261.17917    657.04182    503.28921   -53097.993    53118.188     153.7526    38.781789 
195444000    275.02609    486.01452    238.26204   -53096.776    53122.984    247.75248    38.781638 
195448000    309.20392    372.31768    343.65789   -53120.228    53113.445    28.659784      38.7825 
195452000    294.82662    821.84134     257.1954   -53147.836    53132.257    564.64593    38.780988 
195456000    274.43247    330.25509    524.81399   -53131.682    53142.003    -194.5589     38.77953 
195460000    272.85547    382.47996    331.02512   -53150.675    53150.014     51.45484    38.784842 
195464000    307.78142    454.10139    502.43669   -53171.155    53147.249   -48.335298    38.781915 
195468000    278.11865    362.83679     344.0198   -53177.476    53176.909    18.816985    38.777161 
195472000    286.16638    311.65253    300.80197   -53176.151    53170.309     10.85056    38.776946 
195476000    287.87129    791.81755    354.03166   -53176.179     53178.72    437.78589    38.777368 
195480000    297.30565    879.57786    440.48165   -53175.184    53192.544    439.09621      38.7769 
195484000    278.32499    366.40357    327.43577     -53180.8    53196.237      38.9678    38.777204 
195488000    275.67196    461.14039    342.46993   -53181.428    53190.232    118.67046    38.778622 
195492000    278.79464    404.83157    347.54543   -53181.651    53190.293    57.286136    38.774788 
195496000    262.37702     317.4006    217.62864   -53186.502    53211.649    99.771953    38.769455 
195500000    277.62993    379.45316     376.5573    -53199.33    53215.388    2.8958574    38.762337 
195504000    299.61715    656.16912    264.23441   -53210.907    53222.555    391.93471    38.763739 
195508000    258.55242    266.28292    333.67549    -53229.11     53233.76   -67.392572     38.76646 
195512000    272.56487    242.73477     377.5293    -53240.31    53255.982   -134.79453    38.772475 
195516000    285.72713    315.03469    447.29204   -53255.389     53263.09   -132.25734    38.773536 
195520000     297.0515    350.79832    406.80169   -53265.323    53271.614   -56.003377    38.772667 
195524000    263.81595    248.24072     287.4145   -53259.442    53277.079   -39.173781    38.776053 
195528000    278.93494    356.66306    315.66609   -53259.294    53279.761    40.996968    38.782068 
195532000    275.73325    323.51113    343.23107   -53268.674    53287.454   -19.719938    38.784255 
195536000    276.84194     295.1916    259.62181   -53278.477     53285.25    35.569791      38.7849 
195540000    276.96902    254.82123     487.1732   -53266.813    53281.103   -232.35197    38.782859 
195544000    299.17868    290.03026    470.03619   -53289.368    53299.794   -180.00593    38.784337 
195548000    291.11821    366.40527    427.47983   -53299.599    53299.904   -61.074564    38.784361 
195552000    318.27265    277.44807    630.48289   -53309.046     53308.77   -353.03482    38.780892 
195556000    294.18699    536.48635     170.1625   -53312.796    53309.465    366.32385    38.781873 
195560000    309.22389    590.08948    362.14075   -53345.476    53327.581    227.94873    38.780283 
195564000    259.69347    220.90565    134.86662   -53343.609    53349.923    86.039033    38.780889 
195568000    278.97924     265.0575    240.94828   -53374.084    53371.542    24.109215    38.787814 
195572000    272.85812    184.10027    348.61846   -53364.185     53379.21   -164.51819    38.789235 
195576000    276.25466    397.95543    167.90377   -53364.827    53395.336    230.05166    38.786207 
195580000    282.69883    582.30338    373.21026   -53359.256     53387.52    209.09312    38.783897 
195584000    245.58354    381.30327     136.5909   -53365.027    53399.794    244.71237    38.783987 
195588000    308.79823    338.88869     329.7547   -53382.452    53377.081    9.1339825    38.780256 
195592000    278.24399    357.50639    307.65421   -53370.676    53387.906    49.852178    38.779427 
195596000    271.95292    295.65848    344.01692   -53374.856    53393.243   -48.358442    38.781551 
195600000    262.50537    495.33036    160.02947   -53384.023    53399.935    335.30089    38.783153 
195604000    282.47308      255.206    392.91718   -53392.998    53398.039   -137.71118    38.778812 
195608000    306.70483    399.11069    231.04845   -53406.509    53414.841    168.06224    38.773459 
195612000    291.77899    269.02492     210.4862   -53418.647    53421.386    58.538714    38.771994 
195616000    310.13497    361.04047    463.49484   -53419.637    53416.336   -102.45437    38.774588 
195620000    263.05774    308.37681    289.37517   -53420.964    53423.257    19.001636    38.779304 
195624000    310.82498    480.79006    358.41632   -53441.407    53436.201    122.37374    38.775375 
195628000    296.71607    559.71829    381.50428    -53446.14    53439.842    178.21401     38.77914 
195632000     255.4628     493.9088    372.58244   -53435.669    53459.608    121.32636    38.776926 
195636000    277.30569    312.60644    415.34816     -53432.7    53451.853   -102.74171    38.771692 
195640000    286.37252    264.56994    323.42383   -53435.134    53455.016   -58.853892    38.773347 
195644000    278.05192    505.87283    389.63998   -53443.597    53451.441    116.23285    38.774029 
195648000     270.5479    236.11171    416.03046   -53438.215    53463.191   -179.91876    38.780674 
195652000    270.79967    270.32523    220.49543   -53449.356    53477.951    49.829804    38.779335 
195656000     287.3456     290.8107    270.06225       -53475    53474.814    20.748451    38.784552 
195660000    275.78479    244.80052    291.38049   -53492.557    53500.854   -46.579972    38.787908 
195664000    271.64589    313.40398    356.43426   -53497.476    53516.393   -43.030281    38.787948 
195668000    256.04699    207.00014    284.14846   -53493.693    53523.967   -77.148314    38.788623 
195672000    268.80598    676.95691    259.19959   -53528.651    53537.173    417.75732    38.788384 
195676000    267.73537    252.90637    224.50134   -53527.656    53562.848    28.405031     38.79381 
195680000    257.43957    377.51378     335.7122   -53534.647        53564    41.801577     38.80039 
195684000    285.87718    374.05776    390.09121   -53556.371     53565.62   -16.033452     38.79634 
195688000    264.27742    402.34122     343.6963   -53564.921    53583.394    58.644924    38.797209 
195692000    264.14744    266.28907    515.72676   -53569.999    53588.508   -249.43769    38.800295 
195696000    285.88733     373.6244    533.82881   -53578.079    53592.584   -160.20441    38.792807 
195700000    285.89119    511.84171      357.065   -53606.928     53595.02    154.77672    38.794719 
195704000    273.15044    399.27703    281.85071   -53597.267    53611.245    117.42632    38.797219 
195708000    277.88357    351.51401    109.06534   -53609.903    53620.344    242.44866    38.797524 
195712000    281.13115    577.94139    185.41607    -53602.94    53614.952    392.52532    38.795485 
195716000     253.6832    308.52682    308.27955   -53586.631    53610.969   0.24726565    38.800863 
195720000    252.42915    153.99689    342.55221   -53592.851    53615.054   -188.55532    38.800223 
195724000    268.40158    364.71419     468.1643   -53610.109    53629.201   -103.45011    38.797406 
195728000    281.12071    371.28265    282.06319   -53622.123    53636.607    89.219462     38.79305 
195732000    298.89429    437.44055    243.33457   -53633.117    53619.472    194.10598    38.790441 
195736000    292.11089    460.58898    428.91812   -53639.008    53636.457    31.670853    38.789448 
195740000    282.17083     287.2867    311.89721   -53648.465    53649.857   -24.610511    38.786342 
195744000    299.05476     710.8297    370.07449   -53653.269    53653.934    340.75521    38.785775 
195748000    297.41725    395.45261    492.54135   -53647.285    53651.206   -97.088737    38.787851 
195752000    302.21689    438.46984    406.06373   -53673.636     53672.22    32.406112    38.786363 
195756000    275.56674    339.90717     203.7383   -53673.934    53694.053    136.16887    38.784395 
195760000    285.30226    584.86235    385.37341   -53697.348    53695.615    199.48894    38.778078 
195764000    299.28211    214.79039    128.73181   -53694.314    53718.172    86.058585    38.780613 
195768000     278.6255    168.13158    298.07465   -53694.678    53721.415   -129.94308    38.776905 
195772000    285.65964    410.02072    321.93079    -53717.72    53724.214    88.089931    38.777932 
195776000    270.52506    329.31843    242.28393   -53728.178    53735.635    87.034506    38.787319 
195780000    285.43855    436.91194    341.49222   -53734.392    53748.838    95.419721    38.787798 
195784000    313.94193     532.9072    379.06355   -53757.235    53746.894    153.84365    38.788489 
195788000    273.30393    567.23503    306.85584   -53756.185     53782.38     260.3792    38.786739 
195792000    290.82563    535.76186    352.44895   -53757.169    53771.049    183.31291    38.788817 
195796000    286.02009    721.12706    291.49162    -53772.92    53764.413    429.63544    38.793034 
195800000    277.37911    289.08064    551.20897   -53776.722    53802.646   -262.12833    38.795699 
195804000    299.20418    366.19381    500.50809   -53783.439     53791.54   -134.31428    38.791779 
195808000    291.52652     293.4273    228.62301   -53783.844    53787.749    64.804287    38.792028 
195812000    282.64308    597.41288    311.06519   -53784.051     53789.17    286.34769    38.791321 
195816000    269.69641    206.22768    236.32164   -53780.613    53786.625   -30.093966    38.792625 
195820000    275.54449    370.97125      393.396   -53784.503    53803.562   -22.424749    38.789411 
195824000    246.89113     249.0352    283.53199   -53786.163    53821.035   -34.496785    38.783562 
195828000    244.28682    253.05808    250.90369   -53793.803     53836.45    2.1543839    38.784246 
195832000    239.53023    200.77508    265.45175   -53820.809    53842.311   -64.676676    38.781639 
195836000    276.75932     207.9588    276.29246   -53819.423    53831.054   -68.333657    38.784687 
195840000    305.12877    352.29211    169.62805   -53845.609    53845.788    182.66406    38.785839 
195844000    279.99599     382.8512    317.52228   -53845.743    53852.065     65.32892    38.795206 
195848000    274.67708     321.2845    538.39635   -53830.047    53856.131   -217.11184    38.798861 
195852000    278.51645    285.36037    283.33412   -53856.915    53866.031     2.026244    38.799161 
195856000    311.60401    255.73136    366.15492   -53866.391    53865.003   -110.42356    38.794925 
195860000    297.81159    296.88313    402.78009    -53864.95    53875.731   -105.89696    38.794246 
195864000    305.61266    419.05719    262.38723   -53889.257    53878.926    156.66995    38.791306 
195868000    277.70515    356.83804    552.55843   -53860.989    53883.051   -195.72039    38.785518 
195872000    281.07147    288.94336    246.90129   -53883.204    53890.849    42.042064    38.785839 
195876000    281.45334    248.87458     486.3151   -53899.696    53901.896   -237.44051    38.784442 
195880000    270.68204    570.55136     354.4053   -53901.603    53912.995    216.14606    38.785558 
195884000    265.38617    203.08876    312.71184   -53921.825    53924.951   -109.62308    38.782296 
195888000    297.90433    355.09355    352.05122   -53921.582    53917.878    3.0423352    38.782952 
195892000    271.93992     423.9495    133.08139   -53920.203    53942.206    290.86811    38.786816 
195896000    273.72038    295.88671    581.90943   -53929.499    53925.824   -286.02272    38.787003 
195900000    268.28195    315.43919    228.00417   -53928.591    53939.372    87.435014    38.785077 
195904000    301.43042    462.61107     313.0773   -53948.259    53951.907    149.53377    38.783994 
195908000    308.13601    370.87381    242.24611   -53948.025    53957.016     128.6277    38.787496 
195912000     301.4819    419.67747    283.29869   -53962.809    53965.289    136.37878    38.789219 
195916000    280.10049    672.55803    521.68559   -53964.384    53965.133    150.87244    38.787575 
195920000     287.7158    389.01592    361.79043   -53986.672    53977.922    27.225498    38.787001 
195924000    279.75949    343.24469    444.17393   -53984.307    53985.598   -100.92924    38.787516 
195928000    301.82801    235.62355    320.83393   -54006.885    53998.742   -85.210376    38.789292 
195932000    309.82885    343.87304    402.78155   -54019.484    54009.085   -58.908509    38.787718 
195936000     297.3317    408.33675    404.00588   -54031.222    54028.771    4.3308753    38.792358 
195940000    260.10786    328.62434    418.24841     -54010.6    54039.345   -89.624075    38.787914 
195944000    256.46293    175.38852    273.61758   -54022.171    54043.438   -98.229058     38.79296 
195948000    273.98534    282.72745    436.61529   -54045.162    54060.485   -153.88784    38.791336 
195952000    300.07998    406.91084    331.18554   -54063.416     54075.95    75.725298    38.791532 
195956000    267.36133    218.50712     304.7961   -54062.676    54072.563   -86.288984    38.796472 
195960000    289.75279    584.47761    404.66379   -54071.521    54079.833    179.81382    38.795816 
195964000    273.31918    332.48407    177.06647   -54076.212     54098.48     155.4176    38.798036 
195968000     280.6632    428.99704    470.96508   -54102.793    54096.554   -41.968038    38.798543 
195972000    300.83459    542.88468    385.42285   -54110.227    54117.751    157.46183    38.805691 
195976000     265.2909    302.92257    127.27675   -54109.641    54133.999    175.64581    38.808578 
195980000    282.72321    420.84938    443.55692   -54128.384    54130.178   -22.707542    38.804923 
195984000    284.09824    555.86955    282.64489   -54116.857     54124.87    273.22466    38.802029 
195988000    284.51149    457.36363    358.03822    -54128.97    54145.858    99.325414    38.807334 
195992000    279.58055    809.57426    379.39431   -54151.264    54154.975    430.17996    38.813471 
195996000    293.98691    340.60955     332.3194   -54157.274    54139.686    8.2901589    38.810956 
196000000    289.78622    267.24561    297.93528   -54163.644    54155.101   -30.689671     38.81191 
196004000    292.43539    487.19081    314.06674    -54165.04    54170.405    173.12407    38.815846 
196008000    292.82186    268.26347    376.15638   -54170.802    54170.129   -107.89291    38.817591 
196012000    300.24718    315.91017    321.71252   -54158.632      54174.4   -5.8023529    38.816448 
196016000     269.8993    281.22112    467.40788   -54159.686    54187.737   -186.18676    38.811496 
196020000    283.09872    260.07154    245.63876   -54176.124    54191.159     14.43278    38.812404 
196024000    277.29942    357.24805     192.5923    -54179.75    54198.807    164.65575    38.806994 
196028000    290.50108    327.44694    476.32826    -54177.58    54187.257   -148.88132    38.810392 
196032000    279.70556    256.21608    416.94328   -54182.115    54172.252   -160.72721    38.810741 
196036000    289.79897     381.9252    319.92011   -54200.977    54193.293    62.005089    38.814374 
196040000    278.56375    296.22098    361.77159   -54192.324    54198.399   -65.550615    38.802327 
196044000    274.63396    285.18358    341.55142   -54200.424    54211.699   -56.367846    38.795527 
196048000    268.00922    400.40865    471.75681   -54209.137    54248.275   -71.348158      38.7967 
196052000    279.92462    195.00138    472.32113   -54225.309    54262.299   -277.31975     38.79052 
196056000    260.08433    347.03624    232.82624   -54230.168    54269.504       114.21    38.793467 
196060000    294.74484    332.82244    146.73953   -54263.061    54265.071     186.0829    38.790483 
196064000    295.04732    400.27234    286.37494   -54258.456    54252.459     113.8974    38.788042 
196068000    277.04686    322.29452    153.87595   -54281.146    54283.845    168.41856    38.785893 
196072000    278.46132    395.37468    274.99743   -54274.285    54274.573    120.37725    38.787888 
196076000    291.03337    440.48362    413.75596    -54266.23    54294.816    26.727657    38.778476 
196080000    275.44599     514.2122    275.99926   -54287.691    54302.709    238.21294     38.77918 
196084000    282.36155    470.19974    346.44024   -54299.013    54308.591    123.75949    38.782271 
196088000    294.66695    298.06844    280.11161   -54314.348    54299.735    17.956825    38.775943 
196092000    312.44343    218.93101    425.12318   -54311.182    54298.976   -206.19217    38.777937 
196096000     269.8058    310.13207     230.9528   -54315.409     54320.18    79.179265    38.777924 
196100000    309.04823    381.55744    431.17157   -54319.191    54307.081    -49.61413    38.777198 
196104000    297.24382    367.66102     192.1613   -54331.473     54324.84    175.49973    38.782224 
196108000    316.94411    387.61285    302.75444   -54350.557    54331.309    84.858411     38.77869 
196112000    263.94408    436.08911    491.87299   -54332.753    54335.557   -55.783877    38.776975 
196116000    286.60471    708.00293    248.30315   -54350.183    54359.028    459.69978    38.779222 
196120000    269.19223    285.87459    324.86497   -54338.597    54370.602   -38.990385    38.769641 
196124000    250.12762    278.79732    384.21492   -54342.976    54387.916   -105.41759    38.767193 
196128000    255.21434    344.71182    307.61816   -54338.738    54383.713    37.093661    38.763349 
196132000    274.54704    500.89549    393.97674   -54351.938     54365.63    106.91876    38.761925 
196136000    275.60631    434.08712    290.28846     -54365.7    54368.828    143.79866    38.762335 
196140000    272.03352    314.74631    464.18338   -54358.799    54384.719   -149.43707    38.768149 
196144000    269.04103    359.05088    326.07342   -54374.609    54390.266    32.977463    38.766609 
196148000    261.43634    183.70285    372.82001   -54372.179    54400.797   -189.11716    38.764781 
196152000    268.34125    533.89636    485.33142   -54381.617    54407.311    48.564934    38.764457 
196156000    261.99452    466.05373    347.05182   -54386.787    54400.361    119.00191    38.763614 
196160000    272.56056    247.57859    333.73578    -54400.66    54415.825   -86.157187    38.757558 
196164000     280.8833    371.38292    157.69426   -54401.779    54420.522    213.68866    38.764659 
196168000    259.16409    224.95629    236.52327   -54394.017    54418.785   -11.566978     38.76469 
196172000    278.54134    322.02843     386.3295   -54419.154    54404.958   -64.301073     38.76103 
196176000    285.87594    330.82113    454.08561   -54390.637    54401.748   -123.26448    38.756478 
196180000    304.81614    304.14856    356.67461   -54409.452    54408.053   -52.526044    38.759537 
196184000    289.53007    279.07903    419.89882   -54414.762    54430.103   -140.81978    38.758138 
196188000     286.8844    421.73591    419.79768   -54418.127    54436.842    1.9382338     38.76639 
196192000    293.77787    332.74799    386.54977   -54427.534     54447.06   -53.801783    38.763893 
196196000    268.99004    261.55609    402.27283   -54416.822    54444.704   -140.71674    38.760731 
196200000    299.99161    394.49788    538.38071   -54439.714    54445.627   -143.88283    38.759647 
196204000     248.2607    455.04786    280.35664   -54440.263    54470.076    174.69122     38.75931 
196208000    257.69128    331.91041    209.05258   -54447.047    54465.987    122.85783    38.759016 
196212000     282.7876    779.00926    584.09783   -54454.865    54465.326    194.91143     38.76375 
196216000    307.42077    333.80356    330.46777   -54473.976    54467.051    3.3357948    38.770345 
196220000    300.50167    330.37105    214.92744    -54479.89    54490.402    115.44361    38.769099 
196224000    283.76954    546.23742    206.10708   -54498.192    54506.191    340.13034     38.76856 
196228000    272.11788    391.76269    218.61857   -54497.977    54524.813    173.14411     38.77262 
196232000    276.75608    327.58652       431.29   -54532.961    54527.573   -103.70347    38.771762 
196236000    303.79419    550.92768    341.62612   -54536.691    54530.075    209.30156    38.768469 
196240000    298.51394    656.02181    352.28638    -54545.92    54541.849    303.73543    38.769899 
196244000    290.95443    399.68424    412.99427   -54542.998    54538.231   -13.310032    38.767083 
196248000    297.98118    226.78992    204.39936   -54558.256    54535.772    22.390569    38.760857 
196252000    301.03213     316.9258    286.67686   -54562.671    54556.636    30.248939    38.756217 
196256000    266.82759    175.96348    393.93343   -54564.841    54577.683   -217.96996    38.750378 
196260000     262.8218    453.01311     206.3703   -54575.083     54595.74    246.64282    38.754249 
196264000    259.74041    302.85841    265.24439   -54589.521    54602.794    37.614024    38.752303 
196268000    268.15557     406.7745    395.63337   -54584.553     54611.03    11.141124    38.753392 
196272000    281.20408    386.88207    228.88684   -54582.818    54608.225    157.99523     38.75173 
196276000    269.90351    252.98566    366.61578    -54596.82    54604.575   -113.63012    38.750461 
196280000    314.50526    398.57002    487.79417   -54621.691    54620.446   -89.224149    38.748411 
196284000    269.14295    377.11974    544.72612   -54605.124    54626.649   -167.60638    38.747691 
196288000    247.26068    430.63297    299.62291   -54614.229    54642.114    131.01006    38.742342 
196292000     257.3023     509.8484    207.60858   -54627.073    54642.239    302.23982    38.748402 
196296000     270.5171    347.28067    352.43091    -54629.81    54648.341   -5.1502416    38.749258 
196300000    272.25194    290.74513    689.29425   -54642.978    54646.142   -398.54912    38.742098 
196304000    292.87873    621.41024    344.57326   -54659.919    54655.336    276.83699    38.741872 
196308000    289.15557    397.42909    542.56255   -54651.746    54661.226   -145.13346    38.739175 
196312000    296.60813    533.61908    244.73813   -54648.833    54658.219    288.88095    38.739966 
196316000    283.76129    468.79354    450.58774   -54650.981    54670.046    18.205796    38.740878 
196320000    314.51199    234.28236    251.32691   -54674.973    54671.134   -17.044544      38.7406 
196324000     295.2914    456.12541    473.58449   -54670.153    54685.328   -17.459082    38.740223 
196328000    257.91079    437.07547    313.28831   -54666.807    54678.106    123.78716    38.736555 
196332000    263.93601    294.57791    254.28114   -54675.834    54692.608    40.296774    38.734287 
196336000    275.01373     355.8465    255.57212   -54690.848    54704.079    100.27438    38.734366 
196340000     305.9361    466.53915    375.91547   -54717.376    54712.563    90.623683    38.729574 
196344000    287.56966    521.18585    421.16524   -54724.371    54728.637    100.02062    38.732077 
196348000    295.94785    336.68398    607.61248   -54722.692    54720.843    -270.9285    38.730631 
196352000    274.91402    357.21625    351.34674   -54719.798    54728.135    5.8695138    38.736929 
196356000     259.5311    204.63178    503.70801   -54696.749    54729.527   -299.07623     38.73702 
196360000    275.93361    642.75996    402.73332   -54704.074    54725.614    240.02664    38.738838 
196364000    270.70579     541.9802    321.25381    -54714.42    54737.918    220.72639    38.743659 
196368000    271.47267    235.39922    352.50757   -54715.692    54751.195   -117.10835    38.748073 
196372000    262.44525    323.29322    189.97438   -54729.319    54745.762    133.31884     38.75047 
196376000    293.15278    630.54729    550.07551   -54724.385    54736.173    80.471786    38.750332 
196380000    266.15441    401.15675     292.3836   -54736.803    54751.986    108.77315    38.755297 
196384000    270.12192    408.03832    270.05124   -54743.731    54764.118    137.98707    38.752812 
196388000    271.51735    408.27899    266.35072   -54757.826    54781.361    141.92828    38.756846 
196392000    284.40507    732.71638    577.68212   -54761.754    54788.752    155.03426    38.758726 
196396000    271.01271    311.39551    460.87089   -54783.986    54798.097   -149.47538    38.764042 
196400000    274.61704    306.83799    336.34847   -54783.243    54798.202   -29.510481    38.768077 
196404000    271.08737    256.55693    388.93728   -54783.729    54793.699   -132.38035    38.764898 
196408000    310.52579    248.19222    588.75115   -54810.149    54789.439   -340.55892    38.772146 
196412000    307.08938    540.95334    282.98698   -54835.415    54825.542    257.96636    38.776492 
196416000    275.06331    236.36275    341.51558   -54819.501    54849.097   -105.15283    38.776432 
196420000    283.08259    266.35389    281.82886    -54844.38    54842.643   -15.474968     38.78407 
196424000    282.68832    412.05812    401.43001   -54854.234    54863.196    10.628112    38.783354 
196428000    275.25177    303.02707    535.89634   -54850.717    54861.418   -232.86927    38.781056 
196432000    276.97215    493.40817      601.153   -54872.911    54878.785   -107.74483    38.776589 
196436000     290.8824    536.31776    258.89944   -54866.227     54874.16    277.41832    38.773331 
196440000    299.04917    648.71535     325.4721   -54887.906    54880.855    323.24325    38.774481 
196444000     286.7267     501.3121    415.97809   -54885.037    54886.302    85.334005     38.77327 
196448000    272.57801    277.55252    180.39968   -54902.334    54913.413    97.152839    38.768593 
196452000    294.50799     566.1451    342.86601   -54920.151    54906.489    223.27909    38.770014 
196456000    244.24769    215.68872    277.54109   -54903.313    54921.782   -61.852369    38.770047 
196460000    284.10186    341.62335     181.5191   -54916.052    54919.876    160.10425    38.766999 
196464000    268.28197    313.44582    379.83775   -54919.739    54936.605   -66.391921    38.763819 
196468000    281.73295    265.31796    371.76151   -54932.569    54935.594   -106.44354    38.768359 
196472000    279.44589     386.1272    355.78447   -54939.518    54952.428    30.342727    38.770382 
196476000    264.30387    456.51395     299.1913   -54941.838    54950.649    157.32265    38.766591 
196480000    267.57931    352.55956    194.84804   -54945.055    54962.726    157.71152    38.769274 
196484000    261.71752     382.0343    216.25217   -54943.532    54971.852    165.78213    38.761847 
196488000    294.99447    301.41704    539.72371   -54953.245    54967.314   -238.30667    38.762703 
196492000    287.31855    520.48889    244.69718   -54957.569    54955.381    275.79171    38.763441 
196496000    296.71846    630.25313    349.54771    -54956.98    54955.279    280.70542    38.764019 
196500000    270.13391    370.68342     317.3006   -54959.665    54971.598    53.382826    38.761895 
196504000    289.86587    333.42362    396.89847   -54974.556     54989.15   -63.474857    38.756589 
196508000    265.76599    286.74957    256.45116   -54973.447    55003.572    30.298405     38.75547 
196512000    276.15377    313.38229    391.07643   -54992.243    55019.184    -77.69414     38.75454 
196516000    274.85082    271.26689    288.90347   -55011.706    55027.671   -17.636574     38.74913 
196520000    282.62439     601.2121    493.09081   -55020.963    55022.832    108.12129    38.750475 
196524000    320.78763    341.10307    358.50342   -55025.863    55023.059   -17.400352    38.748825 
196528000    268.13815    309.30258    304.24555   -55020.799    55039.344    5.0570221    38.750596 
196532000    313.67753     661.1513    396.67623   -55075.502    55040.382    264.47507     38.75427 
196536000    320.10433    376.70861    470.27307   -55070.075    55048.398   -93.564466     38.75049 
196540000     311.4976    435.95905    664.52284   -55063.156    55053.238   -228.56379    38.762419 
196544000    318.86221    448.73593     394.2709   -55071.814    55052.538    54.465023    38.760405 
196548000    298.34344     347.8533    348.80943   -55053.594     55039.28  -0.95612453    38.757283 
196552000    268.26057      310.199    463.46879    -55055.09     55063.59   -153.26978    38.756491 
196556000    275.97467    305.56951    269.33362   -55062.321    55074.128    36.235884    38.756163 
196560000    284.62363    285.44964    590.80454   -55063.908    55079.285    -305.3549    38.756012 
196564000    298.04568    420.78721    384.35745   -55068.054    55084.525    36.429763    38.751889 
196568000    285.98423    406.84529    215.16471   -55074.438    55102.168    191.68058     38.75312 
196572000    291.01321    335.18445     399.0888   -55087.557     55110.21   -63.904352    38.754401 
196576000    265.54868    281.02238    377.76573   -55098.476    55112.067   -96.743352    38.756843 
196580000    294.13514    276.65277     440.4229   -55109.212     55115.69   -163.77013     38.76398 
196584000    271.32933    344.77328    466.90192   -55105.707    55127.616   -122.12864    38.758704 
196588000    263.86012    397.47347    244.49058   -55120.835    55144.952    152.98289    38.767802 
196592000    262.30461    181.10978    411.05469   -55137.679    55147.715   -229.94491    38.767093 
196596000    272.70344    276.53967    458.84446   -55141.607    55147.505   -182.30479    38.767816 
196600000    274.61032    274.81706    240.79675   -55140.635    55147.483    34.020309    38.771212 
196604000    270.81915    435.02339    292.85124   -55156.523    55148.982    142.17215    38.775642 
196608000    246.60506    330.43422    391.54685   -55146.749    55182.506   -61.112632    38.779403 
196612000    293.49138    222.07186    171.15714   -55174.977    55192.123    50.914724    38.776918 
196616000    283.91246      556.793    223.54699    -55184.98    55194.174    333.24602    38.777424 
196620000     283.7334    375.50895    312.08609   -55183.701    55194.771    63.422865    38.777723 
196624000    294.47298    319.77507    351.67745   -55203.858    55203.399   -31.902376    38.775898 
196628000    310.96473    291.60512    411.63942   -55213.258    55212.607    -120.0343    38.778265 
196632000     283.6274    458.23573     253.9313   -55223.714    55232.859    204.30444    38.775708 
196636000    284.97296    258.46926    405.50314   -55236.575    55250.392   -147.03388    38.776106 
196640000    320.19608    236.02813    295.62926   -55270.043    55249.957   -59.601135    38.777528 
196644000    270.68123    528.88526    230.66521   -55289.452    55291.408    298.22005    38.775784 
196648000    288.22657    334.04711    417.76513   -55285.293    55298.539   -83.718021    38.774905 
196652000    283.68126    414.62959    421.23628   -55301.857    55313.575   -6.6066875    38.783554 
196656000      283.677    367.44722    471.93906   -55300.653    55301.344   -104.49183     38.77799 
196660000    299.05705    324.34261     207.4869   -55301.241    55317.146    116.85571     38.77581 
196664000    269.39226    320.88192    226.07981   -55317.527    55324.955    94.802115    38.778451 
196668000    282.36498    239.97064    176.67348   -55314.102    55324.734    63.297152    38.775365 
196672000    292.01092    413.10904    299.59201   -55322.648    55323.534    113.51704    38.775639 
196676000    275.44255    314.65149    223.65343    -55325.23    55328.453    90.998068    38.770376 
196680000    275.83132    376.97557    160.19257   -55310.696    55318.067      216.783    38.772813 
196684000    280.28182    439.91914     317.3638   -55298.857    55315.911    122.55534    38.767181 
196688000    239.57675    418.71558    374.34024   -55298.969    55330.461     44.37534    38.770071 
196692000    281.85956     396.6215    834.88834   -55318.077    55334.908   -438.26684    38.772224 
196696000    251.48491    368.39118    284.23481   -55315.185    55362.501    84.156365    38.772193 
196700000     264.7974    346.76301    463.63617   -55337.506     55357.88   -116.87316    38.765616 
196704000    297.69536    291.22277    307.87637   -55363.281    55353.049   -16.653602    38.758523 
196708000    315.53782    150.35218    545.48842   -55384.534    55346.851   -395.13624    38.757891 
196712000    327.62485    687.41148    231.86575    -55392.72    55375.258    455.54573    38.756733 
196716000    311.09883    498.56056    279.18147   -55394.512    55393.941    219.37909    38.752116 
196720000    295.96578    455.55202    316.49669   -55400.856    55408.974    139.05532    38.759656 
196724000    291.92892    350.71649    364.62409   -55405.659     55420.56   -13.907607    38.759349 
196728000    274.00755    272.51264    176.05144   -55418.725     55444.69      96.4612    38.756715 
196732000    298.43813    132.72017    450.98611   -55421.558    55422.869   -318.26594    38.752642 
196736000    278.82331    276.94164     271.9707    -55420.82    55433.258    4.9709458    38.751929 
196740000    281.66139    307.69414    553.09789   -55433.529    55440.157   -245.40376    38.751378 
196744000    283.51103    475.86305    326.72474   -55445.479    55453.278    149.13832    38.751486 
196748000    289.10741    325.65868    558.45599   -55432.657    55441.628   -232.79731    38.750762 
196752000    265.58205    305.64383    114.70081   -55432.162    55457.188    190.94302    38.756318 
196756000    298.10811    265.43488     391.2825   -55447.179    55459.193   -125.84762    38.752283 
196760000    268.50801    248.58605    270.34345   -55455.016     55481.38     -21.7574     38.75791 
196764000    266.94443     192.8513    404.32087    -55455.75    55479.014   -211.46957    38.757737 
196768000    271.97129    214.31079    386.04083    -55467.37    55483.358   -171.73004    38.758845 
196772000     284.4831    307.53004    308.05962   -55478.082    55500.609  -0.52957581     38.75476 
196776000    276.61919    427.67739    421.79302   -55499.512    55508.014    5.8843666     38.75212 
196780000    257.14726    307.13419    245.68481   -55504.219    55536.216    61.449382    38.751575 
196784000    256.42772    238.96358    301.58757   -55501.595    55527.704   -62.623992    38.746498 
196788000     253.2893     457.6466    246.51454    -55500.34    55545.325    211.13206    38.744207 
196792000    282.05022    404.56922    274.75048   -55510.664    55529.333    129.81874    38.745708 
196796000    244.23397    161.00676    269.35946   -55506.555    55537.839    -108.3527    38.742253 
196800000    271.00058    297.02042     414.0938   -55506.024    55523.008   -117.07338    38.741943 
196804000    253.01827    439.78179    213.58422   -55503.958    55540.632    226.19758    38.737613 
196808000    240.56861    306.14112    219.23071    -55520.62    55535.502    86.910411    38.736813 
196812000     254.6412    129.32239    319.61455   -55520.743    55531.211   -190.29217    38.736544 
196816000     272.4208    316.02265    269.40614   -55518.728    55534.605    46.616505    38.738416 
196820000    253.78127    507.15007     247.5866   -55530.559    55544.235    259.56347    38.738439 
196824000    256.12739    406.31025    318.91076   -55527.729    55547.438    87.399486    38.734056 
196826000    242.73211    444.43744    310.69943   -55523.595    55533.366    133.73801    38.734056 
Loop time of 2523.74 on 24 procs for 32000000 steps with 196 atoms

Performance: 1369.395 ns/day, 0.018 hours/ns, 12679.588 timesteps/s
99.9% CPU use with 24 MPI tasks x no OpenMP threads

MPI task timing breakdown:
Section |  min time  |  avg time  |  max time  |%varavg| %total
---------------------------------------------------------------
Pair    | 1.1984     | 31.179     | 275.63     |1302.1 |  1.24
Bond    | 1.6187     | 84.12      | 758.57     |2189.4 |  3.33
Neigh   | 18.833     | 21.892     | 23.057     |  29.0 |  0.87
Comm    | 10.13      | 165.73     | 1279.2     |2821.4 |  6.57
Output  | 4.5245     | 4.9937     | 5.0181     |   4.4 |  0.20
Modify  | 596.98     | 1868.3     | 2113.3     |1256.0 | 74.03
Other   |            | 347.5      |            |       | 13.77

Nlocal:    8.16667 ave 88 max 0 min
Histogram: 21 0 0 1 0 0 0 0 1 1
Nghost:    12.4167 ave 115 max 0 min
Histogram: 20 0 0 1 1 0 0 0 1 1
Neighs:    74.7917 ave 802 max 0 min
Histogram: 21 0 0 1 0 0 0 0 1 1

Total # of neighbors = 1795
Ave neighs/atom = 9.15816
Ave special neighs/atom = 5.93878
Neighbor list builds = 355152
Dangerous builds = 0

write_restart FINALCONFIG

#and everyone lived happily ever after, THE END
Total wall time: 0:43:06
