LAMMPS (16 Mar 2018)
#lammps script for united atom polymer simulation (full-scale run)

# 1. INITIALIZATION
#allows pair, bond, bending and dihedral interactions
atom_style molecular

  # periodic (video game) boundaries in all cartesian directions
boundary p p f

  # uses real units (instead of units based on pair potential parameters).  List of units used in manual
units real

###########
# 2. ATOM DEFINITION
##########

   ##
   # Read in data from starting configuration file
   ##

#read_data chainconfig.dat

 #use to restart
read_restart RESTART
WARNING: Restart file used different boundary settings, using restart file values (../read_restart.cpp:789)
  orthogonal box = (-200.000 -200.000 0.000) to (200.000 200.000 124.000)
  2 by 2 by 7 MPI processor grid
  98 atoms
  97 bonds
  96 angles
  95 dihedrals
  2 = max # of 1-2 neighbors
  2 = max # of 1-3 neighbors
  4 = max # of 1-4 neighbors
  6 = max # of special neighbors

   ##
   # Specify the nature of the bond interactions
   ##


bond_style harmonic
bond_coeff 1 450 1.54

special_bonds lj 0.0 0.0 0.0 angle no dihedral no

angle_style harmonic
angle_coeff 1 62.1  114.00

dihedral_style opls
dihedral_coeff * 1.4110 -0.2708 3.143 0.0

mass * 14.0

pair_style lj/cut 14.0
pair_coeff 1 1 0.0912 3.95 14.0
#pair_modify tail yes


group freeze type 2
6 atoms in group freeze
fix startend freeze setforce 0.0 0.0 0.0

################
# 3.  Simulation Settings
###############

neighbor        2.0 bin
neigh_modify    every 1 delay 0 check yes



# Define some variables
variable Lx          equal xhi-xlo   # Ang
variable Ly          equal yhi-ylo   # Ang
variable Lz          equal zhi-zlo   # Ang

variable dz          equal ${Lz}/30  # Ang
variable dz          equal 124.000000/30  

variable zzlo        equal zlo  # Ang
variable zzhi        equal zhi  # Ang
variable TEMP        equal 300.00 # K
variable TThi        equal 320.00 # K
variable TTlo        equal 280.00 # K
variable dt          equal 1.25 # fs

timestep     ${dt}
timestep     1.25

variable zlo1      equal ${zzlo}+${dz}
variable zlo1      equal 0.000+${dz}
variable zlo1      equal 0.000+4.1333333
variable zlo2      equal ${zzlo}+2*${dz}
variable zlo2      equal 0.000+2*${dz}
variable zlo2      equal 0.000+2*4.13333333
variable zhi1      equal ${zzlo}+28*${dz}
variable zhi1      equal 0.000+28*${dz}
variable zhi1      equal 0.000+28*4.13333333
variable zhi2      equal ${zzlo}+29*${dz}
variable zhi2      equal 0.000+29*${dz}
variable zhi2      equal 0.000+29*4.13333333

# heat layers

region          hot  block  INF INF INF INF ${zlo1} ${zlo2}
region          cold block INF INF INF INF ${zhi1} ${zhi2}
compute         Thot all temp/region hot
compute         Tcold all temp/region cold


# 1st equilibration run
fix             1 all nvt temp ${TEMP} ${TEMP} 50
fix             1 all nvt temp 300 ${TEMP} 50
fix             1 all nvt temp 300 300 50
thermo          100
run             1000
Unused restart file peratom fix info:
  fix style: STORE, fix ID: layers_COMPUTE_STORE
Neighbor list info ...
  update every 1 steps, delay 0 steps, check yes
  max neighbors/atom: 2000, page size: 100000
  master list distance cutoff = 16
  ghost atom cutoff = 16
  binsize = 8, bins = 6 5 16
  1 neighbor lists, perpetual/occasional/extra = 1 0 0
  (1) pair lj/cut, perpetual
      attributes: half, newton on
      pair build: half/bin/newton
      stencil: half/bin/3d/newton
      bin: standard
Per MPI rank memory allocation (min/avg/max) = 8.75 | 9.044 | 9.583 Mbytes
Step Temp E_pair E_mol TotEng Press 
135224000     262.4427    34330.525    85.703071     34492.11    43282.478 
135224100    327.15242    34330.518    84.569662     34509.68    43279.836 
135224200    267.38388    34330.593    94.109083    34502.013    43224.338 
135224300    339.72647    34330.617    88.040741    34516.886    43295.618 
135224400    288.68405    34330.559    79.215351    34493.245    43208.877 
135224500    252.31204    34330.587    97.897899    34501.438    43299.856 
135224600    300.79982    34330.546    90.944769    34508.463    43216.275 
135224700    243.70782     34330.49    86.146854    34487.102     43286.99 
135224800    285.47932    34330.569     98.63771     34511.75    43248.308 
135224900    278.23173    34330.596    86.780513    34497.824    43223.445 
135225000    324.62842    34330.653    100.56962    34525.085    43286.414 
Loop time of 0.0262242 on 28 procs for 1000 steps with 98 atoms

Performance: 4118.327 ns/day, 0.006 hours/ns, 38132.661 timesteps/s
95.4% CPU use with 28 MPI tasks x no OpenMP threads

MPI task timing breakdown:
Section |  min time  |  avg time  |  max time  |%varavg| %total
---------------------------------------------------------------
Pair    | 4.53e-05   | 0.00050027 | 0.0020499  |   0.0 |  1.91
Bond    | 6.2704e-05 | 0.0012332  | 0.0042801  |   3.8 |  4.70
Neigh   | 0.00092602 | 0.00093272 | 0.00094223 |   0.0 |  3.56
Comm    | 0.008805   | 0.012613   | 0.015649   |   1.8 | 48.10
Output  | 0.00026321 | 0.00026632 | 0.00030208 |   0.0 |  1.02
Modify  | 0.0030322  | 0.0070295  | 0.012369   |   3.4 | 26.81
Other   |            | 0.00365    |            |       | 13.92

Nlocal:    3.5 ave 14 max 0 min
Histogram: 15 1 2 2 1 2 1 2 0 2
Nghost:    35.7857 ave 40 max 25 min
Histogram: 2 0 2 0 3 1 3 1 1 15
Neighs:    32 ave 140 max 0 min
Histogram: 15 2 1 3 1 2 1 1 0 2

Total # of neighbors = 896
Ave neighs/atom = 9.14286
Ave special neighs/atom = 5.87755
Neighbor list builds = 9
Dangerous builds = 0
velocity        all scale ${TEMP}
velocity        all scale 300
unfix           1

# Second Equilibration
fix             1 all nve
fix             hot all langevin ${TThi} ${TThi}  50.0 59804  tally yes
fix             hot all langevin 320 ${TThi}  50.0 59804  tally yes
fix             hot all langevin 320 320  50.0 59804  tally yes
fix             cold all langevin ${TTlo} ${TTlo} 50.0 287859 tally yes
fix             cold all langevin 280 ${TTlo} 50.0 287859 tally yes
fix             cold all langevin 280 280 50.0 287859 tally yes
fix_modify      hot temp Thot
fix_modify      cold temp Tcold

variable        tdiff equal c_Thot-c_Tcold
thermo_style    custom step c_Thot c_Tcold f_hot f_cold v_tdiff
thermo            4000
run             800000
Per MPI rank memory allocation (min/avg/max) = 9.5 | 9.93 | 10.33 Mbytes
Step c_Thot c_Tcold f_hot f_cold v_tdiff 
135225000    584.69396    465.92804           -0           -0    118.76592 
135228000    588.52908    101.84563   -3.7977259    30.757522    486.68345 
135232000    367.63565    150.89379   -19.981947    42.447708    216.74186 
135236000    293.50456    938.23195   -28.826224    68.245784   -644.72739 
135240000    530.69796    375.47347   -59.509935    90.592548    155.22449 
135244000    568.82844    789.10426   -88.263443    97.827035   -220.27582 
135248000    419.72711    343.49645   -75.245786    106.38741    76.230663 
135252000    697.58903    426.33367   -89.332923    123.22637    271.25536 
135256000    503.26022    140.03317   -104.25848    124.77318    363.22706 
135260000    186.28945    250.81446   -101.20749    140.23974   -64.525005 
135264000    180.34661    741.17538   -135.46264    161.56288   -560.82877 
135268000    510.48114    342.27824   -148.50561    177.51795     168.2029 
135272000    370.06649    261.63619   -155.38335    172.87077    108.43031 
135276000    455.35397     98.94947   -169.94701    186.78297     356.4045 
135280000    546.88331    558.36601   -183.35211    212.74105   -11.482702 
135284000    316.98262    408.29624   -207.87589    211.42953   -91.313626 
135288000    847.38632    368.50142   -203.72926    226.16165     478.8849 
135292000    739.14871    199.05309   -207.76932    241.00338    540.09562 
135296000    388.75029    396.19396     -215.668    240.11592   -7.4436682 
135300000    985.91617    343.51702   -212.08719    244.94926    642.39915 
135304000    621.64085    285.95073   -235.27231    242.87845    335.69013 
135308000    279.90408    173.17599   -245.05178    261.02262    106.72809 
135312000    705.36486    224.35218   -239.22731    267.15026    481.01268 
135316000    487.99951    556.34183   -256.76133    272.13562   -68.342317 
135320000    441.30097    210.89896    -262.0912    296.83611    230.40201 
135324000    505.17585    324.19817   -273.58537    274.50685    180.97768 
135328000     585.7115    456.85066   -268.03149    285.64796    128.86084 
135332000    119.42521    316.13202   -275.50073    304.21312   -196.70681 
135336000    291.22082    406.38155   -285.15859    303.93941   -115.16073 
135340000    905.67221    198.23257   -285.04192    315.20857    707.43964 
135344000    1026.4759    159.55425   -303.44836    296.82485    866.92168 
135348000    87.732856    592.07919   -306.99157     316.1496   -504.34633 
135352000    219.51929    436.06722   -302.56343    331.25881   -216.54793 
135356000    454.65021    603.94081   -301.74477    319.35061    -149.2906 
135360000    662.08125    614.60949   -306.38558    328.10706    47.471758 
135364000    587.15328    460.28751   -325.74537     345.4334    126.86577 
135368000    767.67537    287.25686   -333.63234    365.82302    480.41851 
135372000    873.61384    412.73979   -339.79758    375.60187    460.87405 
135376000    404.13355    313.39382   -359.90015    391.66167    90.739725 
135380000    160.74834    610.00973   -387.52199    414.37892   -449.26138 
135384000    502.81286    358.42129    -398.9579    425.94202    144.39157 
135388000    541.02689    778.23616   -418.50571    431.61818   -237.20927 
135392000    492.32294    534.42161   -421.39014    448.14488   -42.098666 
135396000    853.33992    446.13703   -451.19437     470.4487    407.20289 
135400000    838.85664    309.02039   -456.49141    475.11495    529.83625 
135404000    483.31613    1125.1956   -454.32496    475.46494   -641.87951 
135408000    552.66537    353.60022   -454.79347     472.5382    199.06515 
135412000    618.44299    258.74393   -458.85306    486.76238    359.69906 
135416000    288.20999    745.50325   -473.60203     505.7802   -457.29326 
135420000    428.37708    601.50769   -487.15257    506.84412   -173.13062 
135424000    350.46246    297.34838   -488.78972    515.73253    53.114073 
135428000    280.38785    373.15457   -500.12068    539.52775   -92.766716 
135432000    228.52317    280.78421   -521.78888    557.01804   -52.261044 
135436000     183.8955    556.61452   -540.44445    568.69918   -372.71902 
135440000    230.15786    137.62607   -540.70757    554.43163     92.53179 
135444000    1159.5082    480.19868   -546.31025    559.20233    679.30949 
135448000    500.39554    783.61796   -550.14722    566.57866   -283.22242 
135452000    572.86416    413.68178   -555.46167    577.02698    159.18237 
135456000    358.15567     793.7987   -579.02935    585.99019   -435.64303 
135460000    224.33563    449.43128   -576.48544    599.48827   -225.09566 
135464000    661.57318      465.816   -577.98667    594.38166    195.75717 
135468000    186.40502    381.21833   -589.95768    617.53279   -194.81331 
135472000    774.12753    348.77045   -601.76306    624.60389    425.35708 
135476000    507.55553    180.17836   -620.29294    641.38494    327.37717 
135480000    742.82531    102.32911   -643.31897    649.22239     640.4962 
135484000    267.89294    593.70968   -646.03547    653.07225   -325.81674 
135488000    333.59159    486.08104   -637.23558    666.15474   -152.48945 
135492000    301.32893     216.5089   -662.32552    681.13848    84.820029 
135496000    286.59628    511.27329   -673.24738    699.56866   -224.67701 
135500000    376.00437    312.94844   -700.41439    718.93211    63.055927 
135504000    498.02081    331.55687   -721.12834    742.06524    166.46394 
135508000    185.48863    338.89501   -714.34298     751.0708   -153.40637 
135512000    901.60889    776.89324     -722.645    760.55777    124.71565 
135516000    730.47164    384.68635   -747.72435    769.17367    345.78529 
135520000    657.32726    615.90581   -772.79111    767.34641    41.421446 
135524000    887.62935    237.84585   -767.15784     807.1961     649.7835 
135528000     209.0836    752.16358   -806.87552    829.51881   -543.07997 
135532000    157.76195    340.28098   -800.06809    838.03107   -182.51903 
135536000    700.85162    703.37815   -827.27311    850.53694    -2.526525 
135540000    488.65883    369.39259   -842.69743    859.88947    119.26624 
135544000    318.88532    497.68814   -840.36299    877.95333   -178.80282 
135548000    127.55043    621.56598   -861.93354    895.35745   -494.01555 
135552000    72.088312    315.41042    -869.6125    898.33232   -243.32211 
135556000    135.18753    471.73928    -907.4327    924.65214   -336.55175 
135560000    338.73086    366.33567   -921.76056    927.98155   -27.604806 
135564000    883.31209    743.79756   -918.92103    929.31251    139.51453 
135568000    357.43227    208.90978   -918.47767    943.71473    148.52249 
135572000    349.45086    825.86548   -931.84898     942.7624   -476.41461 
135576000    748.89111    283.30388   -938.55482    946.22297    465.58723 
135580000    618.58614    123.11987   -921.30582     942.2701    495.46628 
135584000    421.73336     182.4707    -936.7029    947.46881    239.26266 
135588000    740.61946    464.49918   -943.16216    954.73966    276.12027 
135592000    373.01238    152.21101   -956.06546    982.70576    220.80137 
135596000    452.19465    279.99529   -975.24949    980.92047    172.19936 
135600000     884.2763    216.83807   -960.06269    971.13375    667.43823 
135604000    304.20652    722.25895   -970.97885    974.71533   -418.05243 
135608000    223.85751    316.64487   -975.02286    1004.5673   -92.787352 
135612000    370.45005    538.01227   -992.45271    1014.2233   -167.56222 
135616000    353.10826    531.47862   -1007.8724    1026.1952   -178.37037 
135620000    253.30025     544.1231   -1029.1588    1048.3786   -290.82285 
135624000    502.24447    288.32593    -1025.802     1058.482    213.91854 
135628000    701.93767    137.87847   -1023.6967    1049.4491    564.05921 
135632000    893.25172    187.18052   -1035.7944    1065.2524     706.0712 
135636000    334.19734    220.37231   -1036.6848    1069.4276    113.82503 
135640000     1105.547    302.62082   -1068.8932    1076.8845    802.92622 
135644000    484.46427    369.72364   -1078.3531    1087.3263    114.74063 
135648000    258.31782    296.96282   -1083.7167    1092.8269   -38.644999 
135652000    649.98944    268.10658   -1094.9813    1114.1178    381.88286 
135656000    265.90055     215.2053   -1107.9117    1114.9266    50.695252 
135660000    209.10155    171.43046   -1110.1309     1135.226    37.671087 
135664000    337.67257     901.5057   -1128.9934    1160.1738   -563.83313 
135668000    292.45047    331.05267   -1127.7632     1168.267   -38.602201 
135672000    986.99206     273.0716   -1167.6294    1187.5503    713.92046 
135676000    434.86171    399.58543   -1177.7541    1203.7105     35.27628 
135680000    576.13242    368.79306   -1200.5651    1225.9973    207.33935 
135684000    319.31893     1267.448   -1208.2247    1219.1112   -948.12905 
135688000     532.5501    338.80017   -1211.6891    1230.2291    193.74993 
135692000    1087.0989    285.53216   -1214.8528    1233.8842    801.56672 
135696000     284.5307    655.08713   -1210.5226    1240.3807   -370.55643 
135700000    177.76083    333.52235   -1223.8894    1250.6124   -155.76152 
135704000    180.98502    756.45913   -1237.1927    1267.5386   -575.47411 
135708000    616.43159    478.19277   -1248.9938    1274.7439    138.23882 
135712000    581.08081    312.32608   -1262.4498    1282.5259    268.75473 
135716000    611.37997    179.93546   -1279.9561     1305.572    431.44451 
135720000     495.4116    456.87385   -1295.2024    1317.7376    38.537757 
135724000    515.38306    73.594841    -1308.618     1320.139    441.78822 
135728000    379.39637    300.16562    -1319.031    1350.0045    79.230744 
135732000    353.22941     279.5779   -1323.6312    1352.3698     73.65151 
135736000    572.64684    160.73262   -1342.9421    1350.6361    411.91422 
135740000    206.30226    617.85376   -1359.3392    1373.2809    -411.5515 
135744000    784.09602    496.74631     -1376.38    1396.6353    287.34971 
135748000    507.64652    127.66331   -1382.6496    1423.4841    379.98321 
135752000    212.46479    282.89901   -1400.3157    1433.9841   -70.434221 
135756000    542.99268    583.14902   -1421.5714    1454.5418   -40.156339 
135760000    651.98587     170.1218   -1426.3397    1450.3647    481.86407 
135764000    353.98117    347.97122   -1436.4641    1460.7448    6.0099516 
135768000    322.43088    418.14647   -1449.0751    1483.3589   -95.715589 
135772000    170.84557    287.64954   -1490.6339    1503.1261   -116.80396 
135776000    576.53616    361.04656   -1495.2997    1519.1012    215.48959 
135780000    828.56632    537.93135   -1504.7176     1538.977    290.63497 
135784000    458.45851    478.19968     -1526.56    1545.1609   -19.741169 
135788000    878.90061    674.05953   -1523.6005    1543.3712    204.84108 
135792000    182.13383    182.62777   -1528.8584    1561.1445  -0.49394558 
135796000    232.36884     639.9415   -1555.5088     1576.802   -407.57267 
135800000    591.83912     346.0348   -1551.6436    1575.1829    245.80432 
135804000    623.77838    546.17611   -1547.3721    1576.2915    77.602272 
135808000    246.63334    433.43895    -1566.233    1584.1072    -186.8056 
135812000    651.80951    485.03321   -1574.4314    1597.0064    166.77629 
135816000    481.86563    393.07574   -1584.0154    1618.2155    88.789885 
135820000    222.80032    381.78787   -1592.1861    1628.3487   -158.98755 
135824000    1120.4644    113.97219   -1603.9532    1627.4131    1006.4922 
135828000    272.00878    458.44577   -1599.0795     1619.837   -186.43698 
135832000     811.0112    334.69805   -1609.1658     1632.085    476.31315 
135836000    553.79553    211.61672   -1616.9346     1645.244    342.17881 
135840000    208.29106    225.71383   -1614.4775     1647.746   -17.422776 
135844000    371.94315    388.04194    -1640.622     1648.957   -16.098792 
135848000    296.79394    515.54883   -1647.1841    1674.8755   -218.75489 
135852000    339.09044    465.07863   -1661.4991    1681.2042   -125.98819 
135856000    226.27635    1105.2248   -1665.8252     1687.014   -878.94847 
135860000    419.69844     709.2515   -1697.8852    1717.6763   -289.55307 
135864000     388.6516    324.77092   -1696.7507    1723.9289    63.880683 
135868000    455.49188    437.90697   -1715.8451    1746.0823    17.584906 
135872000    268.26619    278.23775   -1719.6541    1749.8662   -9.9715517 
135876000    720.60031     561.6968   -1741.3669    1756.2344    158.90351 
135880000    336.93847     81.20565    -1738.657    1778.5251    255.73282 
135884000    647.26118    258.99098   -1754.6571    1779.6433     388.2702 
135888000    498.84366    547.42722   -1757.2367    1791.1295   -48.583566 
135892000    492.55141    567.65376   -1757.4862    1782.4142   -75.102349 
135896000     266.1374    244.46253   -1770.6418    1794.6787    21.674874 
135900000    327.14664    277.03245   -1773.9299    1807.0068    50.114186 
135904000    238.05166    192.18603   -1766.2059    1810.6961    45.865633 
135908000    589.19211      267.796   -1759.8847    1801.9573    321.39611 
135912000    302.95404    910.29643   -1773.7616    1805.0871   -607.34239 
135916000     173.2226    442.06105   -1780.6065    1817.1687   -268.83845 
135920000    615.79251    692.30976   -1812.1205    1815.0605    -76.51725 
135924000    201.62941    118.31747   -1798.1593    1830.1801    83.311942 
135928000    521.33391    421.84342   -1809.4365    1841.1958    99.490489 
135932000     602.1612    629.79118   -1815.5886    1845.8492   -27.629975 
135936000    243.51502    243.13351   -1816.9298     1845.408   0.38151695 
135940000    751.38294    1014.9543   -1826.1729    1835.2278    -263.5714 
135944000     552.0638    296.51684   -1829.9654    1847.4822    255.54696 
135948000    257.43985    562.45784   -1826.9747    1853.9197   -305.01799 
135952000    389.81006    351.23743   -1855.9403    1885.8797     38.57263 
135956000    229.23973    344.75221   -1860.6837    1879.8307   -115.51248 
135960000     587.2139    247.53977   -1886.0087    1913.1058    339.67412 
135964000    650.47348    438.62948   -1893.5157    1924.9384      211.844 
135968000    675.94023    147.53555   -1913.9011    1942.8517    528.40468 
135972000    501.20996    908.52495   -1943.4841    1950.0659   -407.31499 
135976000    366.07795     220.6387   -1962.1517    1963.2025    145.43925 
135980000    445.35702    386.73429   -1958.8743    1988.2035    58.622723 
135984000    893.16123    1074.7344    -1976.801    1982.8372    -181.5732 
135988000    616.48862     272.6755   -1969.0549    1987.7016    343.81312 
135992000    257.88583    108.90556   -1966.6336    1983.0497    148.98027 
135996000    538.90553      404.854   -1973.5653    1993.1244    134.05153 
136000000     625.4323    906.00043   -1977.3977    1993.2825   -280.56813 
136004000    511.33611    742.07633   -1999.7005    2013.5774   -230.74022 
136008000    332.64434    137.44433   -2013.4544    2041.5526    195.20001 
136012000    485.69112    194.70069   -2027.3959    2037.7382    290.99043 
136016000    411.66987    301.49193   -2035.9845    2057.9781    110.17794 
136020000    435.01908    325.68047   -2033.2896    2058.4233    109.33861 
136024000    468.78579    233.82343    -2031.174    2055.4127    234.96236 
136025000    808.97893    592.76157   -2035.1112     2045.635    216.21736 
Loop time of 20.4789 on 28 procs for 800000 steps with 98 atoms

Performance: 4218.973 ns/day, 0.006 hours/ns, 39064.560 timesteps/s
100.0% CPU use with 28 MPI tasks x no OpenMP threads

MPI task timing breakdown:
Section |  min time  |  avg time  |  max time  |%varavg| %total
---------------------------------------------------------------
Pair    | 0.037546   | 0.39494    | 1.6354     |  71.7 |  1.93
Bond    | 0.047172   | 0.97885    | 3.4578     | 116.0 |  4.78
Neigh   | 0.12541    | 0.1313     | 0.13688    |   0.8 |  0.64
Comm    | 5.5727     | 6.8735     | 11.234     |  48.2 | 33.56
Output  | 0.0049751  | 0.0051954  | 0.0069456  |   0.5 |  0.03
Modify  | 4.9718     | 9.3817     | 11.687     |  67.5 | 45.81
Other   |            | 2.713      |            |       | 13.25

Nlocal:    3.5 ave 14 max 0 min
Histogram: 18 0 1 0 1 3 0 1 0 4
Nghost:    49 ave 78 max 25 min
Histogram: 5 5 4 0 2 2 0 4 0 6
Neighs:    32.1429 ave 144 max 0 min
Histogram: 18 0 1 1 2 1 1 0 3 1

Total # of neighbors = 900
Ave neighs/atom = 9.18367
Ave special neighs/atom = 5.87755
Neighbor list builds = 7531
Dangerous builds = 0
unfix 1


# PRODUCTION

fix             1 all nve
fix             hot all langevin ${TThi} ${TThi}  50.0 59804  tally yes
fix             hot all langevin 320 ${TThi}  50.0 59804  tally yes
fix             hot all langevin 320 320  50.0 59804  tally yes
fix             cold all langevin ${TTlo} ${TTlo} 50.0 287859 tally yes
fix             cold all langevin 280 ${TTlo} 50.0 287859 tally yes
fix             cold all langevin 280 280 50.0 287859 tally yes
fix_modify      hot temp Thot
fix_modify      cold temp Tcold

variable        tdiff equal c_Thot-c_Tcold
thermo          4000

dump gigo all atom 4000 dump.cords_xyz.dat
dump_modify gigo scale no
dump vfgigo all custom 4000 dump.velo.dat id vx vy vz fx fy fz

# thermal conductivity calculation
# # reset langevin thermostats to zero energy accumulation
#
compute         ke all ke/atom
variable        temp atom c_ke/1.5/0.0019872

fix             ave all ave/time 100 40 4000 v_tdiff ave running
thermo_style    custom step temp c_Thot c_Tcold f_hot f_cold v_tdiff f_ave

#compute         layers all chunk/atom bin/1d z lower 0.05 units reduced
compute         layers all chunk/atom bin/1d z lower ${dz} units box
compute         layers all chunk/atom bin/1d z lower 4.14866663333333 units box
fix             2 all ave/chunk  100 40 4000 layers v_temp file profile.langevin

run             32000000
Per MPI rank memory allocation (min/avg/max) = 9.751 | 10.46 | 10.58 Mbytes
Step Temp c_Thot c_Tcold f_hot f_cold v_tdiff f_ave 
136025000    304.51983    808.97893    592.76157           -0           -0    216.21736            0 
136028000    269.35401     417.8184    297.44033   -1.1196899    24.903366    120.37807            0 
136032000    277.16834    228.24902    590.19064   -29.951128      39.2218   -361.94162   -22.370091 
136036000    298.81427    499.79933    415.71744   -44.636283    51.054128    84.081898    15.160069 
136040000    275.58383      419.304    136.23588   -45.740163    66.520268    283.06811   -10.684242 
136044000    272.62213    250.17513    229.48882   -41.972173    62.420093    20.686311    6.2527673 
136048000    276.72976    313.65882    1142.5342   -39.137049    55.893501   -828.87542    7.4897887 
136052000    281.18431    489.14962    232.09316   -63.932042    75.607336    257.05645   -3.2471138 
136056000    296.60174    356.32463    437.32269   -71.956484    77.541095   -80.998069    2.5827973 
136060000    289.47527    245.59369    343.91503   -98.670576    105.88174   -98.321336  -0.03434206 
136064000    244.14358    315.65527    453.41134   -109.93495    133.58577   -137.75608    4.1182654 
136068000    266.43356    277.27456    146.18853   -118.15935    132.03672    131.08604    4.4963111 
136072000    274.38009    231.70226    408.51175   -119.04772    137.03451    -176.8095     11.73518 
136076000    272.75362    439.90022    551.60508   -117.40182    138.88339   -111.70486    5.0549263 
136080000    265.08545    340.28997    332.15481   -124.47446     140.8272    8.1351589    12.929937 
136084000    257.05491    472.76512    481.94773   -130.58599    142.33912   -9.1826172    14.653891 
136088000    315.93457    220.82969    419.66843   -123.87015    133.53126   -198.83874    17.954028 
136092000    286.97571    411.07671    265.75589   -153.76205      163.672    145.32082    19.373203 
136096000    269.74899    520.84623    665.22206    -152.1293    168.91366   -144.37583    19.523689 
136100000    295.57263    169.32683    537.83562   -166.76448    171.02242   -368.50879    21.215446 
136104000    265.61094    448.93476    291.74393   -161.82362    183.84816    157.19083    23.126192 
136108000    263.32125    602.17377    254.82559   -188.49454    200.29917    347.34818     27.59078 
136112000    289.42068    596.46653    771.85354   -213.46902    215.94613   -175.38701    27.473209 
136116000    306.36871    355.90254    524.75848   -236.13878    245.44105   -168.85594    33.026329 
136120000    302.53431    284.47872     728.5306   -248.66898    257.25381   -444.05187    32.010568 
136124000    303.94389    255.77902    346.57956   -272.11375    272.65753   -90.800542    33.003541 
136128000     302.1792    471.66937    1040.0527   -300.86498    302.92648   -568.38333    30.313888 
136132000    291.11133    574.20463     851.2576   -305.63054    307.54395   -277.05296    31.326627 
136136000    331.36625    675.31332    446.98338    -325.2531    325.02171    228.32994    29.984861 
136140000    284.65202    229.97528    591.77425   -325.19128    336.70743   -361.79897    30.236925 
136144000     281.8326    678.22785     195.6389   -340.09813    353.17466    482.58895    32.502881 
136148000    313.97621    1029.2901    248.92018   -356.04105    355.08919    780.36994    34.029256 
136152000    292.65692    843.09659    331.66622   -351.18728    366.93363    511.43037    35.703694 
136156000    275.78612    406.16813    291.67529   -374.53171    390.20256    114.49284    34.829986 
136160000     270.6155    633.78121    203.09628   -410.72941    415.68118    430.68493    35.778855 
136164000    304.31133    828.53323    369.15554   -417.68588    428.53737    459.37769    36.677866 
136168000    256.17629    382.27462    410.78106   -422.27776    436.32731    -28.50644    36.840335 
136172000    294.54153    1003.4421    457.05396   -424.91554    440.27513    546.38817    36.026677 
136176000    283.27034     924.7128    725.91096   -433.18074    439.38475    198.80184    35.743164 
136180000    262.82012    331.10247    549.10442   -436.23685    449.83101   -218.00195    34.633291 
136184000    285.71486    565.97032    897.99641   -458.23592     461.8198   -332.02609    36.283513 
136188000    298.34351    277.53479    973.18941   -461.50651    480.11614   -695.65462    37.273341 
136192000    246.58572    582.93404    299.85131   -461.58629    486.54449    283.08273     38.84271 
136196000     310.6556    266.66386    1084.0095   -476.90008    479.07925   -817.34564    38.063551 
136200000    329.44024    406.19361    805.07237    -494.8978    497.20393   -398.87876    38.261312 
136204000    308.17449     580.4899    406.86763   -508.21566    506.83447    173.62227    39.641571 
136208000    278.05338    461.55238    458.32849   -510.20886    512.32603      3.22389    40.599386 
136212000    268.96084    961.98389    311.31105   -521.71987    520.47186    650.67285    40.728002 
136216000    293.67516    347.15883     383.6547   -530.35446    539.84868   -36.495862    40.479926 
136220000    321.15305    488.51806    505.54714   -554.18671    547.88686    -17.02908    39.105905 
136224000    293.58092    629.61955    252.98552   -556.68763    559.76146    376.63402    38.966768 
136228000    335.59156    613.05986    328.53311   -576.64911    571.81163    284.52675    40.261021 
136232000    252.63738    186.71136    433.90811   -578.78075    591.13744   -247.19675    38.243109 
136236000    251.50153    263.02248      400.375   -580.00382     602.4821   -137.35252      38.9827 
136240000    267.16946    568.69544    345.73346    -580.9098    598.88554    222.96198    38.591199 
136244000    291.62863    300.22062    506.21571   -589.75747    601.90125   -205.99509    37.412695 
136248000    254.40317    638.16396    564.11566   -578.98004    607.75102    74.048297     37.75503 
136252000    291.53695     106.3344    510.13455   -611.13557    614.81689   -403.80015    36.947819 
136256000     247.6432    154.36187    138.21645   -624.20039    641.38009     16.14542    37.435253 
136260000    339.20107    794.93099    197.60029   -661.14423    651.56266     597.3307    37.956597 
136264000    304.68449    245.51081    508.83834   -651.98921    667.79465   -263.32753    38.504109 
136268000    295.71417    371.21638     251.1403   -674.53157    681.18137    120.07607     39.83521 
136272000    280.11209    622.72814    457.38317   -675.26579    680.24893    165.34498    39.910209 
136276000      278.781    373.11923    409.10839   -671.65116    686.89387   -35.989156    39.803068 
136280000    278.28611    212.24357    636.87207   -691.80442    704.37749    -424.6285    38.807291 
136284000    287.49395    240.60053    666.00876   -711.59043    723.72613   -425.40823    39.241818 
136288000    282.71454    412.87295    1010.6783   -714.49997    733.32995   -597.80532     39.64771 
136292000     277.8044    298.92748    547.30158   -733.69672    746.41475   -248.37411    37.479315 
136296000    277.05767    492.96441    568.87762   -732.77591    741.16126   -75.913205    38.783258 
136300000    313.58465    517.76196    304.85941   -758.40948     757.3345    212.90255    40.053485 
136304000    284.04208    234.64625    225.85615   -755.31001    762.00534    8.7900968    38.800517 
136308000    269.63115    121.49256    278.22187   -746.65971    768.44179   -156.72932    37.868337 
136312000    298.39751    335.02008    559.96704   -761.71137    764.10463   -224.94696    38.751095 
136316000    265.57614    714.03407    310.91119   -767.10144    772.15963    403.12288    39.369423 
136320000    288.13331     329.5947    1361.7197    -773.5774    774.80804    -1032.125    38.868119 
136324000    284.78141    142.33324    469.32182   -782.44708    786.26967   -326.98858    38.884316 
136328000    311.30339     430.9074    330.31968   -794.93188    790.91119    100.58772    39.926405 
136332000    297.29475    1018.3848    238.00086   -811.40635    826.50652    780.38392    39.960072 
136336000    235.65375    463.01793    442.79289   -796.22302    828.90052    20.225045    39.330751 
136340000    319.75103    277.37931    843.59917   -832.92165    836.27326   -566.21986     38.06879 
136344000    332.15569    1427.7286    316.42026   -833.53709    831.47857    1111.3083    37.922729 
136348000    288.54076    346.46252    271.63062   -850.68698    855.68644    74.831891    38.671755 
136352000    277.81298    174.39355    450.40525    -841.3026    854.47936    -276.0117    38.546222 
136356000    319.62691    292.13491    475.15953   -856.75595    850.56469   -183.02462     38.56274 
136360000    261.25739    372.24734    285.79985   -878.27168    884.14934    86.447494    38.191631 
136364000    288.45891    141.87163    407.57427    -892.3049    896.76623   -265.70264    37.058411 
136368000     291.0235    215.18875    575.40765   -878.12812    894.23598    -360.2189    37.166097 
136372000    269.29463    448.69098    409.36574   -887.85481    895.05852    39.325241    37.202527 
136376000    299.78814    855.55974    638.00521   -905.04105    901.47985    217.55453    37.899061 
136380000    256.48062    186.24116    808.15419   -897.87371    915.34976   -621.91303    38.058394 
136384000    261.98447    569.83362    554.18765   -917.38676    921.92518    15.645971    38.452261 
136388000    250.92911    239.29468    514.28212    -894.3256    913.24103   -274.98744    38.249493 
136392000    276.12052    758.86156    679.71299   -918.46955    933.66631    79.148564    37.691083 
136396000    289.62226    620.31511    571.29488   -922.81456    921.32019    49.020223    37.858393 
136400000    307.18859    573.66477    678.88855   -937.66354    933.41415   -105.22378    37.530372 
136404000    279.63377    522.42682    177.00231   -955.20708    950.57158    345.42451    37.206672 
136408000    289.01796    297.74378    192.83582   -954.49561     971.4828    104.90795    37.994867 
136412000    300.10356    333.16205    725.73371   -961.23281    965.80297   -392.57166    37.477828 
136416000    293.58386    635.82198    243.56892   -970.32315    975.24463    392.25306    36.798791 
136420000    285.34468    331.71841    370.83106   -989.01856    1001.4531   -39.112646      36.5487 
136424000    272.63708     459.2207    363.36811   -989.29301    1004.2526    95.852585    36.426682 
136428000    269.72504    627.72875    580.34092   -1011.5483    1022.0085    47.387831    36.082504 
136432000    294.05206    606.06307    520.55599   -1029.3511    1024.4977    85.507085    36.404629 
136436000    285.22122    1146.5618    417.85685   -1044.4808    1043.1704    728.70492    36.459147 
136440000    250.13259    421.88723    410.16781   -1039.3228    1057.2437    11.719418    36.702762 
136444000    297.07291    468.52829     235.0332   -1061.8879    1076.8569    233.49509    37.274846 
136448000    275.30104    152.08974    593.03293   -1055.0013    1068.6644   -440.94319    37.406383 
136452000    310.76971    662.72769    241.39987   -1088.6006      1084.87    421.32782    38.616451 
136456000    298.81164    168.12309    270.37559    -1074.513    1083.5887   -102.25249      38.7971 
136460000    269.01796    543.70975    439.55149   -1091.2763    1099.9052    104.15827    38.794044 
136464000    281.94895    482.07582    329.45092   -1106.6366    1118.1555     152.6249      38.6288 
136468000    294.77918     510.4513    111.63056   -1138.7015    1138.2834    398.82074    38.667681 
136472000    287.81104    230.05686    241.86194   -1154.5127    1172.4433   -11.805075    38.710689 
136476000    305.86608    423.12763     652.4473   -1168.5739    1166.5997   -229.31966    38.164875 
136480000     244.8058    284.00312    267.61401   -1171.2434    1190.2869    16.389106    38.131221 
136484000    312.81111    544.19472    1191.3937    -1189.018    1188.3844   -647.19899    38.355497 
136488000    267.51434    994.09364    490.03878   -1198.3272     1209.575    504.05486    37.824315 
136492000    271.50166     160.5446    252.14397   -1203.0394    1212.0501    -91.59937    37.838785 
136496000    262.91335    174.11225    324.95045   -1216.2162    1221.3068    -150.8382     37.98015 
136500000     251.6011    127.08758    197.80731   -1211.1494    1230.7756   -70.719723    37.966275 
136504000    284.01967    453.27355    386.16054   -1235.8061    1234.7669     67.11301    38.481877 
136508000    298.61575    431.23337    1002.8917   -1229.8019    1244.0872   -571.65836    39.030238 
136512000    329.86974    773.11529    276.65113   -1262.7466    1257.8209    496.46416    38.932847 
136516000    249.67463    198.30601    403.70886    -1260.409     1281.236   -205.40285    39.147643 
136520000    294.22322    651.07995    1002.0599   -1282.4648    1286.8444   -350.97999    39.441851 
136524000    277.40479    302.01707    314.35516   -1271.3436    1289.5152    -12.33809    39.632552 
136528000    291.96788    283.16462    701.75629    -1280.247    1297.9822   -418.59168     39.72911 
136532000    299.85912    915.68234    255.32796   -1284.0645    1291.9298    660.35438    39.569779 
136536000    270.42473    895.42737    577.06197   -1283.6996    1297.1165     318.3654    40.152348 
136540000    277.65212    543.99247    347.67597    -1280.109    1286.5098    196.31651    40.055008 
136544000    268.98757    363.81387     342.7143   -1284.1993     1306.781    21.099568    39.714344 
136548000    267.41479    285.30916    291.92152   -1300.3199    1314.6311   -6.6123532    39.441577 
136552000    319.19393    470.78357    164.93562   -1325.1958    1322.3451    305.84795    39.175755 
136556000    291.63172    628.30739    349.22805   -1337.6302    1349.9737    279.07933    39.597456 
136560000    267.84368    235.12412    387.66627   -1344.1224    1351.5363   -152.54215    39.364119 
136564000    285.36911    650.21487    328.15716   -1354.1977    1362.3247    322.05771    39.878325 
136568000    299.49176    500.65657    551.51082   -1361.6323    1375.8699   -50.854256    39.619155 
136572000    250.84021    422.10509    404.87763   -1366.8286    1391.6307    17.227463    39.703113 
136576000    280.38475    381.80972    243.03946   -1385.5647    1392.4536    138.77026    39.415009 
136580000    331.59789    141.73208    298.14138   -1407.0769    1394.8544   -156.40929    38.888225 
136584000    303.25865    731.66172    349.87014   -1408.2953    1417.1874    381.79158    38.890707 
136588000    313.26667    812.51925    401.25183   -1426.9263    1422.4237    411.26743     39.06033 
136592000    318.82431    409.04599    693.27759   -1430.0879    1432.6687    -284.2316    39.387839 
136596000    295.73013     105.0374    321.29272   -1442.8639    1451.1626   -216.25532    39.982937 
136600000    287.16604    580.07438    384.80587    -1441.381    1461.3532    195.26851     39.99928 
136604000    319.31028    767.99983    435.04855   -1458.8995    1469.0935    332.95129    40.141731 
136608000    257.87037    166.67754    204.87035   -1480.7981    1496.6291   -38.192813    39.944516 
136612000    266.06108    746.35483    141.39622   -1496.5389    1511.3109    604.95861    40.136093 
136616000    273.40533    376.40049    413.78406   -1502.9813    1527.0697   -37.383574    40.080174 
136620000    321.17038    361.09061    344.69914   -1520.8692    1521.7029    16.391471    39.728516 
136624000    302.05628    444.63593    777.51843   -1540.7948     1544.899    -332.8825    39.317739 
136628000    299.89518    450.98448    332.78051   -1556.0395     1552.177    118.20398     39.44205 
136632000    281.92279    331.50918    281.08171   -1556.5993    1567.3388     50.42747    39.422017 
136636000    273.78656    368.44003    247.15029   -1559.5118    1578.7362    121.28974    39.692732 
136640000     271.4811    457.45423    487.64867    -1560.041    1565.2425   -30.194443    39.342612 
136644000    289.64589    546.27855    714.99007   -1564.8414    1569.5083   -168.71152    39.046272 
136648000    255.58062    431.89365    591.28038   -1564.8992    1588.2005   -159.38674    39.056161 
136652000    307.80488    789.78775    420.90068   -1587.0013    1585.0292    368.88706    39.346092 
136656000    297.49135    455.27677    403.38043   -1603.3711    1614.1792    51.896338    38.887729 
136660000    304.93921    409.27125    655.95712   -1618.0607    1625.2756   -246.68588    38.169167 
136664000    322.42961     369.6004     318.9788   -1641.6196    1627.7213    50.621597    38.753696 
136668000    298.11258    651.01271    581.73441   -1651.7282    1649.2744    69.278304    38.849324 
136672000    277.31301    645.64093    597.69282   -1640.6216    1651.6708     47.94811    38.874226 
136676000    281.82935    416.92581    281.76201   -1644.0289    1658.2947     135.1638     38.88067 
136680000    285.22254    161.27748    361.70078   -1662.5832    1676.4171    -200.4233    38.766357 
136684000    241.38878    193.17092    449.98215    -1671.237    1693.5842   -256.81123    38.757183 
136688000    313.16607     345.5654    353.60716    -1689.683    1684.0765   -8.0417576    38.712355 
136692000    280.18952    405.23622    326.59763   -1673.3359    1684.2378    78.638587    38.573438 
136696000    257.55666    376.11962    420.28736    -1678.526    1693.8508   -44.167733     38.34164 
136700000    283.07101    658.69286    369.20509   -1697.4257    1708.9228    289.48778    38.973677 
136704000    291.43023    328.41961    270.15678    -1709.216    1723.8372    58.262834    39.434933 
136708000    317.69154    590.38624     679.9863   -1734.3408    1736.7608    -89.60006    39.544474 
136712000    282.90322    656.91582    600.99573    -1736.644    1751.1398    55.920094    39.617131 
136716000    333.32466    441.53205    175.37165   -1749.4781     1755.818     266.1604    39.719353 
136720000    273.94325    461.67049    248.61029   -1754.5359    1765.9694     213.0602    40.126953 
136724000    260.86211    238.29384     455.4303    -1759.657    1773.6267   -217.13646    40.252772 
136728000    281.24828    272.26944    145.12725   -1781.3648     1774.861    127.14219    40.176661 
136732000    261.39026    813.94945    565.16918   -1779.9905    1792.4382    248.78027    40.469177 
136736000    287.86793    447.21922    405.32227   -1801.9852    1804.8655     41.89695    40.122601 
136740000    293.27898    426.47546    365.49621   -1810.7644    1817.3304     60.97925    40.479379 
136744000    328.59444    700.40386    650.56725   -1811.2961    1811.4307    49.836611      41.0062 
136748000    290.61872    188.75027     345.5586     -1818.68    1826.2398   -156.80832    40.900556 
136752000    243.56099    145.71532    465.43929   -1821.0817    1854.3299   -319.72397    40.917161 
136756000    235.64345    714.71788    217.76859   -1828.0159    1857.4069     496.9493    40.748831 
136760000     275.3343    317.51741    363.47922   -1833.5053    1844.5839   -45.961816    40.680464 
136764000    320.08238    470.28648    969.35194   -1847.4963     1846.775   -499.06545     40.57151 
136768000    295.08852    445.85941    329.27473    -1847.157    1854.9258    116.58468    40.466159 
136772000    290.24559    629.84037    122.10391    -1848.292    1854.4666    507.73646    40.980611 
136776000    270.93096    320.14865    482.40054   -1846.9311    1861.4608   -162.25189    41.177349 
136780000    274.09147    323.90191    391.39858   -1847.1768    1865.4822   -67.496669     40.77802 
136784000    243.16294    407.36278    275.54015   -1841.2637    1869.5741    131.82263    41.227952 
136788000    319.19168    398.78694    231.48397   -1856.9629    1858.0665    167.30297    40.998265 
136792000     298.2337    264.54133    643.48016   -1864.6527    1873.2601   -378.93884    40.837653 
136796000    261.55017    280.16038    184.97067   -1865.9664    1881.1929    95.189714    40.893772 
136800000    245.41633    180.61291    292.53708    -1866.041    1898.1955   -111.92417    41.023421 
136804000    303.01494    568.51759    949.47697    -1878.694    1876.9622   -380.95938    41.093429 
136808000    279.34277    764.74529    418.07998   -1877.2334    1887.2289    346.66531    41.018926 
136812000    245.39874    323.32687    330.24112   -1888.2974    1909.4922   -6.9142513    41.201003 
136816000    240.13809    632.76093    313.50805   -1899.5981    1918.9534    319.25288    41.252375 
136820000    297.39101    578.14472    737.52496   -1921.8121    1932.3646   -159.38025    41.094843 
136824000    289.48343    457.53747    658.62659   -1923.1358    1930.0559   -201.08912    41.277268 
136828000    245.21778    418.35397    186.12695   -1937.9729    1970.6956    232.22702    41.404929 
136832000    270.81375    490.22569    821.05442   -1954.8342    1972.1839   -330.82873    41.181552 
136836000    322.13799    155.36324    478.97583   -1976.8791    1980.2758    -323.6126     40.96992 
136840000    286.77728    389.62338    320.16013   -1983.1961    1988.1021    69.463254    40.921315 
136844000    345.59097    509.97193    255.99474   -1997.5831    1988.5448    253.97719    41.033401 
136848000    308.90784     453.8569    816.97988   -1988.3642    1994.7542   -363.12298    41.020414 
136852000     239.3867    506.20778    248.84897   -1998.5454    2029.2359    257.35881    41.409998 
136856000    273.36553    355.34767    646.79533   -2019.0151    2032.5082   -291.44765    41.518127 
136860000    269.23189    869.98886    703.78287   -2029.6787    2048.7822    166.20598    41.592442 
136864000    265.93326     324.0953    866.25831   -2051.1532    2067.1045   -542.16301    41.801533 
136868000    267.97585    449.71227    641.92883   -2060.0694    2072.8477   -192.21656    41.808463 
136872000    257.11982    259.62831    287.82695   -2064.0012    2092.9551   -28.198642    41.466256 
136876000    246.99766    205.23584    449.56223   -2072.7277     2106.525   -244.32639    41.189895 
136880000     256.0399    222.83043    209.65564   -2081.6177    2097.8268    13.174787    41.221501 
136884000    303.10086    276.94481    479.12253   -2081.3546    2082.8103   -202.17772    41.286683 
136888000    340.59188    720.27122    204.68221   -2095.6551    2095.7476    515.58902    41.277445 
136892000    258.70624    366.48484    429.89261   -2104.3421    2125.4467   -63.407769    41.193939 
136896000    322.25216    863.46898    317.39694   -2141.6655     2143.355    546.07205    40.810667 
136900000    288.64449    481.86125    505.97616    -2128.338    2150.8125    -24.11491    41.199038 
136904000    278.38626    254.80161    204.03022   -2146.6064     2159.419     50.77139    40.900322 
136908000    302.19781    443.96936    364.97549   -2164.3363    2177.2877    78.993872    41.284137 
136912000    274.69583    247.86074    323.03773   -2166.6704    2178.4919   -75.176992    41.545438 
136916000    284.45335     444.9118     310.8409   -2158.6645    2172.3273     134.0709    41.541885 
136920000    264.20901    425.37434    561.13343   -2173.3672    2189.1621   -135.75908    42.233089 
136924000    281.30323    296.40523    782.72654   -2203.9927    2198.7382    -486.3213    42.488352 
136928000    328.61602    419.37849     684.8296   -2216.1997    2216.1045   -265.45111    42.146415 
136932000    277.58293    146.06367    356.41903   -2227.6713    2234.1333   -210.35535    42.055988 
136936000    245.60732    174.90668    244.92252     -2236.74    2265.0078   -70.015843    41.984757 
136940000    249.39785    551.94486    215.44996   -2249.6831    2265.3819     336.4949    42.189482 
136944000    241.36321    227.13193    269.95291   -2260.3029    2281.2354   -42.820975     42.43616 
136948000    279.73329    967.12134     625.4343    -2274.476    2285.7052    341.68704    42.262473 
136952000    312.09909    505.21311    102.63967   -2287.3849    2283.8363    402.57343    42.067999 
136956000    297.85895    300.89826    699.27287   -2313.0472    2296.4535   -398.37461    42.164152 
136960000    323.78363    156.33776    524.03354   -2323.6109    2307.2322   -367.69578    42.229584 
136964000    301.38013    612.59404    264.89053   -2318.4131    2316.4886    347.70351    42.187112 
136968000     285.9397    712.27425    212.97384   -2313.7159    2323.2684    499.30041    42.314452 
136972000    274.16749    698.03729    211.47181   -2338.9818    2340.7887    486.56547    43.015918 
136976000     293.7896     404.8356    445.46004   -2337.8742    2348.2121   -40.624435    43.038623 
136980000    260.38539    645.12639    294.59667   -2339.6157    2354.2564    350.52972    42.861131 
136984000    268.52951     641.6344    349.95167   -2341.2108    2369.9566    291.68273    43.295035 
136988000    269.31779    276.20412    386.70729   -2360.1497    2379.4312   -110.50317    43.430936 
136992000    273.83792     821.2602    292.02334   -2387.4561    2396.8226    529.23686     43.30315 
136996000    266.43118    394.78364    388.93076   -2404.9655    2422.4193    5.8528753    43.472915 
137000000    241.34834    215.20129    627.37492   -2426.0077    2441.9685   -412.17363    43.425646 
137004000    272.26312    200.27631    584.01506   -2417.9429    2435.6401   -383.73875    43.419632 
137008000    257.81009    302.90053    378.55625   -2428.8132    2449.5293   -75.655717    43.541174 
137012000    311.13334    149.90742    584.86071   -2442.9672    2433.1436   -434.95329    43.491869 
137016000    290.91792    715.65961    321.72064   -2442.9129    2448.9479    393.93896     43.40291 
137020000    264.01404    136.40331    152.23871    -2438.237    2463.6015     -15.8354    43.364572 
137024000    272.86939    367.22085    231.14741   -2451.6572    2472.5838    136.07344    43.122686 
137028000     281.0572    554.40597    219.02313   -2486.8361    2491.0587    335.38283    43.411207 
137032000    329.04928    465.74184    702.05241   -2517.0562    2515.6552   -236.31057    43.157553 
137036000    268.17195    296.79663    720.78593   -2520.9979    2540.8052    -423.9893    42.954536 
137040000    261.43529    657.28211    390.51832   -2535.4846    2559.1524    266.76379    43.114976 
137044000    312.29773    355.03088    262.34821    -2549.771    2540.0268     92.68267    42.963538 
137048000    283.03677    460.55703    322.11742   -2556.2617    2555.1877    138.43961    43.219334 
137052000    299.21654    184.47187    462.55611   -2571.3882    2578.2693   -278.08424    43.001305 
137056000    272.19242    787.09176    310.35348   -2576.3131    2595.3754    476.73828    42.870533 
137060000    271.69081    1078.5962    278.82189   -2603.7099    2605.9073    799.77431    43.032356 
137064000     234.9822    526.70386    441.12036   -2618.5863    2648.8651    85.583502    42.785309 
137068000    252.51449    535.47654    155.35961   -2636.4027    2665.8459    380.11693    43.079898 
137072000    285.36413    372.76994    276.15379    -2639.114    2653.5208    96.616152    43.072999 
137076000     299.4433    959.48379    718.74306   -2657.4093    2650.7193    240.74073    42.999688 
137080000    273.47757    607.23203    861.38594    -2656.675    2665.3054   -254.15391    43.114513 
137084000    317.80721    290.05593    666.42287   -2660.7035    2661.3537   -376.36694      43.1548 
137088000    276.27593    284.75817    568.93189   -2672.0519    2677.8597   -284.17371    43.034238 
137092000    263.46268    649.52987    247.50913   -2681.9031    2687.9435    402.02074    42.946242 
137096000    274.87267    377.15724    493.72746   -2706.0869    2707.1275   -116.57022    42.682342 
137100000    301.68298     247.3896    195.16352    -2715.317    2705.3896     52.22608    43.087316 
137104000    278.57075     227.8511    339.90877   -2704.3153    2719.5393   -112.05767    43.070698 
137108000    322.35885    578.99239    488.71087   -2714.4984    2712.0861    90.281528    43.231486 
137112000     283.1885    166.26042    521.91557   -2707.4216    2710.0827   -355.65515    43.183336 
137116000    321.07261    562.68187    861.71348   -2719.7595    2714.2369   -299.03161    43.072608 
137120000     308.9131    387.51853    666.69433   -2733.8127    2739.9182    -279.1758    42.790194 
137124000    301.78611    681.54433    527.72881   -2736.0117      2753.19    153.81552    42.903066 
137128000    246.78878    892.15944    506.46752   -2740.5313    2755.5673    385.69192     42.80664 
137132000    281.49884    402.89138    182.99158   -2753.4159    2762.9169    219.89981    42.775146 
137136000    257.29253    476.61232      93.4809    -2748.755    2764.8425    383.13142    42.758559 
137140000    257.60853     710.7687    237.74694   -2771.2593    2782.1946    473.02176    42.664904 
137144000    261.94763    301.19519    314.55312   -2768.6565    2790.1482   -13.357926    42.986211 
137148000    287.00091    427.17519    394.37558   -2783.2119    2792.8621    32.799611    42.936683 
137152000    347.49711    641.56578    426.02863   -2788.4255    2784.8716    215.53716    42.991683 
137156000    325.98328    491.57508    516.27696   -2791.4045    2782.3547   -24.701879    42.993709 
137160000    289.80106     211.6509    373.09885   -2793.9475    2805.9862   -161.44795    43.196894 
137164000     303.1977    292.31307    370.87672   -2798.2873    2806.5278   -78.563643    43.440003 
137168000    310.46647    566.97201    502.05722   -2822.6566    2813.9194    64.914787    43.356641 
137172000    282.49096    116.20512      139.223   -2831.3544     2852.632    -23.01788    43.256742 
137176000    327.98245    282.52333    467.54014   -2868.5986    2864.4974   -185.01682    43.430924 
137180000    276.45899    857.96269    368.07191   -2863.2469     2868.553    489.89078    43.231663 
137184000    304.99119    311.79764    596.24322   -2872.0118    2869.5666   -284.44558    43.105932 
137188000    292.03841    574.93679    151.86422   -2882.1529    2891.2579    423.07257    43.204244 
137192000    296.44607    496.57632    363.35755    -2889.388    2904.6381    133.21877    43.146056 
137196000    266.40971    452.13902    403.22198   -2900.2131    2919.3663    48.917037    43.081783 
137200000    314.04196    289.11744    366.13734   -2946.9944     2934.424   -77.019894     43.07645 
137204000    331.87106     524.3665    386.24569   -2950.4809    2941.7081    138.12081    43.093783 
137208000    257.42924    348.00046    310.22954    -2941.602    2958.0522    37.770914    43.296612 
137212000    281.43255    630.47466     151.2558   -2956.8173    2959.1555    479.21886    43.351414 
137216000    324.17939    386.03745    483.60573   -2969.4385    2966.2043   -97.568273    43.240527 
137220000    289.76084    446.56309    384.15816   -2967.8642    2981.2884    62.404929    43.336406 
137224000    309.74576    519.01722    252.16786   -2970.7033    2978.5139    266.84936    43.334914 
137228000    264.71641    346.15958    539.32546   -2971.7455    3000.0045   -193.16588    43.342981 
137232000    235.92019    292.26702    457.87893   -2990.2571    3000.9352   -165.61191     43.18233 
137236000    274.13444    554.01949    166.10436   -3001.3914    3007.9862    387.91513      42.9238 
137240000    302.95101     291.6952    426.17739   -3022.1735    3023.5917    -134.4822    42.893639 
137244000    277.96248    340.90326    283.22439   -3032.9454    3047.4781    57.678873    42.872938 
137248000    259.93584     362.9388    305.88162    -3029.852    3054.3384    57.057181     42.92617 
137252000    306.43183    319.06687      417.449   -3033.1237    3042.9758   -98.382134    43.015945 
137256000    244.50736    548.22506    209.58631   -3036.4096    3055.3226    338.63875    42.772618 
137260000    286.98318    441.62772    274.30283   -3046.8939     3055.667    167.32488    42.773004 
137264000    285.07398    239.33316    687.51625   -3047.0656    3058.6964   -448.18309    42.639377 
137268000    271.26538    511.86997    939.65045    -3052.933    3068.8551   -427.78048    42.621349 
137272000    317.21579     456.7207     455.9729   -3072.4037    3066.8273   0.74780034     42.74151 
137276000    252.36928    134.90985    375.72208   -3065.2519    3079.3407   -240.81223     42.78812 
137280000    287.19038    457.96047    170.53185   -3077.9833    3087.0162    287.42862    42.726072 
137284000    268.67766    270.80818    573.59826   -3079.4326    3091.6214   -302.79008    42.995067 
137288000    289.65425    682.16414    305.06574   -3086.7337    3099.4894    377.09839     43.18758 
137292000    251.98538     683.1882    532.85176   -3087.4569     3111.438    150.33645     43.10391 
137296000    326.94735     734.3865    304.39969   -3098.9388    3099.0271    429.98681    43.187743 
137300000    315.73162    204.34087    692.17322    -3104.267    3108.5238   -487.83235    42.822108 
137304000    275.63941    661.66729    772.14571   -3085.9478      3104.85   -110.47842    42.773063 
137308000    247.33912    346.77124    397.84955   -3092.8492    3102.4787   -51.078305    42.944363 
137312000    245.43097    361.08769    129.54308   -3081.9514    3112.5537     231.5446    42.877938 
137316000    310.68707    519.06745    323.46052   -3093.4189    3108.4634    195.60693    42.607284 
137320000    297.97612     295.2169     561.3208   -3092.8537    3107.3785    -266.1039    42.726903 
137324000    275.28469    195.66721    848.55353    -3104.108    3119.9413   -652.88632    42.581304 
137328000    278.35797    759.41401    1172.0206   -3105.8446    3125.3969   -412.60654    42.547759 
137332000    311.57116    299.26725    715.43675   -3100.7038    3111.7884    -416.1695    42.495112 
137336000    282.11704    569.00085    222.98478   -3108.2417    3119.1591    346.01607    42.319823 
137340000    317.00985    918.53622    1007.5049   -3119.3893    3122.4042   -88.968725    42.222373 
137344000    264.97174    466.39667    652.32916   -3122.6446    3133.4869   -185.93249    42.266222 
137348000    329.15748    285.00119    229.75061   -3137.0116     3136.978    55.250584    41.963502 
137352000    227.75423    407.10453    278.83091   -3117.7503    3142.4057    128.27362    42.098086 
137356000    282.81928    737.36678    260.30494   -3161.3388    3175.8451    477.06183     42.15794 
137360000    253.95912    552.75495     455.7437   -3164.2971    3178.4698    97.011255    42.223117 
137364000    322.81774    756.75081    329.54828   -3183.3616    3186.7892    427.20252    42.274099 
137368000    319.21716    598.13018    685.53949   -3187.5184    3192.8303   -87.409313    42.327675 
137372000    336.22948    545.95721    911.75918   -3189.5409    3184.2671   -365.80197     42.24033 
137376000    273.48189    333.64148    338.69255   -3188.6301    3211.1036    -5.051065     41.98743 
137380000    281.55879    610.08846    481.82241   -3186.0626    3215.5487    128.26606    41.985295 
137384000    296.61518    316.40187    1024.6234   -3202.7508    3214.2962    -708.2215    41.935038 
137388000    312.73372     398.8621    116.06802   -3205.8407     3207.579    282.79407    42.208635 
137392000    258.84884    556.07846    918.20431     -3226.03    3238.2732   -362.12585    42.217819 
137396000     291.7655    539.42923    654.90666   -3230.8279    3249.5102   -115.47743     42.23102 
137400000     260.9306    523.42164    410.16812   -3238.5076    3258.8385    113.25352    42.138869 
137404000    285.42751    548.65819    302.92417   -3257.6547    3269.7671    245.73402    42.027117 
137408000    243.09866    409.23561    563.37404   -3257.7002    3289.5155   -154.13844    42.016035 
137412000    275.29303    455.69204    269.85996   -3286.2967    3302.9295    185.83208    42.326012 
137416000    304.85266     260.8901     253.4272   -3311.1781    3315.7809    7.4628973     42.22808 
137420000    270.57429    926.19558    371.86811   -3313.4179    3333.9455    554.32747    42.106702 
137424000    314.14441    352.63634    638.75716   -3341.8627    3349.2423   -286.12082    41.907873 
137428000    340.87251    611.41427    226.30037   -3375.8813     3366.081     385.1139    42.015256 
137432000    310.58145    210.18215    278.07192   -3380.5609    3387.1056    -67.88977    41.996082 
137436000    312.09783    551.60288    618.95844   -3395.4689    3406.3529   -67.355564    41.922518 
137440000    314.92643    338.18302    550.66146   -3400.5093     3409.841   -212.47844     41.91021 
137444000    316.55217    301.60323    820.97052   -3395.1553    3394.7269   -519.36729     41.84868 
137448000    278.63714    950.24406    445.65608    -3383.032     3396.954    504.58798    41.980188 
137452000    242.24483    187.94351    194.36261   -3388.7272    3408.7984   -6.4190922    41.992721 
137456000    268.83029    746.64486    365.28607   -3420.1723    3432.6534    381.35879     41.97442 
137460000    278.22285     409.6788    286.96209   -3427.6301    3448.9014     122.7167    42.115851 
137464000    247.16923    697.73941     191.0288    -3432.593    3465.3454    506.71061    42.161548 
137468000    268.69311     304.8212    641.43492   -3432.5677     3451.368   -336.61372    42.018016 
137472000    265.33114    903.83752    403.60075    -3441.703    3459.9074    500.23678    41.893288 
137476000    292.48111     152.0688    871.83123   -3459.5062    3463.7658   -719.76243    41.942248 
137480000    319.49288    232.99507    659.68668    -3462.023    3461.4349   -426.69161     41.88042 
137484000    277.50115    562.00277    251.67977   -3460.8775    3471.2483      310.323    41.968096 
137488000    297.96306    260.66193    538.46015   -3470.2203    3470.2416   -277.79822    41.924922 
137492000    282.67291    393.76372     581.6471   -3463.4705    3474.2883   -187.88338    41.783658 
137496000    332.60195     813.3315    251.80956   -3455.2753    3451.3486    561.52194    41.839434 
137500000    286.56269    487.64174    655.88207   -3460.8342     3461.596   -168.24033    42.103808 
137504000    293.65008    527.96473    557.73399   -3465.2487    3473.8131   -29.769263    41.974967 
137508000    263.19629    489.95991    637.38157   -3472.1795    3485.5873   -147.42166    42.046572 
137512000    301.37719    148.31775    1188.2564    -3476.645    3483.5068   -1039.9387     41.78214 
137516000    290.15567    304.83829    193.80526   -3478.5942    3489.7111    111.03303    41.782312 
137520000    345.57278    854.17954    554.08002   -3481.6613    3479.2579    300.09952    41.841608 
137524000    313.14682    632.45162    426.94989   -3488.3008    3486.1331    205.50173    41.901975 
137528000    295.22127    417.68261    822.63995   -3492.7495    3496.9195   -404.95734    41.770036 
137532000    297.51538    400.62856    173.61712   -3510.3217    3501.6982    227.01144    41.782682 
137536000    271.76824    682.11258    487.94603   -3509.8018    3519.9006    194.16655    41.814265 
137540000    299.41925    400.61038    201.96622   -3517.5799    3527.6403    198.64416    41.780544 
137544000     294.2033    760.63803    344.74758   -3525.0442    3537.6052    415.89046    41.823196 
137548000    305.77352    469.49283    459.61016   -3534.2989    3543.4725     9.882676    42.035696 
137552000    286.68365     452.6042    889.02366    -3544.177    3547.8151   -436.41946    42.131862 
137556000    322.61831     371.3904    666.84622   -3563.2829    3565.6251   -295.45582    42.246236 
137560000    302.90613    552.48235    785.67475   -3567.0919    3568.5312    -233.1924    42.525301 
137564000    284.69953    237.29497    320.12458   -3577.7998    3589.4653   -82.829605    42.537285 
137568000    284.15286    430.86557    345.94943   -3571.7126    3584.6912    84.916139    42.494169 
137572000    280.46399    399.14155     426.0645   -3576.2269     3590.242   -26.922947    42.505743 
137576000    293.60764    433.30687    478.43342   -3580.8519     3601.648   -45.126556    42.633978 
137580000    291.37599    374.16573    436.32587   -3593.8602    3604.5791    -62.16014    42.629012 
137584000    283.37361    513.04719    386.88984   -3611.3578    3611.8666    126.15735    42.495821 
137588000    286.64731    109.80566    851.09315   -3604.1655    3618.1182   -741.28749    42.360239 
137592000    294.43243    644.72231    204.40139   -3616.0473     3619.651    440.32092    42.567741 
137596000     291.5125    342.71356    462.75614   -3611.7231    3624.0728   -120.04258    42.674765 
137600000    312.97108    516.85361    403.00687   -3609.9847    3621.9866    113.84674    42.623182 
137604000    300.65704    269.95041     455.3282   -3603.2227    3606.3432   -185.37779    42.578166 
137608000    269.46631    244.83065     557.0876    -3617.821    3628.1108   -312.25695    42.523855 
137612000    284.53798    487.61836    104.83716    -3642.011    3639.5609     382.7812    42.557804 
137616000    331.08867    410.67343    671.20147   -3642.7088    3645.4022   -260.52804    42.542677 
137620000     254.1315    370.25484    245.62464   -3645.4824    3670.3291     124.6302    42.475978 
137624000     247.5097    204.64933    342.71023   -3650.4706    3680.8214    -138.0609    42.453585 
137628000    302.47924    194.97502    183.79267   -3682.9679       3694.7    11.182353    42.592244 
137632000    316.21368    596.79572     748.2923   -3708.2063    3713.5394   -151.49658    42.719391 
137636000    307.01611    707.22622    626.20113   -3705.5709    3721.7204      81.0251    42.817648 
137640000    297.40585    615.22423    575.43363   -3715.2786     3733.421    39.790605    42.839998 
137644000    280.24239    498.21488     689.6926    -3736.483    3742.1427   -191.47772    42.974946 
137648000    242.96408     423.3187    704.25887   -3734.3302     3748.479   -280.94017    42.918784 
137652000    298.15726    328.00589    723.71138   -3746.4711     3751.487   -395.70549    42.919416 
137656000    304.40407    760.29783    256.56136   -3766.8719    3767.6744    503.73646    42.934827 
137660000    320.35942    650.62692    364.31829   -3785.4014    3785.8433    286.30863    43.150997 
137664000    291.72878    458.15927    269.51112   -3793.3334    3797.2238    188.64815    43.167179 
137668000    264.28914    210.02047    465.09614   -3778.6212    3795.8589   -255.07566    43.120113 
137672000    253.02321    505.61044    560.66118   -3771.7593    3806.6345   -55.050738    43.022669 
137676000    280.96325    389.49072    234.61675   -3763.2513     3794.804    154.87397    42.940193 
137680000    270.72904    250.16543    540.18029   -3783.8099    3793.2062   -290.01486    42.875499 
137684000    298.81396    348.23626    147.33846    -3796.972    3802.9166    200.89779    42.922217 
137688000    285.42095    410.66349    348.99345   -3808.0408    3812.9196    61.670041    43.096505 
137692000    275.23392    589.23601    374.42551   -3794.3673    3806.1337    214.81051    42.995627 
137696000    260.92784     210.4037    373.82901   -3807.0727    3827.4081    -163.4253    42.964678 
137700000    316.20326     616.9531    501.76498   -3828.2178    3846.5345    115.18812    42.815055 
137704000    259.78926    573.57983    555.25956   -3833.8363    3851.8932    18.320272    42.863185 
137708000    269.07587    672.82093     437.7556   -3832.6523    3855.7437    235.06533    42.861994 
137712000    297.15744    287.56927    247.65046   -3855.8773    3862.8192    39.918812    42.755284 
137716000    246.96219    460.85934     459.3657   -3842.0042    3876.7884    1.4936402    42.571728 
137720000    311.31368     424.6451    265.08321   -3866.8465    3876.3809     159.5619    42.534912 
137724000     286.3106    435.31078     363.5296   -3872.0999    3873.0318    71.781187    42.496316 
137728000     331.7591    293.54111    377.27512   -3884.2462    3886.9998   -83.734009    42.348261 
137732000     336.2889     607.9202    538.83909    -3910.544    3900.4785    69.081117    42.024286 
137736000    275.92467    272.26403    582.20762   -3914.5115    3918.8647    -309.9436    42.013069 
137740000    314.19598     120.9252    414.06401   -3916.9452    3930.0633   -293.13881    41.970148 
137744000    287.79158    943.85137    285.26215   -3932.5415    3930.1555    658.58922    41.990009 
137748000    242.03627    514.31722    487.25726   -3920.0226    3935.5444    27.059963    42.119759 
137752000    260.60414    702.11748    381.03682   -3925.3877    3941.6095    321.08065    42.174556 
137756000     249.0475    223.98467    525.72924   -3911.2126    3946.3614   -301.74457    42.174274 
137760000    270.40087    395.91228    451.25107   -3916.7835    3939.3344   -55.338793    42.216836 
137764000     264.3431    147.28174    669.26578   -3934.9564    3953.2918   -521.98405    42.144317 
137768000    283.00583    427.74707    293.94014   -3939.0132    3958.6601    133.80694    42.115535 
137772000    276.99999    355.55996    455.89271   -3966.7806    3991.2705   -100.33275    42.200235 
137776000    289.99462    476.03228    373.74874   -3991.9983    3999.5002    102.28354    42.344617 
137780000    327.20491     483.1351    481.22535   -4011.1977    4010.4131    1.9097563    42.336288 
137784000    288.16002    577.02673    353.57486   -4014.9764    4024.5529    223.45186    42.497357 
137788000    264.17557    673.32148    202.04495   -4024.7083    4039.1867    471.27653    42.544705 
137792000     276.0041    766.92118    924.30736   -4022.3493    4047.4633   -157.38618    42.438217 
137796000    271.30699    217.54675    376.08087   -4038.0076     4053.175   -158.53412    42.491869 
137800000    310.95311    417.64749    291.90575   -4053.7379    4063.8842    125.74174    42.454768 
137804000    304.19981    337.25916    240.92609   -4056.3458    4060.5337    96.333071    42.464669 
137808000    265.83965    423.52544    552.09618   -4051.1722    4071.7893   -128.57074    42.504233 
137812000    260.46925    854.98736    580.91893   -4049.7382    4079.9259    274.06842    42.574886 
137816000    264.44974    298.36996    496.15144   -4058.8499    4082.1258   -197.78148    42.725595 
137820000    337.69014    156.63809    425.30256   -4084.7893    4087.4086   -268.66446    42.952548 
137824000     252.0494    433.89577     379.5558   -4083.0223    4115.1593    54.339965    42.960098 
137828000     268.5689    445.81802    229.92233   -4105.6756    4119.9721     215.8957    42.889087 
137832000    291.93287    440.09239    226.18768   -4120.6312    4129.0495     213.9047    42.977386 
137836000    311.35991     571.1784     698.3406    -4142.384    4153.0593   -127.16219    42.776709 
137840000    292.96111    354.99308     497.2592   -4152.5332    4169.6245   -142.26612    42.875844 
137844000    293.86933    864.64423    574.31911   -4156.5737    4171.9389    290.32512    42.845636 
137848000    333.51404    176.77524     551.2893   -4170.3286    4167.9469   -374.51406    42.805829 
137852000    273.37157    605.21353    615.27051   -4172.0506    4178.7741   -10.056977    42.875263 
137856000    309.08643    818.53546    685.96989   -4184.1881    4187.3029    132.56557     42.76331 
137860000    261.27612     505.8654    263.10206   -4171.7492    4200.8296    242.76334    42.789685 
137864000    316.27591    564.52495    282.08564   -4186.0669    4199.9762     282.4393    42.839418 
137868000    262.01174    237.05171    646.82662   -4192.9715    4202.2517   -409.77492    42.740967 
137872000    282.53024    877.77721    256.07898    -4199.277    4200.3732    621.69823    42.800959 
137876000    282.42247    797.60415    1025.1563   -4195.3232    4199.0973   -227.55211    42.678682 
137880000    362.55073    324.72483    636.46855   -4233.8821    4208.2171   -311.74372    42.496272 
137884000    296.51591    814.43308    470.36479   -4229.7663    4247.0063    344.06828     42.37522 
137888000     263.8086     325.9999    277.55386   -4256.6973    4271.2945    48.446042    42.447555 
137892000    313.99041    841.42656    399.21592   -4272.4937    4268.9121    442.21064    42.569801 
137896000    235.06424    230.77632    535.94712   -4262.5367    4283.7241    -305.1708    42.558037 
137900000    310.01178    492.97102    707.17303   -4274.3636     4285.453   -214.20201    42.348873 
137904000    301.32241    400.64418    176.39959   -4284.8866    4287.3682    224.24459    42.419671 
137908000    271.16513    517.40267     410.7248   -4298.6428     4320.911    106.67787    42.364694 
137912000    280.75551    380.08046    362.08527   -4314.8045    4344.0701    17.995193    42.358278 
137916000    293.67634    538.72499    395.22027   -4351.5629    4359.7834    143.50473    42.345487 
137920000    293.76371    352.66816    261.69166   -4363.6666    4369.5339    90.976503    42.298269 
137924000    266.80411     350.1793    197.03903   -4355.8476     4381.878    153.14027    42.305735 
137928000     276.0026    618.24691     515.0618   -4382.1113     4394.025     103.1851    42.372824 
137932000    256.39205    386.23662    142.86502   -4391.2459    4415.0639     243.3716    42.250106 
137936000    273.08481     199.9914    249.29577   -4404.3132     4426.031   -49.304366    42.164137 
137940000    282.18423     480.7516    488.56577   -4446.8495    4450.1707   -7.8141621    42.148013 
137944000    330.74996    725.94187    1069.9579   -4462.3194    4464.8043   -344.01607    42.117903 
137948000    310.41891    738.69974    117.77785   -4467.5866    4481.6466    620.92188    42.052119 
137952000    296.95498    613.49089    238.05125   -4478.0467    4495.5424    375.43964    42.142126 
137956000    270.73879    428.15685    410.20609   -4471.3075    4500.3288    17.950762    42.188786 
137960000     278.3038    259.57875    353.61987   -4486.4144    4494.8522   -94.041124    42.231276 
137964000    268.83382     406.3997    374.79949   -4496.2204    4503.8581    31.600211    42.255287 
137968000    291.19735    403.32813    618.98977   -4490.6013    4514.3891   -215.66164     42.27293 
137972000     265.5657    600.15109    395.43644    -4508.051    4514.9836    204.71464    42.386107 
137976000    264.95945    672.52328    323.84991   -4530.5665    4543.2984    348.67337    42.313478 
137980000    297.67088    424.81418    380.44848   -4554.6927    4571.0121    44.365702    42.317518 
137984000    279.10645    756.23415    136.79246   -4567.1033    4577.3108    619.44169    42.555389 
137988000     275.4117    204.08618    546.35473   -4555.8629    4559.9454   -342.26854    42.699956 
137992000     279.9878    244.89737     677.0549   -4566.7641    4580.4751   -432.15752    42.716312 
137996000    249.68552    146.32689    284.43644   -4580.5481    4604.0986   -138.10955    42.637687 
138000000    272.58094    234.89132    204.27461   -4580.8007    4606.4331    30.616713     42.60724 
138004000    300.06544    401.65756    209.24896     -4608.39    4613.6278    192.40859    42.640317 
138008000    273.96641    654.55095    191.70455     -4611.96    4629.6413     462.8464    42.681974 
138012000    294.69175     263.9922    439.81967   -4627.5909    4642.6357   -175.82746    42.648431 
138016000    291.80795    855.61039    912.36996   -4643.0023    4652.3955   -56.759571    42.618935 
138020000     287.8621    528.55717    745.15884    -4647.285    4661.1559   -216.60167    42.579421 
138024000    279.76463    748.42521    469.00076   -4660.7654    4673.3296    279.42445    42.622878 
138028000    311.69998    794.19986     340.2754   -4670.6953    4674.9347    453.92446    42.775482 
138032000     258.0544     342.2949    147.89057   -4666.4778    4689.8445    194.40433    42.678364 
138036000    292.51039     254.9449    249.18228   -4685.5177    4700.8071    5.7626202    42.513849 
138040000    267.00279    555.11174    716.63657   -4689.0742     4705.414   -161.52483    42.452009 
138044000    273.74757    661.65785     339.2673   -4711.6802    4722.6426    322.39056     42.38423 
138048000    330.96134    489.54099     687.2514   -4736.9782    4738.5683   -197.71042     42.31054 
138052000     320.0639    601.53864    263.50915   -4743.3429    4748.7179    338.02949    42.337712 
138056000    296.97153    419.90409    409.45692    -4741.186    4749.5307    10.447174    42.309707 
138060000    316.51643    506.79934    415.83311   -4751.7167    4759.3425    90.966225    42.242614 
138064000    318.45348    351.78928    373.98973   -4772.4457    4778.7668   -22.200452    42.146999 
138068000    294.91022    592.92275    264.16025   -4776.4967    4783.7909     328.7625    42.086195 
138072000    292.28215    604.70054    184.84355   -4785.8535    4788.6155    419.85699    42.268284 
138076000    311.41058    165.91291    443.65872   -4783.3333     4791.351   -277.74581    42.229593 
138080000    264.47838    272.87642    534.32747    -4785.623    4802.4952   -261.45105    42.339769 
138084000    306.02502    1096.3314    420.31572   -4816.5901    4823.2367    676.01571    42.573446 
138088000    318.97206    216.55273    625.27122    -4833.996    4839.8049   -408.71849      42.5977 
138092000    313.50649    327.51524    569.17119   -4855.7949    4846.9294   -241.65595    42.499364 
138096000    294.33527    823.76068    612.96732   -4857.6949    4869.7335    210.79336    42.453636 
138100000    271.04902    334.29286    336.36453   -4859.1585    4879.2175   -2.0716763    42.444273 
138104000    312.84948    637.46317    349.21405   -4874.1764    4873.7463    288.24912    42.339724 
138108000    313.11956    309.35351    158.46291   -4889.3692    4884.9543    150.89059    42.440169 
138112000    325.94326    835.42704    254.41122   -4891.9945    4885.8417    581.01582    42.344083 
138116000     337.2708    700.20133    256.08265   -4896.7148    4899.2965    444.11868     42.30254 
138120000    308.66329    443.86804    221.41958   -4917.4437    4916.0914    222.44846    42.356598 
138124000    300.99838    494.40629     376.0475   -4906.7527     4923.634    118.35879    42.393326 
138128000    297.77453    546.16995    907.61175   -4914.8071    4926.8891    -361.4418      42.2668 
138132000    311.11943    485.47356    354.59867      -4943.9    4942.8149    130.87489    42.385809 
138136000    328.81897     853.8316    397.09521   -4961.3805    4956.5535    456.73639    42.445911 
138140000    291.58796    663.41816    417.29744   -4961.4824    4968.8609    246.12072     42.57201 
138144000    306.04642    698.79037    460.15283   -4981.3602    4980.5038    238.63754    42.463183 
138148000    293.08926     790.2604        540.5   -4996.4509      5000.04     249.7604    42.576151 
138152000    291.90473    533.22263    189.68779   -5005.2474    5018.2761    343.53484    42.516653 
138156000    284.39745    728.81482    756.16386   -5008.6132     5023.682   -27.349038     42.60368 
138160000    287.03187    377.07194    332.62532   -5025.7116    5024.0644    44.446618    42.707619 
138164000    307.14111    367.05634    229.66617    -5027.436    5032.1137    137.39017    42.822026 
138168000    282.45355     376.3348    448.15498   -5046.5292     5067.308   -71.820174    42.918959 
138172000    288.46237    204.82289    438.02252   -5051.7175    5067.0373   -233.19963    42.875907 
138176000    278.10201    140.09575    652.09042   -5052.0046    5073.8296   -511.99467    42.720983 
138180000    296.83032    175.56321     434.6776   -5071.0119    5082.9969   -259.11439    42.810826 
138184000     303.3534    795.67434    608.32598   -5094.3199    5099.9773    187.34835    42.922721 
138188000    249.25996    377.61446    554.71452   -5087.4416     5107.758   -177.10006    42.867515 
138192000    266.68623    668.63037      240.843   -5099.1779    5121.8244    427.78736    42.817262 
138196000    278.31751    670.07675    210.35492   -5106.7776      5127.89    459.72183    42.664791 
138200000    317.55453     600.9549    277.05081   -5132.1266    5139.2523    323.90409    42.705555 
138204000    284.19187     506.1487    785.04595   -5135.0275    5149.7765   -278.89725    42.859101 
138208000    277.14393      821.269     137.7921   -5152.8713    5165.7967     683.4769    42.774752 
138212000     283.8839    287.11598    496.94336   -5157.5767    5171.2628   -209.82738    42.707574 
138216000    222.56099     846.7128    599.09883   -5162.8395     5197.235    247.61397    42.652047 
138220000    280.93129    438.84167    296.09749   -5181.0043    5191.1697    142.74418     42.75567 
138224000    288.85174    414.99688    690.01526   -5190.3883    5203.9231   -275.01838     42.65725 
138228000    261.96737    220.97303    537.03052   -5194.5963    5220.6068   -316.05749    42.512732 
138232000    330.18198    376.82483     488.2525   -5228.9716    5226.9212   -111.42767    42.318926 
138236000    310.53501    467.05672    651.91817   -5250.3468     5258.715   -184.86145     42.28015 
138240000    234.01371    96.100248    167.14614   -5245.8046    5281.4289   -71.045897     42.31905 
138244000     265.2852    628.12113    177.76311   -5271.3325    5293.9757    450.35802    42.359027 
138248000     317.8783     212.8729    774.10977   -5288.7002    5290.5673   -561.23687    42.388062 
138252000    260.12683    281.51463    345.95755    -5283.776    5307.0367   -64.442916    42.365575 
138256000    278.13242    642.63793    598.62711   -5293.5039    5313.1924    44.010815    42.336468 
138260000    281.64612    509.98966    381.18549   -5307.2699    5315.4046    128.80417    42.353199 
138264000    277.12912    302.68332    542.56017   -5298.2729    5316.6639   -239.87684    42.382146 
138268000    297.20984    848.79774    342.19817    -5323.007    5322.1174    506.59957    42.477201 
138272000    269.12947    580.07702    1105.5307   -5317.0642    5336.7278   -525.45367     42.44314 
138276000     284.7729    657.37824    454.50949   -5321.3815     5331.554    202.86875    42.420195 
138280000    283.42826    591.20027    256.40715   -5332.4573    5346.1471    334.79312    42.472804 
138284000    343.30607     363.8505    370.18011   -5333.4529    5337.0769   -6.3296173    42.377566 
138288000    292.87486    754.74465    321.96569   -5348.2805    5350.0002    432.77896    42.289943 
138292000    290.15322    440.47689    392.53416   -5359.5048     5370.474    47.942734    42.308223 
138296000    288.55535    488.61709    425.79944   -5365.0551    5367.8246    62.817643    42.161563 
138300000    340.50503    427.30165      846.716   -5384.4806    5383.7571   -419.41435     42.19829 
138304000    285.34177    441.61172    953.88279   -5379.4344    5388.2561   -512.27108    42.153017 
138308000    295.08606    430.30534    230.68489   -5389.8816    5401.3962    199.62045    42.227834 
138312000    266.07702    323.36526    204.26687   -5409.5138    5412.3673    119.09839    42.378907 
138316000     274.9252    523.49674    454.28868   -5424.5366    5443.0794    69.208068    42.506506 
138320000    289.65589    661.77755    207.98657   -5435.9909    5448.3704    453.79098    42.494841 
138324000    278.72562    429.37759     317.9708   -5431.1332    5439.8668    111.40679     42.36596 
138328000     265.2094    706.62065    497.44306   -5428.3659    5446.1027    209.17759    42.448299 
138332000    281.52157    578.66295    277.87117   -5448.0537    5453.7265    300.79178    42.565481 
138336000    279.47978    667.81318    139.71174   -5442.0451    5452.9956    528.10144    42.699625 
138340000    311.34388    885.32057    389.97352   -5464.4309    5449.4806    495.34705    42.459677 
138344000    310.47799    668.85558    753.77325   -5477.3977    5484.2371   -84.917661    42.507974 
138348000    280.52135     1127.037    538.17461   -5482.2976     5492.089    588.86236    42.533105 
138352000    316.53115    645.17351    898.02109   -5480.1087    5478.0026   -252.84758    42.579697 
138356000    264.79255    295.21898     395.7994   -5486.1678    5503.5013   -100.58042    42.535332 
138360000    290.02727    1148.2281    444.94439   -5498.5579    5506.1504    703.28368    42.629311 
138364000    280.41124    1328.1574    372.18058   -5508.7008    5523.5698    955.97684    42.686564 
138368000    269.72729    568.56287    302.65405   -5519.1184    5528.3741    265.90881    42.779455 
138372000    286.29276    492.14299    399.15271   -5523.4298    5538.1932    92.990282    42.833893 
138376000     284.0174    627.58945    342.89526   -5525.3596     5544.113    284.69419    42.819429 
138380000     291.7005     478.3774    470.39609   -5531.7773    5551.3886     7.981317    42.792468 
138384000    267.39168    266.66264    265.53327   -5539.6582     5557.419    1.1293748     42.90286 
138388000    270.58139    495.79327    254.11434   -5561.0545    5574.2508    241.67893    43.035987 
138392000    323.62789    622.43655    651.08404   -5602.1553    5590.6491   -28.647487    43.066556 
138396000    303.73721    263.33291    357.37723   -5602.7514    5611.3319   -94.044316    43.032372 
138400000    264.02755    181.56964    220.20272   -5611.0137    5617.3587   -38.633075     42.94335 
138404000    295.62107    620.27642    606.54902   -5612.0793    5615.9157    13.727393    42.937846 
138408000     268.1737    353.75016    178.17054   -5618.0229    5627.8712    175.57962    42.918011 
138412000    327.70821    521.37713    340.60916   -5645.1988    5635.1446    180.76797    42.961546 
138416000    271.02439    707.39613    332.38682   -5661.0098    5670.2272    375.00932    42.993645 
138420000    307.11635    261.48689    309.34931   -5687.1941    5698.5551   -47.862417    42.959687 
138424000    286.69146    561.64135    736.65026   -5707.8346    5723.2197   -175.00891    42.888428 
138428000    246.41834    313.75908    294.30074   -5698.1149      5729.61    19.458345     42.98635 
138432000    287.30799    222.90798    543.44316   -5710.3858     5729.764   -320.53518    43.072117 
138436000    304.98826    298.87584     663.7971   -5712.3043    5724.9542   -364.92127    43.139013 
138440000     310.1315    575.33434    293.98868   -5719.6314    5724.9993    281.34566    43.010147 
138444000    280.75672    116.47452    614.49797   -5738.8174    5760.0116   -498.02345    43.057321 
138448000    290.16231    662.89225    428.01277     -5766.15    5775.6237    234.87948    43.105514 
138452000    238.49959    1045.5113    422.83519   -5771.1723    5794.1773    622.67609    43.163848 
138456000    269.23214      400.396    288.01564   -5793.1946    5809.2335    112.38036    43.203641 
138460000    314.40382    349.17855    444.30775   -5821.6931    5815.5845   -95.129202    43.070591 
138464000    287.02576    282.26076    307.43826   -5827.7268    5828.5203   -25.177499    43.069834 
138468000    272.11024    233.95353    292.70278   -5834.7975    5845.7947   -58.749246     42.96794 
138472000    322.20003    634.15301    535.06937   -5840.8257    5847.9258    99.083642    42.955487 
138476000    299.08708    59.748716    412.81629   -5857.7038     5863.464   -353.06758    42.901958 
138480000    276.11557    622.67988    502.16421   -5861.0947    5877.6575    120.51567    42.890838 
138484000    285.72382    592.76043    701.83298   -5888.7703    5898.7166   -109.07255     42.91806 
138488000    282.36107    156.34413    651.72124   -5886.7952    5904.9466   -495.37712    42.927039 
138492000    281.02513    386.38224    396.90674   -5891.8969    5907.2896   -10.524498     42.89914 
138496000     296.5131    426.07808    659.43184   -5903.2219    5903.9721   -233.35376    42.882694 
138500000    291.56675    479.89771     238.5644    -5915.568    5924.8995    241.33331    42.946255 
138504000    288.74673    155.89107     377.0173   -5919.4617    5940.6836   -221.12623    42.896381 
138508000    315.76149    410.83946    357.50897   -5947.7405    5949.3477    53.330493     42.81169 
138512000    295.70553    418.95783    192.51077   -5958.8267    5956.6896    226.44706    42.795622 
138516000    314.59754    420.63457    323.85785    -5957.213    5963.1328    96.776723     42.78753 
138520000    254.65532    345.38815     427.9246   -5959.4403    5962.5734   -82.536446    42.706642 
138524000    295.86535    464.92099    205.88228   -5961.1646    5975.4258    259.03871    42.784086 
138528000    265.30409    599.82081    633.58877   -5968.0638     5984.375   -33.767955    42.751252 
138532000    257.37859     797.0652     269.5052   -5980.6256    5997.4156       527.56    42.788726 
138536000    278.12961      328.488    347.85783   -6008.5408    6017.3461   -19.369837    42.943138 
138540000    279.13374    498.03388    258.94798   -6019.6904    6024.9629     239.0859    42.887652 
138544000    291.79737    372.12196    337.13521   -6023.3946    6030.2875    34.986756    42.898462 
138548000    261.44666     447.9281    277.96079   -6024.2707    6046.4793    169.96731    42.901321 
138552000    304.24916    653.91826    443.53438   -6030.9564    6044.9578    210.38388    42.802861 
138556000    256.74372    819.21999    211.61635   -6048.5152    6071.7847    607.60363    42.705576 
138560000    304.14317    711.92193    732.90421   -6073.3991    6085.7987   -20.982282    42.666316 
138564000    300.75564    531.02475    615.18675   -6075.2648    6077.9522   -84.162004    42.671843 
138568000    288.09037    388.00774    483.87845   -6063.2697    6080.2502   -95.870713    42.712124 
138572000    241.14478    403.05949    360.13338   -6074.1955    6087.9019    42.926106    42.750348 
138576000    241.86744     681.1123    241.97409   -6079.7407    6103.6981    439.13821    42.677511 
138580000    265.26431    760.86302    638.88169   -6112.7991    6129.5489    121.98133    42.684725 
138584000    245.27895    663.57654    469.35045   -6124.8048    6146.0536    194.22609     42.68741 
138588000    278.99187    263.46652    1003.8613   -6138.2798    6156.9597   -740.39474    42.602982 
138592000    276.02811    802.00088    396.44739   -6145.1416    6162.4591    405.55349    42.754716 
138596000    274.56425    493.53715    199.33804   -6165.0577    6190.4666    294.19911    42.617547 
138600000    301.10359    715.97246    366.33707    -6182.711    6198.4807    349.63539    42.747249 
138604000    256.28405    172.71408    615.13079    -6190.611    6214.2593   -442.41672    42.743334 
138608000    266.19874    527.71587    311.68989   -6190.5442    6213.2445    216.02598    42.798221 
138612000    286.39545    615.00985    400.60142   -6203.4373    6215.2688    214.40843    42.744915 
138616000     259.4084    335.08281    277.05808   -6211.7749    6228.3529    58.024732    42.716732 
138620000     253.4517    198.94757    427.46584   -6219.8575     6251.464   -228.51826    42.549585 
138624000    287.23473    397.37741    361.81229   -6217.9349    6243.0239     35.56512    42.520489 
138628000    251.92021    773.84733     662.6625    -6235.983    6258.0507    111.18483    42.417914 
138632000    302.13058    253.42529    586.71423   -6246.6075    6261.9269   -333.28894    42.483306 
138636000      276.258    472.00529    400.81468   -6267.5232     6274.765    71.190609     42.38194 
138640000    254.34469    281.66264    602.81113   -6269.8968    6293.6944   -321.14849    42.395061 
138644000    281.10284    618.09588    513.37715    -6278.091    6302.9415    104.71873    42.396589 
138648000    282.72031    419.01512    330.59677   -6289.4591     6309.261    88.418358    42.425538 
138652000    313.63831    446.66971     526.9283   -6292.7626    6302.5221   -80.258591    42.458137 
138656000    253.35314    377.44437    496.43092   -6297.5695    6321.8667   -118.98655    42.477282 
138660000    302.85076    474.24106    502.21537   -6321.9965    6326.5217   -27.974305    42.493381 
138664000    303.89848    362.74584    422.46356   -6328.0585    6338.4157   -59.717724    42.422831 
138668000    256.06221    410.10016    238.37157   -6310.6245    6346.1605    171.72858    42.357932 
138672000    240.38802    191.28617    538.13527   -6328.2281    6337.8304    -346.8491     42.28839 
138676000     306.0388    645.33717    450.97305   -6331.4539    6328.9729    194.36412    42.205321 
138680000    279.48276    550.49172     729.6637    -6335.164    6347.3544   -179.17198    42.082758 
138684000    300.61485    1035.6718    174.28444   -6356.2296    6353.9876    861.38734    42.039452 
138688000    281.34491    446.87192    684.44964   -6377.8057    6384.0204   -237.57772    42.018662 
138692000    270.52538    310.54517    306.56914   -6382.4434    6407.2106      3.97603     41.91998 
138696000    295.21765    490.25249    147.85254   -6414.9696    6419.7029    342.39995    41.881525 
138700000    282.52173    425.16618    518.11115   -6422.0197    6430.6033   -92.944973    41.911866 
138704000    285.84953    178.77402    313.55965   -6423.3596    6430.6163   -134.78563    41.926236 
138708000    307.96805    521.95747    537.17412   -6438.9575    6448.7553   -15.216646    41.770945 
138712000    266.11499    449.48494    479.33519   -6458.9574    6463.2106   -29.850246    41.946577 
138716000    298.13154    506.64655    323.69136   -6463.8818    6466.3376     182.9552    42.035563 
138720000    353.67205    394.84304     325.2932   -6491.6959    6490.9879    69.549835    42.186737 
138724000    295.64356    729.32735    475.17423   -6496.2478    6502.5283    254.15312    42.167346 
138728000    306.42061    756.47243    392.04642   -6526.1062    6535.6983    364.42601    42.184632 
138732000    229.79947    495.07281    383.29147   -6515.8704    6548.9765    111.78134    42.214538 
138736000    251.69162    733.69528    256.83717   -6529.8652    6558.5083    476.85812    42.263643 
138740000    295.07406    352.47524    204.74048   -6543.0924    6555.0012    147.73476    42.276738 
138744000    293.77511    747.95588    263.40662   -6557.4811    6567.6105    484.54925    42.275087 
138748000    296.87649    813.75255    550.09008   -6567.8386    6572.4781    263.66248      42.3777 
138752000    325.46151    1109.0425    542.07024   -6565.8448    6570.3451     566.9723    42.432473 
138756000    321.07255    362.88184    451.47481    -6575.503    6575.2808   -88.592969    42.397308 
138760000    254.90925    359.35316    531.25763   -6576.2934    6594.6793   -171.90447    42.339952 
138764000    347.39331    831.56516     1088.187   -6605.5956    6584.6162   -256.62187    42.414698 
138768000    343.18444    457.97692    539.79382    -6592.421    6593.0741   -81.816894    42.435832 
138772000    286.06347    624.84169     132.8314   -6602.4472    6618.4384    492.01029    42.481783 
138776000    251.57971    216.54889    405.67386   -6600.2074      6624.51   -189.12497    42.409651 
138780000    283.95465    256.72045    172.03575   -6606.9532    6624.3187    84.684706    42.373366 
138784000    264.60674    452.57883    170.43457   -6600.3541    6629.9298    282.14426    42.461109 
138788000    318.49451    988.94006    609.47426   -6614.8954    6615.0572    379.46581     42.60831 
138792000    287.68656     1246.652    279.52164   -6627.4228    6640.4646    967.13036    42.565331 
138796000    291.32744    435.50885    340.41888   -6630.3676    6649.7197     95.08997    42.432461 
138800000    278.60286    241.83602     724.9772   -6635.0666    6646.8481   -483.14119    42.411163 
138804000    239.37664    298.15007    196.03935   -6649.6145    6677.3066    102.11071     42.27127 
138808000    247.23484    276.40908    197.87339    -6662.364    6678.0873    78.535693     42.17595 
138812000    328.00546    720.73053    215.73803   -6680.3995    6684.6531    504.99251    42.180648 
138816000     318.3285      770.203    226.00091   -6690.0924    6690.1156    544.20209    42.291651 
138820000    310.38865    276.90309    404.71227   -6710.0014     6716.448   -127.80918    42.330662 
138824000    290.42091    277.53339    266.60598   -6735.3365     6740.767    10.927414    42.238609 
138828000    287.60528    735.23814    401.18866   -6742.1338     6753.507    334.04948    42.271324 
138832000    263.97815    462.26291    582.16581   -6757.6541    6766.8495    -119.9029     42.18552 
138836000    324.37082    548.30293    581.82004    -6770.419    6772.3988   -33.517105    42.056999 
138840000     309.2805      247.755    225.20884   -6766.1792    6767.8039    22.546161    42.067518 
138844000    271.30632    245.77737    791.02278   -6772.7817    6789.0766   -545.24542    41.993984 
138848000    310.06415    679.76171    1014.5407    -6777.341     6779.218   -334.77895    42.000446 
138852000    294.01502    1149.0562    276.80541   -6803.4255    6805.8498    872.25079    41.983625 
138856000    314.61704     556.3702    369.52655   -6822.8594    6827.4383    186.84365    42.029291 
138860000    330.75465    437.60672    789.07445   -6836.2817    6834.6241   -351.46773    41.955544 
138864000    277.86844    332.81084    684.97675   -6834.1172     6849.629    -352.1659    41.922905 
138868000    258.28804    436.31612     505.5222   -6843.0737    6865.1195   -69.206078    41.890966 
138872000    262.85826    368.20667    361.90426   -6848.5347    6875.5379    6.3024106     41.88217 
138876000    279.26557    575.25037    424.70942   -6856.9501    6860.1491    150.54094    41.966426 
138880000    305.07594    331.01999    126.48952   -6853.2478     6865.003    204.53047    41.943522 
138884000    234.46358    228.47109    351.14794   -6852.1391    6875.0335   -122.67685    41.981528 
138888000    292.46392    357.10476    1122.9734   -6861.3893    6881.5648   -765.86868    41.932138 
138892000    266.88698    560.20398    495.95605   -6863.6503    6891.3221    64.247925    41.916506 
138896000    268.83512    763.56687    173.99613   -6872.0628    6889.8956    589.57075     41.96693 
138900000    268.51807    138.46103    342.70353   -6876.3055    6893.8989    -204.2425    41.895029 
138904000     280.5024    367.68667    119.22266   -6887.0562    6905.1616    248.46402    41.811386 
138908000    255.61188    428.05207    172.53268   -6897.0303    6927.9894    255.51939    41.758361 
138912000    294.59771    799.92315    98.071857   -6920.5936    6921.7953    701.85129    41.797097 
138916000    311.47591    275.61074    429.71231   -6921.0882    6939.1276   -154.10157     41.79982 
138920000    294.84268     158.0071    640.67748   -6926.0472    6934.7694   -482.67038     41.85834 
138924000    304.73444    314.80895    861.51425   -6915.9849    6931.2805    -546.7053    41.813678 
138928000    269.48265    318.56696    271.35371   -6918.2361    6937.6088    47.213249    41.836069 
138932000    300.77268    667.09597    408.09246   -6930.4398    6940.8332    259.00351    41.792006 
138936000    290.61992    482.92089    347.45818   -6927.1972    6945.5977    135.46271    41.780147 
138940000    292.61213    381.81892    272.25034   -6935.9193    6950.0606    109.56857    41.799129 
138944000    279.11795    493.19973    209.30116   -6962.9942    6986.6081    283.89857    41.873098 
138948000     304.2658    430.61353     419.2626   -6970.8621    6986.0253    11.350937    41.838677 
138952000    285.00828     440.1355    679.82224   -6993.3337    6993.9601   -239.68674    41.731469 
138956000    239.63225    327.50665    774.21141   -6984.7689     7016.696   -446.70476    41.676982 
138960000    306.43907    173.78451     552.4127   -7007.7374    7011.0395   -378.62819    41.616244 
138964000    258.76726    455.39067    460.39397   -6998.5524     7015.536   -5.0033056    41.590118 
138968000    268.98075    415.34517    438.02002   -7018.1341    7034.1811   -22.674849    41.418658 
138972000    293.01754    721.66015    262.22211   -7035.3264    7041.6904    459.43803    41.463747 
138976000    303.73759    469.87631    202.72518   -7031.3189    7045.3318    267.15113    41.363651 
138980000    267.79204    492.01035    606.11238   -7028.9758    7043.4641   -114.10203    41.334946 
138984000    258.13478    191.11842    517.16451   -7041.1937    7067.3212   -326.04609    41.314494 
138988000    273.64545    243.34693    561.08253   -7056.5823    7067.5413    -317.7356    41.167178 
138992000    257.27007    516.39126    551.85936   -7066.7951    7086.1269   -35.468097    41.141822 
138996000    293.41357    371.08654    447.89892   -7074.4509    7083.9458   -76.812377    41.123063 
139000000    288.86269    464.31894    817.97048   -7094.4082    7095.9658   -353.65154    41.113347 
139004000    278.24538    456.98736    195.03917    -7100.234    7124.4368    261.94819    41.121138 
139008000    253.39449    292.42928    207.01691   -7117.8198    7129.9843    85.412374    41.137793 
139012000     288.8391    380.61971    235.55108   -7142.8089    7147.1553    145.06863    41.154552 
139016000     292.8465    441.26734    730.73543   -7151.9277     7155.718   -289.46808    41.069059 
139020000    301.92294    417.46685    719.53697   -7165.7042     7158.768   -302.07011    41.143039 
139024000    328.08635    421.85478    627.87892   -7179.6921    7174.4957   -206.02415     41.10869 
139028000    287.19666    325.13283    243.82381   -7169.3138    7178.2015    81.309017    41.190368 
139032000      307.368    976.75784    363.24086   -7179.4831    7176.3675    613.51699    41.168311 
139036000    277.01999    913.79835    226.08437   -7178.8925    7194.8952    687.71398    41.081092 
139040000    291.95091    342.33914    364.17392   -7174.5693    7189.4459   -21.834785    41.156863 
139044000    295.98954    473.96047    838.68835   -7195.9154    7212.2111   -364.72788    41.253268 
139048000     306.7163    362.76088    538.91285   -7222.1609    7219.5798   -176.15198    41.347327 
139052000    293.70657    391.65083    278.35532    -7219.904    7230.5676    113.29551    41.303815 
139056000    289.82319    219.15298    527.83187   -7223.3401    7243.5938   -308.67889    41.372338 
139060000    263.07797    345.46843    544.56156   -7247.5124    7259.5134   -199.09313    41.308448 
139064000    294.85722    136.61176    262.92591   -7279.9676    7289.6308   -126.31415    41.239753 
139068000    282.27551    944.58066    581.67472   -7289.5281    7306.4209    362.90594    41.208901 
139072000    287.65309    346.10372    309.89891   -7318.1397    7321.9464    36.204806     41.21341 
139076000    318.02897    231.41033    321.56815   -7313.0171    7311.2533    -90.15782     41.10797 
139080000    312.28729    598.64425    245.14575   -7322.8828     7326.956     353.4985    41.066642 
139084000    336.61083     588.9007    273.15071   -7340.5224    7338.9287    315.74999    41.025774 
139088000    268.60116    353.07281    490.32208   -7323.0381    7346.1717   -137.24926    41.059247 
139092000    262.80942    118.86316     200.4882   -7329.5126     7353.687   -81.625037    40.965981 
139096000    266.93062    590.32413    504.52874   -7332.3066    7354.9221    85.795391     40.89731 
139100000     280.3527    1026.4961    391.81422   -7344.2969    7358.4783    634.68188    40.848507 
139104000    233.65267    580.71674    372.33718    -7350.811    7374.2985    208.37956    40.777778 
139108000    261.79926    421.18788    248.43874    -7357.857    7364.1577    172.74914    40.798084 
139112000    299.31743     454.3939    308.51868   -7385.1488    7379.8287    145.87522    40.830563 
139116000    271.19057    205.39347    412.22974   -7374.5401    7399.8343   -206.83627    40.782137 
139120000    275.78096     228.9929    749.65999   -7397.8381    7405.6225   -520.66708    40.774373 
139124000    304.83989    473.72826    613.95083   -7386.3929    7414.6625   -140.22256     40.80841 
139128000    306.94961    263.21359      218.884    -7406.875    7411.3814    44.329594    40.742298 
139132000    292.29919    298.92904    638.71354   -7394.2269     7408.925    -339.7845    40.658768 
139136000    309.11074     964.5876    314.09434   -7414.0632    7425.6078    650.49326    40.731402 
139140000    271.97324    591.10148    430.31001   -7412.0004    7428.4598    160.79147    40.693673 
139144000    303.54308    308.98828    257.42681   -7427.9042     7438.705    51.561475    40.689936 
139148000    305.58041    588.31614    322.47023   -7415.0965    7421.1948    265.84592    40.791182 
139152000    293.19105    636.92416     359.8006   -7412.6248    7421.9813    277.12356    40.804057 
139156000    305.75489    511.44825    278.35994   -7425.8047    7441.9838    233.08831    40.896398 
139160000     313.8866    206.14212    453.66797   -7448.7389    7445.9414   -247.52585    40.873354 
139164000    280.91575    619.85866    283.83134   -7458.8861    7472.1913    336.02732    40.710219 
139168000    291.82483    369.61814    200.50073     -7467.39    7481.5489    169.11741    40.776599 
139172000     296.1753    1232.1849    260.58345   -7504.9514    7496.6531     971.6014    40.695838 
139176000    333.94181    310.77359    466.29515   -7521.2099    7516.9259   -155.52156    40.743407 
139180000    294.43624    737.13533    223.65425   -7537.1609    7536.6153    513.48108    40.778109 
139184000    303.02243    332.05268    733.42028   -7526.3425    7543.6106   -401.36761    40.683846 
139188000    261.92372    406.69461    440.48542    -7540.168    7548.7777   -33.790803    40.717723 
139192000    277.28066    64.777865    558.22077   -7541.3521    7556.8474   -493.44291    40.621343 
139196000    295.11909    598.99734     132.0328   -7556.4663    7579.1362    466.96454    40.671608 
139200000    281.98787    506.93618    192.48004   -7582.4803    7590.9913    314.45614    40.701891 
139204000    290.29603    372.11488    288.01455   -7582.8045    7600.6262    84.100332    40.697152 
139208000    293.70845    343.38798    1209.7129   -7597.9101    7603.1743   -866.32492    40.660738 
139212000     227.6331    514.23391    640.91169   -7604.0254    7639.5864   -126.67777    40.663854 
139216000    321.52258    530.07052    401.44872   -7616.6709    7636.2347     128.6218    40.629451 
139220000    304.19068    567.31622    632.85299   -7603.5788    7616.9578   -65.536763     40.66623 
139224000    296.54379    556.55414    509.72877   -7612.4433     7629.784    46.825372    40.741818 
139228000    309.41795    911.33529    178.85475   -7627.9329    7639.4563    732.48055    40.778865 
139232000     321.3997     777.5808    906.29978   -7651.2665    7661.6912   -128.71898    40.723102 
139236000    290.68211    232.42561    278.99005   -7661.2028    7677.3791   -46.564446    40.720406 
139240000    277.19147    482.43986    227.14629   -7682.2629    7684.1807    255.29357    40.771913 
139244000    283.94804    469.84717    243.42659   -7712.3205    7727.4422    226.42058    40.736347 
139248000    283.98676    670.12224    380.13336   -7722.7308    7738.7722    289.98888    40.759398 
139252000    243.24171    433.41014    353.71693   -7743.9294    7767.0689     79.69321    40.701084 
139256000    293.56292    305.40023    544.90165   -7743.4366    7756.0642   -239.50142    40.686106 
139260000    283.34141    626.01372    323.49195   -7760.0464    7763.1726    302.52177    40.509753 
139264000    293.98117    395.46158    272.57752   -7770.6166    7778.3064    122.88406    40.463106 
139268000    295.13316    223.91433    263.66292   -7782.0637    7789.7203   -39.748582    40.430814 
139272000    272.97646    634.62801    183.12654   -7787.1617    7808.9516    451.50147    40.361083 
139276000    336.16633    359.92503    413.80831   -7793.6095    7772.1325   -53.883284     40.33013 
139280000    274.68339    424.96944    314.68752   -7781.6322    7803.8639    110.28192    40.434505 
139284000    313.45716    1085.3393    471.61649   -7802.3932    7814.8244    613.72286    40.449047 
139288000    304.38478    283.76179    334.28112   -7817.9428    7810.2398   -50.519333    40.565841 
139292000    269.82243    213.40514    387.35309   -7824.5125    7835.5313   -173.94795    40.517299 
139296000    283.45815     648.5709    663.91952   -7824.5626    7844.8181   -15.348614    40.491692 
139300000     267.9141    406.56452    472.13758   -7835.8464    7852.8745   -65.573068    40.568989 
139304000    261.61427    339.32693    323.80144   -7855.2472    7867.9444    15.525496    40.443274 
139308000    259.59564    366.57061    293.25256   -7877.4905    7891.5298     73.31805     40.42074 
139312000    268.53093    510.15192    251.57364   -7885.4615    7904.7052    258.57828    40.535876 
139316000    333.24508    459.56367    530.96842   -7905.1222    7902.6297   -71.404749     40.52661 
139320000    295.13045    137.12413    817.15225   -7904.2378    7912.4852   -680.02812    40.569019 
139324000     272.2035    308.71472    317.46285   -7904.5916     7930.005   -8.7481248    40.471331 
139328000    280.18447    682.76164    438.08278   -7919.6337    7937.8458    244.67886    40.475237 
139332000    319.77527    823.03548    376.39204   -7930.3645    7938.2922    446.64345    40.544336 
139336000    323.23542    309.19711    521.96803   -7948.4026    7964.8321   -212.77091    40.571516 
139340000    312.20689    217.48741    1025.0283   -7970.8462    7977.6628   -807.54087     40.50184 
139344000    294.31555    683.46233    451.73867   -7993.4882    7993.1785    231.72365    40.499164 
139348000     287.8303    612.47216    415.76614     -7992.45    8007.7349    196.70602    40.460909 
139352000    234.09985    267.15354    323.32291   -7994.1968    8024.1568   -56.169372    40.463996 
139356000      295.882    456.39776    1011.9683   -8016.2429    8026.7656   -555.57053    40.494602 
139360000     263.0462    526.16105    612.93584   -8023.3588    8041.8635   -86.774788    40.538266 
139364000    298.16798    283.57771    120.14799   -8033.8346    8041.1535    163.42971    40.512985 
139368000    232.53953    335.58847    531.94126   -8031.7224    8070.6106   -196.35278    40.540723 
139372000    315.18178    368.17209    485.70338   -8061.2782    8054.3057   -117.53129    40.520682 
139376000     328.8237    437.41372    599.31329    -8067.841    8057.4583   -161.89957      40.4995 
139380000    298.32976    1055.4322    316.63992   -8065.0159     8080.503    738.79229    40.490695 
139384000    281.15011    874.27147    665.66923   -8095.4319    8100.0302    208.60224    40.580682 
139388000    267.07927    172.82113    567.35041   -8086.7915    8097.7805   -394.52928    40.583484 
139392000    266.90201    536.33448    611.66416    -8087.324    8109.0347   -75.329683    40.551063 
139396000    275.38625    205.05357    341.30395   -8106.7974    8125.5283   -136.25038    40.519054 
139400000    270.83971    425.50206    205.78232   -8121.7385    8146.5923    219.71974    40.478241 
139404000    257.45991    417.27532    113.38536   -8122.7018    8150.0835    303.88996    40.481932 
139408000    294.65958    196.49998    380.31566   -8136.9154    8146.1967   -183.81568    40.530204 
139412000    286.36738    635.80791    445.48411   -8134.3054     8142.003     190.3238    40.503004 
139416000    280.40133    499.45141    476.65762   -8132.4817    8147.6499    22.793799    40.627728 
139420000    279.73734    282.41212    263.92367   -8143.7161    8160.1184    18.488448     40.55323 
139424000    311.05075    606.51841    411.05991   -8160.0943    8171.5472     195.4585    40.592309 
139428000    283.19938    551.59431    504.48181   -8189.6893    8197.5999    47.112497    40.535896 
139432000    272.07418    482.29484    492.11321   -8184.6828    8204.5951   -9.8183711     40.58301 
139436000      304.561     402.4525    526.63202   -8197.8349    8209.6612   -124.17952    40.530959 
139440000    297.27505    345.89666    331.30677   -8211.2648     8230.682    14.589896    40.595042 
139444000     281.8301    496.63954    279.17191     -8230.06    8242.4422    217.46762    40.723246 
139448000    248.35563    388.62022    317.25153   -8247.5286    8259.9554    71.368691    40.650172 
139452000    310.27929    349.29417    420.94394   -8257.3511    8261.9604   -71.649772    40.595038 
139456000     324.5179    413.96938    861.93401   -8281.7474    8283.7346   -447.96463    40.569063 
139460000    296.63126    248.66827    517.60557   -8270.0957    8276.6573   -268.93729    40.605111 
139464000    271.96812    581.60986    801.99572   -8276.1703    8305.8653   -220.38586    40.639731 
139468000    275.15371    319.73192    496.00265   -8295.7662    8309.3869   -176.27073    40.655236 
139472000    303.37813      234.816    616.98852   -8317.0248    8317.5159   -382.17253    40.618913 
139476000    302.51645    568.63077    452.39425   -8333.5259    8331.4232    116.23652    40.657989 
139480000     308.9545    383.87527    962.45375    -8335.099    8350.1714   -578.57848    40.624497 
139484000    277.90978     224.3597    596.18885   -8340.4554    8354.5849   -371.82916    40.607863 
139488000    319.33321    255.02225    503.98172   -8347.9384    8350.2481   -248.95948     40.67889 
139492000    292.25437    514.83066    304.22772    -8369.996    8389.0336    210.60295    40.630803 
139496000    323.96947    631.02867    444.98192   -8409.9986    8403.7928    186.04675    40.738935 
139500000    340.70527    246.08356    269.90186   -8414.7657     8402.319   -23.818295    40.740887 
139504000    317.04872    432.82508    350.04556   -8406.0971    8417.5654    82.779515    40.775234 
139508000    286.52262    324.44411    521.13837   -8423.1807    8436.5969   -196.69426    40.849801 
139512000    293.26844    253.28809    262.98077    -8438.144    8457.6686   -9.6926775     40.86683 
139516000    291.66955    183.96867    316.66853   -8439.4402    8448.2156   -132.69986    40.781164 
139520000    301.90857    681.07105    179.42786   -8452.5878    8459.1292    501.64319     40.76112 
139524000    271.38919    690.45028    453.65784   -8480.1359    8492.4095    236.79243    40.814882 
139528000    325.90693    590.96125    534.92713   -8486.4346    8488.1445    56.034119    40.743653 
139532000    231.56669    448.27717    760.89816   -8492.8293    8529.9597   -312.62099    40.727411 
139536000    275.19613     496.7517    512.23662   -8513.8262    8541.4605   -15.484916    40.730998 
139540000    283.37292    450.17081    118.66827   -8531.2029    8553.8048    331.50254    40.739339 
139544000    229.65023     446.1896    310.26676   -8534.5325    8558.6913    135.92284    40.628088 
139548000    270.94402    578.64984    592.62123   -8530.9619    8551.9967   -13.971393    40.678624 
139552000    290.99391    577.05383    544.66073   -8553.5209     8567.943    32.393101    40.651872 
139556000     269.5537    426.95887    189.87827   -8565.7819    8574.0888     237.0806    40.680713 
139560000    294.36604     758.8401     587.9216   -8572.2415    8586.3418     170.9185    40.675877 
139564000    267.35489    295.18693    306.94194   -8605.6665    8615.1871   -11.755008    40.639025 
139568000    273.34819    479.15466    297.99767   -8612.9202    8627.1421    181.15699    40.647654 
139572000    288.99264    758.44373    372.49299   -8623.4749    8638.4697    385.95074    40.646959 
139576000    294.07511    729.79513    375.59412   -8652.8404     8653.461    354.20101    40.514244 
139580000      277.432    627.58601    189.87013   -8657.9069    8671.9893    437.71588    40.547584 
139584000    292.11001     252.4959    159.87383    -8660.362    8676.7949    92.622077    40.536772 
139588000    250.98682     432.0073    182.80624   -8687.9619    8719.4628    249.20106    40.559385 
139592000    280.03033    212.10051    340.73609   -8702.9934    8717.8899   -128.63558    40.701693 
139596000    296.24011    393.85465    69.336948   -8724.6675    8723.8975     324.5177    40.620566 
139600000    254.38044    628.40982    351.90555   -8716.3475    8745.8914    276.50427     40.60099 
139604000    324.68858    335.25242    223.22377   -8744.2263    8751.6695    112.02865    40.635352 
139608000    289.15212    205.04454    847.67968   -8760.3064    8759.7779   -642.63514    40.782946 
139612000    260.11532    177.62791    485.14696   -8772.9207     8791.827   -307.51905    40.790476 
139616000    252.36542    443.22308     310.7324   -8780.0038    8806.2438    132.49068    40.760893 
139620000    268.18404    230.87167     437.0966   -8797.1274    8798.7454   -206.22493    40.685392 
139624000    311.58576    447.89506    307.71808   -8806.3037    8810.5687    140.17698     40.73089 
139628000    317.66199    1195.5756    139.29195   -8799.7579    8805.4088    1056.2836    40.802434 
139632000    286.53161    392.32418    416.83085   -8803.3231    8817.4434   -24.506671    40.890681 
139636000    265.63381    711.99806    291.66862   -8828.3403    8839.1709    420.32944    40.942664 
139640000    310.30198    327.88124    1586.6532   -8833.8645    8847.1258    -1258.772    40.862766 
139644000    267.52356     341.8613    237.68866   -8841.5607    8862.1257    104.17264    40.893658 
139648000     281.7902    712.32138    477.20979   -8848.9441    8869.6778    235.11159    40.989694 
139652000     285.6225      252.513    234.70108   -8866.8267    8874.7382    17.811916    40.949574 
139656000    311.25231     513.7893    212.30605   -8866.5669    8880.9281    301.48325    40.953207 
139660000    304.64316    376.31162    392.27672   -8873.0471    8885.8922   -15.965098    40.927617 
139664000    291.76339    448.10453    514.96229   -8875.1232    8886.3418   -66.857762    40.880134 
139668000    299.03337    434.76432    409.85702   -8890.6539    8890.7394      24.9073    40.935303 
139672000    309.98962     737.4474    164.99698   -8921.8733    8930.5787    572.45043     40.93065 
139676000    289.33117    298.88853    550.03078   -8949.9329    8958.3575   -251.14226    40.899027 
139680000      288.698    336.52329    415.67889   -8957.0467    8970.1421   -79.155602    40.988732 
139684000    317.63187    417.88766    447.52677    -8973.323    8973.6151   -29.639108    40.993915 
139688000    249.88345    140.27144    299.83442   -8977.9591    8988.0354   -159.56298    40.944849 
139692000     285.1087    631.41588    267.32041   -8991.9992    9019.4069    364.09547    40.986471 
139696000    293.90153    243.26604    676.63762   -9025.7182    9022.7741   -433.37158    40.939301 
139700000    267.24683    397.71011    624.13994   -9047.9961    9058.9062   -226.42983     40.91426 
139704000    341.21228    684.31904    153.54282   -9062.4766     9058.067    530.77622    40.973322 
139708000    289.15905    367.02916    865.06005   -9058.3537    9067.6405    -498.0309    40.980389 
139712000    298.47409    504.73679    281.18174   -9065.3995    9075.7173    223.55505    41.009757 
139716000    272.71799    516.78764    382.25967   -9055.7968    9073.1002    134.52797    41.009995 
139720000    262.36112      315.912    213.07104   -9051.3776    9068.4835    102.84096    40.960453 
139724000    288.15081    469.56168    202.48056   -9068.9621    9075.4649    267.08112    40.972257 
139728000    250.13396    588.98316    168.32615   -9065.0822    9086.9496    420.65701    40.915097 
139732000    275.03667    523.21693    1052.0665   -9096.7618    9113.1483   -528.84961    40.900745 
139736000    265.51712    676.95561    327.37699   -9092.8132    9122.4741    349.57862    40.919331 
139740000    270.31091    309.47343    570.83235   -9121.8006    9137.4135   -261.35892    40.975655 
139744000    257.74282    1037.3176    201.89784   -9138.7813     9150.176    835.41975      41.0408 
139748000    263.83355    330.97278    360.23845    -9138.861    9157.3315    -29.26567    41.122367 
139752000    255.76102    165.22513    181.48158   -9148.4222    9170.5682   -16.256459    41.048384 
139756000    307.06937    403.23279     442.4209   -9153.3828    9167.9082   -39.188119    41.066918 
139760000     266.7273    780.54556    435.99104   -9161.3576    9178.8725    344.55452    41.104695 
139764000    272.19226    568.94713    783.92467   -9181.4898    9192.5637   -214.97754    41.098539 
139768000    276.95563    665.58318     584.2057   -9177.1821    9198.1912    81.377483    41.107821 
139772000     300.9655    331.32404    582.64222   -9196.1921     9194.858   -251.31819    41.115103 
139776000    299.68663    797.99027    643.21509   -9208.8278     9217.049    154.77518    41.233075 
139780000    338.59962    285.31959    566.79802   -9221.6627    9223.2765   -281.47843    41.234999 
139784000    278.89332    493.91563    487.18907   -9233.0509    9240.3922    6.7265644    41.277051 
139788000     259.6148    369.87721    624.11667   -9247.1877     9265.201   -254.23946    41.254885 
139792000    275.31042    437.67685    222.59088   -9264.6969    9287.5848    215.08596    41.318361 
139796000    289.15137     581.0033    551.11664   -9294.1197    9299.9482    29.886658    41.346381 
139800000    304.05729    1283.6662    417.75538    -9310.136    9301.5001    865.91078    41.473964 
139804000    329.01336    934.58447    184.42915   -9330.1091    9330.1885    750.15532    41.490731 
139808000    303.23113     503.4306    738.94607   -9333.0403    9334.7064   -235.51547    41.509427 
139812000    287.11332    744.62133    545.92544   -9336.7955    9340.5921    198.69589    41.498566 
139816000    263.36942    235.83941    393.05752   -9317.7567    9351.1754   -157.21812    41.411556 
139820000    279.92926     1295.635    342.35475   -9330.1719    9340.2606    953.28021    41.381754 
139824000    289.55529    209.51385    347.42814   -9338.5114    9342.8458   -137.91429    41.339133 
139828000    308.32323     618.4539    325.21615   -9342.3256    9350.9253    293.23775    41.375738 
139832000    298.47694    372.24442    318.50372   -9354.6704    9360.9441    53.740708    41.294869 
139836000    282.45576    522.07882    665.06879   -9378.5608    9382.9206   -142.98997    41.244072 
139840000    330.34573    178.21966    392.67776   -9379.3437    9379.7167    -214.4581    41.209607 
139844000    261.20667    344.56947     297.3091    -9380.726    9398.0558    47.260377    41.172887 
139848000    311.14449    617.16999    460.59772   -9391.3249    9401.9163    156.57227      41.1973 
139852000    330.87043    301.28953    390.90721   -9407.4729    9407.7412   -89.617677    41.178449 
139856000    274.76847    475.21007    300.87355   -9399.5633    9428.9137    174.33652    41.061831 
139860000    265.27186     486.6401    520.22357   -9414.1823    9434.3808   -33.583464    41.007958 
139864000    254.46496     333.5135     189.9052   -9435.7677    9446.7812     143.6083    41.066121 
139868000    234.39044    645.43563     421.6222   -9438.2191    9467.3597    223.81344    41.050448 
139872000    229.75041    435.00421    359.60198   -9459.6753    9481.1682    75.402225    41.172464 
139876000    256.72039    842.49422    267.03265   -9479.7204    9482.6309    575.46158    41.185257 
139880000    307.85871    691.32592    714.54528    -9485.912    9488.2879   -23.219353    41.201073 
139884000    311.97441    447.58271     1081.009   -9479.6134    9485.8237   -633.42625    41.119866 
139888000    246.21129    253.25555    427.18112   -9468.6207    9489.7273   -173.92557    41.077305 
139892000    312.64335    211.74463    148.18043   -9476.8199    9481.2644    63.564204    41.151357 
139896000    274.16445    529.31027    206.50994    -9466.704    9485.5578    322.80033    41.206968 
139900000    269.64913    279.17886    244.46444   -9475.6776    9497.2005    34.714415    41.219417 
139904000    281.07834    1299.7004     451.5424   -9483.6278    9500.8883    848.15805    41.241883 
139908000    288.30862    561.05189    1013.0873   -9507.8557    9514.5027   -452.03546    41.185989 
139912000    290.02061    856.27581    421.43955   -9519.4695    9526.8878    434.83626    41.178843 
139916000    283.28782    280.73995    629.75225   -9543.4936    9551.7199    -349.0123    41.157909 
139920000    286.05521    778.85315    622.14651   -9546.6509    9560.1139    156.70664    41.174914 
139924000    287.88521    267.57843    365.11266   -9557.9594    9570.0518   -97.534233    41.177959 
139928000    301.92093    453.99157    429.85136   -9556.7333    9560.9729    24.140212    41.133779 
139932000    360.13154    702.90456    267.76431   -9567.5228    9567.0832    435.14025    41.169451 
139936000     277.5327     443.9626    574.73132   -9570.0965     9583.203   -130.76872    41.159148 
139940000    250.25741    457.53775    505.19511   -9603.7244     9613.781   -47.657367    41.183457 
139944000    265.51584    958.48051    323.67151   -9619.7248    9636.3101    634.80901    41.232757 
139948000     292.2556    565.86315    266.71987   -9624.0164    9652.4745    299.14328    41.142695 
139952000    282.79128    389.25392    1183.2965   -9644.7825    9661.4552   -794.04254    41.070227 
139956000    275.17029    384.28546    588.67005   -9651.1789    9670.2586   -204.38459    41.035574 
139960000    301.71242    573.81589    197.75739   -9665.3577    9662.5228     376.0585    41.081403 
139964000    289.34221    684.23869    372.51302   -9664.0537     9680.547    311.72567     41.06543 
139968000    244.64395    218.31528    459.32314   -9670.4597    9681.1677   -241.00786    41.093987 
139972000    293.11353    291.14957    576.92672   -9676.8175    9689.5975   -285.77715    41.058537 
139976000    310.53144    737.56912    570.03491   -9703.6793     9700.756    167.53422    41.093717 
139980000    297.22958    769.53773    360.61734   -9707.0744    9715.0887     408.9204    41.049783 
139984000    267.66142    471.14439    378.85803   -9702.7957    9716.3157    92.286356    41.065847 
139988000    280.01272     778.1431    705.66428   -9712.4721    9730.4373    72.478825    41.127639 
139992000    275.15469     319.8194    206.52462   -9728.9087     9746.312    113.29477    41.124629 
139996000     258.3601    370.49734    788.14206   -9737.9251    9762.1414   -417.64472    41.112527 
140000000    303.26059    580.31117       252.75   -9749.8045    9756.5024    327.56117    41.144825 
140004000    284.49227    251.21854    313.99855   -9744.6828    9764.4286   -62.780005    41.123629 
140008000    302.02891    250.33424    403.34272   -9742.1811    9748.0758   -153.00848    41.078889 
140012000    281.59987    541.47599    728.29494   -9744.6389    9759.6929   -186.81896     41.11175 
140016000    260.43202    430.96502    179.05925   -9757.3632    9769.0402    251.90577    41.152317 
140020000    271.72117    346.24926    160.93849   -9764.2808    9785.5415    185.31077    41.144606 
140024000    319.01055    416.11227    599.52163   -9783.6854    9780.2857   -183.40936    41.153163 
140028000    299.21128    591.32736    437.37578   -9789.6077    9792.0668    153.95159    41.175589 
140032000    272.26125     483.3821    391.13005   -9797.8212    9815.4903    92.252051    41.119701 
140036000    263.57677    235.93377    278.63611   -9810.2332    9822.9451   -42.702343    41.210708 
140040000     281.9007    179.47123    479.03247   -9817.2933    9833.8233   -299.56124    41.322372 
140044000    301.35524    470.04433    505.17325   -9834.8024    9840.8474    -35.12892    41.346861 
140048000    280.40046    389.56367    488.32637   -9829.7965    9837.9528   -98.762699    41.298276 
140052000    250.84007    374.80786    353.87822   -9830.6855    9851.6937    20.929639    41.294051 
140056000     302.3733    1028.2295    560.69831   -9856.1178    9865.8087    467.53123    41.231375 
140060000    304.30183    470.11184    398.91409    -9870.669    9884.3502    71.197752    41.351952 
140064000    272.79685    207.72059    345.78353   -9892.7054    9915.0423   -138.06295    41.378512 
140068000    312.55132    401.22814    482.23546    -9917.655    9918.0048   -81.007319    41.392778 
140072000    298.58017    282.79428    686.95374   -9935.0397    9943.8437   -404.15946    41.354712 
140076000    277.32057    598.58686    281.73993   -9942.6584    9962.7387    316.84693    41.416402 
140080000    288.25369    811.13988    348.28728   -9955.8265     9963.836     462.8526    41.498573 
140084000    312.50514    319.00353    640.48228   -9951.6017     9954.359   -321.47874    41.471652 
140088000    287.04058    455.18733    534.70023   -9954.4245    9964.6803   -79.512899    41.537505 
140092000     276.1915    440.76497    169.73202   -9973.2622    9988.7533    271.03295    41.594671 
140096000    266.18444    439.64171    276.33668   -9971.3794    10001.536    163.30502    41.603438 
140100000     286.7624    275.71958    361.98043   -9997.9217    10000.879   -86.260851    41.609396 
140104000    283.08698    76.227935    462.38385   -9980.4424    10000.173   -386.15591    41.616781 
140108000    339.77863    918.32571      168.183    -10003.29    10001.239    750.14271    41.648743 
140112000     273.9509     161.7298    577.75272   -10002.871    10010.134   -416.02292    41.634783 
140116000    279.50077    984.24026     270.5525   -10006.086    10013.833    713.68776     41.66444 
140120000    291.91734    529.42827    268.90659   -10020.789    10034.127    260.52167    41.644991 
140124000    298.39753    350.71295    243.56577   -10033.043    10050.083    107.14718    41.584077 
140128000    275.40186    569.00131    454.67734    -10027.34    10053.506    114.32397    41.568115 
140132000    317.56022    730.69924    1665.1809   -10046.479    10050.578   -934.48163    41.547057 
140136000     301.5622    365.65889    537.69312   -10045.892    10055.486   -172.03423    41.536746 
140140000      283.062    311.00955    677.46083   -10075.143     10083.98   -366.45128    41.470442 
140144000    302.59545    872.29638    138.14795    -10102.26    10104.453    734.14843    41.398276 
140148000    314.10367     486.4466     416.1027   -10115.526    10121.735    70.343899    41.376969 
140152000    311.01511    748.48378    447.10288   -10116.971    10121.683     301.3809    41.384498 
140156000    342.31344    398.33173    390.38134   -10139.641    10114.547    7.9503887    41.425599 
140160000    296.93545    368.77799    457.74314   -10136.567    10134.152   -88.965151    41.446551 
140164000    331.86818    580.27106    161.09376   -10157.747    10163.365     419.1773    41.417538 
140168000    302.45646    519.57368    407.59496   -10157.167    10158.786    111.97871    41.400973 
140172000    276.14317    198.38687    423.88057   -10150.155    10175.144   -225.49371    41.391003 
140176000    318.53513    348.22862    588.65397   -10176.193    10187.612   -240.42535    41.421474 
140180000    252.21454    793.69416     534.1811   -10189.941    10215.224    259.51306    41.427582 
140184000    294.04574    507.46045    519.83634   -10200.561    10216.125   -12.375886    41.418646 
140188000    266.44152    264.26679    543.24084   -10194.427    10220.801   -278.97405    41.379413 
140192000    276.85312    230.96366    430.67623   -10211.339    10212.482   -199.71257    41.379653 
140196000    275.97687    706.09181    339.99453    -10231.23    10228.658    366.09729    41.443744 
140200000    292.48747    1567.0465    590.21648   -10225.449    10241.645    976.82997    41.404146 
140204000    285.58583    540.85138    362.69346   -10240.167    10253.778    178.15792    41.334041 
140208000    313.14428    392.08331    797.74252   -10257.768    10266.311   -405.65922    41.333522 
140212000    294.50255     219.4869    427.66757   -10267.851     10277.58   -208.18067     41.27873 
140216000    312.32639    548.99798    537.42053   -10277.934    10288.149    11.577446    41.324419 
140220000    233.80633    440.73051    541.61401   -10268.588    10307.694    -100.8835    41.309767 
140224000    283.61602    385.08441    232.21398   -10314.547    10319.598    152.87043    41.322221 
140228000    276.39474    225.13755    517.47378   -10312.103    10336.142   -292.33623     41.29997 
140232000    258.81138     299.8489    381.80178   -10331.819    10339.339   -81.952882    41.289441 
140236000     298.8415    311.20653    591.32758   -10336.368    10344.895   -280.12106    41.233348 
140240000    265.93566    165.05839    529.22095   -10358.549    10364.808   -364.16256    41.254433 
140244000    295.46509    425.44123    423.12339   -10395.594    10398.763     2.317842    41.188796 
140248000    262.85994    443.36714    731.93986   -10378.597    10400.561   -288.57272    41.180937 
140252000    307.78599     915.6761    462.30972   -10387.951    10389.247    453.36638    41.171449 
140256000     306.2511    279.17082     723.3281   -10386.484    10377.131   -444.15728     41.18554 
140260000     295.2307    253.71268    542.90432   -10385.973     10392.09   -289.19164    41.142942 
140264000    322.28649    754.09689    653.20446   -10413.746    10411.175    100.89242    41.156016 
140268000    264.39332    898.40193    192.78234   -10427.749    10444.419    705.61959    41.178071 
140272000    286.11019    572.39904    320.74465   -10437.284    10451.759    251.65439    41.226281 
140276000    274.96637    605.05675    677.77546   -10459.503    10466.398   -72.718708    41.212511 
140280000    283.88122    270.68007    73.084717    -10461.54    10476.938    197.59536    41.177773 
140284000    275.34205    257.46082    665.01005   -10476.405    10474.908   -407.54922     41.16634 
140288000    280.59179    99.735561     355.4057    -10472.55    10478.986   -255.67014    41.129043 
140292000    307.62698    440.07598    299.21831   -10487.894    10492.054    140.85767    41.225545 
140296000    286.86166    511.40017    536.97902   -10499.526    10507.865   -25.578846    41.219575 
140300000    281.40211    365.23149    543.69329   -10500.971    10526.465   -178.46179    41.163461 
140304000    315.88762    440.70793    237.64191   -10533.902    10522.445    203.06602    41.179308 
140308000    265.94197    263.97298    1046.3796   -10520.963    10546.318   -782.40662    41.202582 
140312000    301.23698    195.99127    317.97471   -10540.573    10553.366   -121.98345    41.169203 
140316000    288.55582    332.53301    75.175924   -10567.689    10573.302    257.35708    41.214207 
140320000    261.03863      410.839     83.22119   -10584.505    10604.488    327.61781    41.242685 
140324000     290.2804    546.14486    502.48801   -10602.681    10600.187    43.656847      41.1955 
140328000    303.47186    677.75868    138.47176   -10604.603    10609.095    539.28692    41.241899 
140332000    256.64642    280.15016    498.50332    -10616.41    10637.335   -218.35317    41.251722 
140336000    296.70371    921.57567     183.8971   -10645.387    10647.542    737.67857    41.304398 
140340000    282.96182    370.80456     368.7115   -10622.618    10644.575    2.0930658    41.316359 
140344000    305.46965    360.42397    871.16572   -10632.154    10637.771   -510.74174    41.208693 
140348000     306.6678    242.77565    426.60086    -10656.48    10655.985    -183.8252     41.24221 
140352000    220.72762    225.20742     375.3255   -10673.684    10706.402   -150.11808    41.244766 
140356000    274.09753    607.13205    612.31482   -10681.124        10697   -5.1827703    41.248228 
140360000    267.53542    349.51177    538.80368   -10697.661    10718.246   -189.29191    41.234074 
140364000    262.64073    347.23089     346.6072   -10704.103    10709.099   0.62369141    41.238219 
140368000    280.05503     380.7122    418.83081   -10712.885    10720.022   -38.118608    41.205024 
140372000    286.15653    348.66937    432.03603   -10705.926    10720.982   -83.366659    41.293004 
140376000    275.98113    99.168639    234.84297   -10722.749    10744.422   -135.67433    41.240168 
140380000    296.75362    262.60238    269.54669   -10740.925    10749.778   -6.9443096    41.237388 
140384000    306.79323    690.91564    138.98363   -10766.225    10768.904    551.93201    41.270454 
140388000    320.38387     288.9804    740.13134   -10760.716    10766.928   -451.15094    41.235546 
140392000    294.11496    766.82035      580.511   -10761.349     10782.07    186.30935    41.223258 
140396000    275.36183     1066.344    461.69498   -10768.433    10791.143    604.64906    41.270363 
140400000     265.3275    359.96556    424.14077   -10782.957    10794.163   -64.175212    41.206196 
140404000    314.47567    499.18467    724.58746   -10808.267    10816.654   -225.40279    41.254291 
140408000    283.93649    607.07206     954.7721   -10831.266    10851.192   -347.70003    41.244623 
140412000    275.51904    309.05985    694.88367   -10838.786    10858.024   -385.82382    41.216971 
140416000    262.08373    381.62699     372.4474    -10842.24    10865.727    9.1795925    41.273876 
140420000    241.28773    334.48522    610.35098    -10842.25    10875.391   -275.86577    41.307002 
140424000    308.81996     766.9208    556.75467   -10870.606    10872.598    210.16613    41.388873 
140428000    287.07473    846.04586    158.19321   -10882.889     10889.68    687.85265    41.309867 
140432000    270.43478    256.79606    199.04121   -10887.646    10903.497    57.754856    41.360832 
140436000    283.79936    299.86401    244.39977   -10894.645    10898.664    55.464241    41.312516 
140440000    289.34986     179.2447    492.84473   -10911.349    10923.852   -313.60002     41.29493 
140444000    309.40202    358.46726    435.45815   -10926.348    10932.867   -76.990891    41.320846 
140448000     290.7401    682.99917    493.33619   -10933.251     10941.79    189.66298    41.359671 
140452000     303.7791    787.63379    282.55179   -10926.421    10940.785      505.082    41.373485 
140456000    283.36698    654.47781     324.9411   -10936.545    10948.115    329.53672    41.321708 
140460000    311.99768    404.01402    278.80003   -10965.621     10965.71    125.21399    41.288229 
140464000    354.19419    599.40573    168.84149   -10971.176    10973.552    430.56424    41.230844 
140468000    310.16707    287.85118    267.05975   -10976.363    10985.615     20.79143    41.272862 
140472000     284.3726    237.12322    281.86804   -11003.125    11012.076   -44.744819    41.311311 
140476000    311.98123    85.980036    908.42085   -11011.317    11012.163   -822.44082    41.351261 
140480000    302.72871    878.49477    360.35633   -10998.343    11014.092    518.13844    41.383912 
140484000    348.87886    407.30421    538.15931   -11022.554    11018.289   -130.85509     41.41671 
140488000    279.38611    301.07261    488.60855   -11016.181    11032.269   -187.53593    41.426903 
140492000     268.4105    470.31896    593.16953   -11023.733    11050.079   -122.85057    41.417557 
140496000    268.49911    587.30878    249.21956   -11024.593    11045.843    338.08922    41.490408 
140500000    287.33239    332.18783    682.35468    -11029.19    11052.699   -350.16685    41.492987 
140504000    280.08385    305.94956    867.48345   -11027.604    11051.249   -561.53389    41.445547 
140508000     283.5469    329.69029    747.27973   -11051.012    11059.656   -417.58944    41.397332 
140512000    266.50659    190.02447    362.36106   -11067.172    11079.504   -172.33659    41.480185 
140516000    335.59388    798.53232    743.81619   -11090.344     11087.45    54.716135    41.523174 
140520000    349.18021    1329.0543    881.15476   -11102.299    11089.382    447.89957    41.502353 
140524000    288.29175    422.86312    449.03186   -11093.675    11099.615   -26.168738    41.477453 
140528000    276.69744     577.7987    196.70232   -11095.506    11102.882    381.09638    41.429574 
140532000    316.22741    329.87152    430.13412   -11106.798    11115.962    -100.2626    41.426184 
140536000    257.40579    999.44992    403.60764   -11105.346    11121.436    595.84228    41.397068 
140540000    284.65874    255.20152    772.01085    -11091.94     11108.09   -516.80933    41.439491 
140544000    239.66442    153.47899    182.25833   -11097.549    11127.418   -28.779342    41.399471 
140548000    278.60791    479.85685    259.27135   -11106.066    11123.794     220.5855    41.421945 
140552000    244.22612    91.790829    136.84681   -11116.882    11143.172   -45.055983    41.450162 
140556000    307.17853    816.72299    484.77023   -11135.647    11148.867    331.95275    41.459637 
140560000    283.71318    606.61884    520.67423   -11160.542    11174.331    85.944608    41.436172 
140564000    311.60986    488.91555    612.55903   -11166.371    11175.987   -123.64347    41.325545 
140568000    276.10601    729.20181    285.73452    -11180.59    11191.503    443.46729    41.281249 
140572000    274.46523    255.02371    275.97714   -11175.002    11190.869   -20.953427    41.326111 
140576000    247.92605     351.6308    763.08408    -11171.92     11201.28   -411.45328    41.324706 
140580000    258.84568    282.30162    298.72673   -11196.824    11217.579   -16.425119    41.299816 
140584000    285.88948    808.78825    345.31759   -11229.374    11237.574    463.47065    41.292105 
140588000    286.17122    514.14712    362.26618   -11253.153    11258.399    151.88093    41.306735 
140592000    277.60597    128.95958    342.80722   -11239.692    11264.648   -213.84764    41.309762 
140596000     282.1904    250.20313    263.51495   -11257.739    11272.256   -13.311818    41.330522 
140600000     269.1152    629.16366     564.1196   -11269.211     11291.56    65.044061    41.359738 
140604000    274.26175    951.41741    597.18126   -11291.377    11308.795    354.23615    41.377897 
140608000    279.51557    310.19046    341.86351   -11305.851    11319.187   -31.673043    41.421578 
140612000    305.48765    425.37553    143.76714   -11302.503    11316.578     281.6084    41.458311 
140616000    257.65872    466.16018    122.82621    -11307.86    11323.956    343.33397    41.463384 
140620000    297.57769    242.00049     618.3479   -11319.036    11331.237   -376.34741    41.463243 
140624000    284.46767    379.29559    184.63868   -11335.874    11346.918    194.65692    41.579685 
140628000    293.59393    253.86656    360.26213   -11340.007     11352.33   -106.39556    41.566355 
140632000    284.09601    256.15196    326.86732   -11340.555    11357.253   -70.715361    41.553641 
140636000    269.89674     520.9211    655.83107   -11345.334    11356.522   -134.90997    41.648411 
140640000     236.2675    284.41842    559.97182   -11360.564     11373.39   -275.55341    41.610036 
140644000    257.38335    697.78907    485.38692   -11356.345    11374.729    212.40215    41.509847 
140648000     256.4644    305.31055    327.77447   -11356.464    11382.672    -22.46392    41.527428 
140652000    268.75554    454.29107     389.7364   -11375.898    11395.798    64.554669    41.540543 
140656000    284.48076    430.18914    352.79261    -11404.45    11419.024    77.396527      41.5051 
140660000    264.99573    165.27807    801.35433   -11423.495    11435.971   -636.07626    41.514419 
140664000    269.93471    424.10144    607.04286    -11424.91    11434.458   -182.94142    41.485649 
140668000     233.4296    336.60019    245.37473   -11405.163    11433.621    91.225458    41.533112 
140672000    295.53977    425.74136    746.90055   -11420.402    11433.828   -321.15919    41.527057 
140676000    290.23806    333.81571    253.27512   -11431.301    11438.668    80.540588    41.503713 
140680000    288.94213    786.83729    257.73062   -11446.547    11453.758    529.10668    41.495975 
140684000    292.10966    375.79612    857.64686   -11447.517    11452.276   -481.85075    41.451225 
140688000    273.99219    325.43118    919.05208   -11444.353    11462.272    -593.6209    41.494635 
140692000    269.31212    731.11892    263.20179   -11468.601    11476.554    467.91712    41.485095 
140696000    313.65635    706.70352    187.94845   -11468.312    11475.574    518.75507     41.44048 
140700000     276.1571    339.89823    708.18694   -11466.513      11485.1    -368.2887    41.493562 
140704000    320.60508    565.56788    863.37941   -11502.708    11499.045   -297.81153    41.491064 
140708000    313.09296    815.14738    328.01401   -11524.217    11512.306    487.13337    41.505124 
140712000    279.99468    684.07765    428.18255   -11520.316    11549.957     255.8951    41.526984 
140716000    283.35972    594.55387    631.59957   -11538.874    11548.064   -37.045691     41.50549 
140720000    252.55144    305.22082    383.23285   -11537.055    11558.438   -78.012029     41.56083 
140724000     244.2721    164.27505    287.31461   -11542.051    11565.182   -123.03956    41.571585 
140728000    303.19977    615.28961    680.94996   -11546.122    11554.464   -65.660347    41.514358 
140732000    291.79115    741.22611    479.05704   -11548.471    11563.196    262.16907    41.498344 
140736000    231.46357     227.6083    303.26283   -11564.709     11603.95   -75.654531    41.435711 
140740000    279.68838    247.48996    661.18162   -11586.242    11593.526   -413.69165    41.493581 
140744000    282.52115    552.71623    580.39378   -11606.933    11605.303   -27.677552    41.550806 
140748000    292.21763    218.44084    615.48765   -11597.914    11613.923   -397.04681    41.424255 
140752000    313.30257    298.87424    583.16157   -11616.752    11624.974   -284.28733    41.442698 
140756000    263.28438    499.25791    649.60401   -11611.786    11629.825    -150.3461    41.410862 
140760000    295.25676    119.82122    347.39584   -11628.855    11635.561   -227.57462     41.35914 
140764000    286.07484    395.03337    425.43399   -11633.757    11644.819   -30.400618    41.287021 
140768000    297.93412    459.61402    609.68236   -11638.807    11658.096   -150.06834    41.275183 
140772000    293.49068    572.20967    361.57592   -11644.474    11652.458    210.63375    41.247416 
140776000     245.5848    495.42245    251.87776   -11642.338    11675.075    243.54469    41.255153 
140780000    294.06511    872.92565    626.58138   -11664.441      11675.7    246.34428    41.244294 
140784000    299.88864    587.62513     163.5298   -11676.643    11701.061    424.09533    41.266075 
140788000    269.41097    317.03612    550.57915    -11682.22    11695.046   -233.54304    41.264087 
140792000    310.64029    242.02811    448.88964   -11708.748    11713.906   -206.86153    41.322474 
140796000    298.96025    316.68737    338.30303   -11713.343    11719.305   -21.615659    41.319126 
140800000    305.45572    690.42552    107.31722   -11715.111    11714.186     583.1083    41.300287 
140804000    312.65817    883.46054    514.23855   -11712.822    11720.768    369.22198    41.324183 
140808000    281.18131    645.77832    460.02425   -11730.807    11724.617    185.75406    41.343929 
140812000    287.64255     125.8247    623.45089   -11718.154    11729.261   -497.62618    41.345746 
140816000    291.41147    368.23052    229.74178   -11730.066    11738.753    138.48874    41.400698 
140820000    257.36143    295.69152    476.31269   -11738.114    11760.191   -180.62118    41.439669 
140824000    310.97078    759.67161     373.0448   -11788.035    11784.884    386.62682    41.427918 
140828000    307.94946    612.39387    356.56437   -11797.951     11801.22     255.8295    41.429114 
140832000    299.80253    383.98428    805.09077   -11820.946    11828.298   -421.10648    41.418868 
140836000    282.44011    429.51487    444.97468   -11822.602    11840.947   -15.459806    41.447348 
140840000    297.68684    696.27408    645.04362   -11838.293    11849.869    51.230464    41.445937 
140844000    328.04506    1099.1887    810.54031   -11865.964    11869.672    288.64843    41.498345 
140848000    313.46212    329.58646    732.02209    -11870.02    11867.259   -402.43563    41.468463 
140852000    288.13125    286.71331    480.04064   -11867.268    11888.395   -193.32733    41.567415 
140856000    257.63686    351.69192    178.57191   -11885.001    11904.273    173.12001    41.601717 
140860000    238.46408    338.87884    170.73636   -11886.594    11912.153    168.14247    41.578489 
140864000    263.35749    463.29579    334.09647   -11891.907    11911.488    129.19932    41.486086 
140868000    300.26941    323.87774    923.51522   -11895.482    11909.309   -599.63748    41.492241 
140872000    277.54646    463.15062    623.24026   -11909.454    11917.761   -160.08963    41.511488 
140876000    259.68657    169.53486    281.70157   -11910.177    11926.113   -112.16671    41.480881 
140880000    280.46524    560.41596    927.25792   -11926.087    11935.717   -366.84196    41.409854 
140884000    301.91854    219.60879    896.00505   -11953.456    11962.516   -676.39626    41.448791 
140888000    308.95859    206.46128    425.27751   -11973.287    11975.199   -218.81623    41.470209 
140892000    232.16518    203.65211    487.45348   -11962.295    12006.484   -283.80137    41.525925 
140896000      261.943    716.49439    237.21705   -11985.036    12001.861    479.27733    41.523617 
140900000    313.21561    363.48011    332.04501   -12000.016    12013.364    31.435094     41.46248 
140904000    263.65772    232.54275    392.42905   -12011.883    12040.887    -159.8863    41.380308 
140908000    301.88153    748.19083    567.10927   -12038.419    12050.203    181.08156    41.381613 
140912000    282.39819    449.56334    537.00102   -12044.437    12061.799   -87.437677    41.368904 
140916000    289.89941    459.64769    238.80432   -12053.798    12066.902    220.84336    41.331611 
140920000    284.81283    185.42365    584.97078   -12044.923    12058.215   -399.54714    41.355239 
140924000    259.29408    398.03158    663.43604   -12032.462    12061.397   -265.40446    41.291556 
140928000    289.71846    264.77972    182.23584   -12056.674    12071.966    82.543885    41.288145 
140932000    294.19429    226.16818     512.2906   -12066.872     12077.86   -286.12242    41.289932 
140936000    325.13346    234.64363    529.49297   -12082.783    12078.494   -294.84934    41.254372 
140940000    282.71794     311.5109    445.80509   -12075.835    12097.871   -134.29419    41.255943 
140944000    301.68176    482.59559    657.41142   -12086.344    12099.232   -174.81583    41.216367 
140948000    288.56255    278.04894    67.302587   -12104.856    12116.583    210.74636    41.204064 
140952000    290.39738     137.7837      514.852   -12122.941    12132.568    -377.0683    41.147928 
140956000    262.64045    432.78382    656.18362   -12131.984    12148.004    -223.3998    41.129681 
140960000    328.02469    890.69434    319.69161   -12156.169    12157.153    571.00273    41.146452 
140964000    273.53585    356.70025    281.22294   -12165.212    12172.605    75.477306    41.203352 
140968000     312.1701    320.06928    417.12185   -12189.863    12190.837   -97.052576    41.190472 
140972000    304.42718    180.43527     488.3775   -12211.106    12218.326   -307.94223    41.250352 
140976000    296.69213    609.67527    729.97402   -12221.019    12227.731   -120.29875    41.286999 
140980000    313.79962    777.26381    439.02605   -12228.423    12229.867    338.23776    41.305021 
140984000    247.01427    526.03198     419.4225   -12233.084    12249.174    106.60948    41.351019 
140988000    255.25215    376.13377    653.31542   -12258.834    12270.056   -277.18165    41.409447 
140992000      276.249    342.58597    540.68628   -12258.116    12281.321   -198.10031    41.370805 
140996000    271.51258    420.87642    152.28882   -12254.347    12278.917    268.58759    41.382617 
141000000    308.07097     215.6741    197.71183   -12268.997    12266.841    17.962274    41.440917 
141004000    290.19023    364.62634    500.00897   -12276.054    12292.035   -135.38263    41.461505 
141008000    289.81749    276.64233    737.95436   -12300.219    12311.916   -461.31203    41.469413 
141012000    253.92683    485.39385    290.03844   -12311.526    12325.292    195.35541    41.491407 
141016000    289.73274    402.63949    574.94904    -12322.76    12334.139   -172.30955    41.496753 
141020000    304.50746    260.16004    527.15491   -12331.379    12341.321   -266.99486    41.532593 
141024000    291.35713     540.1037    422.87724   -12335.531    12345.865    117.22646    41.608375 
141028000    300.04534    634.31337    341.84449   -12335.835    12359.682    292.46888    41.617661 
141032000    255.72994     507.4598    364.35351   -12358.213     12381.84    143.10629    41.632259 
141036000    306.55225    140.20691    754.95336   -12373.543    12374.894   -614.74645      41.5769 
141040000    263.45311    551.80535    171.53145   -12366.429    12385.255     380.2739    41.629746 
141044000    295.04095    550.67365    463.93805   -12381.256    12390.168    86.735598    41.719696 
141048000    273.48424    472.12046    776.52447   -12397.876    12411.402   -304.40402    41.784512 
141052000    283.69158     365.0964    444.30818   -12404.232    12426.305   -79.211776    41.756338 
141056000    253.90983    240.58399    659.93978   -12411.319    12437.313   -419.35579     41.81653 
141060000    303.84508    135.36557    466.67376   -12437.502    12442.135    -331.3082    41.815222 
141064000     219.9294    252.93894    270.79772   -12448.702    12482.055   -17.858788    41.852794 
141068000    261.45707    846.47337    486.44176   -12466.147    12500.724    360.03161    41.820138 
141072000    284.38126    229.41239    393.18006    -12489.94    12503.296   -163.76767    41.791547 
141076000    240.51061    572.09496    406.64958   -12484.661    12501.073    165.44538    41.756328 
141080000    279.24786    190.61241     275.1535   -12487.374    12515.702   -84.541094    41.756825 
141084000    269.98119    404.38937     131.3035    -12509.97    12534.138    273.08587    41.777631 
141088000    284.08257      417.948    320.87894   -12532.047    12548.141    97.069055    41.853203 
141092000    247.26748    209.44404    276.57296   -12537.707    12555.884   -67.128929    41.798698 
141096000    310.05094    424.34446    607.88925   -12545.342    12543.824   -183.54479    41.827591 
141100000    339.42322    191.19567    518.37842   -12556.254    12560.222   -327.18276    41.847128 
141104000    291.45957    220.67845    378.32349   -12568.242    12580.185   -157.64504    41.864426 
141108000     293.3127    366.93791    759.03549   -12594.605    12604.344   -392.09758    41.885982 
141112000    262.06453    292.60686    445.92161   -12601.358    12632.177   -153.31474    41.872183 
141116000    295.42141    832.74233    366.01158   -12635.247    12641.704    466.73075    41.905551 
141120000    246.04156    472.08961     232.6265   -12654.529    12673.423    239.46311    41.930565 
141124000    276.34036      870.783    393.07833   -12687.499    12699.009    477.70467    41.896626 
141128000    295.66339    981.94239    249.24912   -12692.047    12702.845    732.69327    41.860192 
141132000    280.64544    567.05691     687.3527   -12673.703    12701.039   -120.29579    41.886518 
141136000    275.80924    562.49139     246.0294   -12676.556    12681.565    316.46199    41.909864 
141140000    295.14135    945.70551    381.26892   -12685.385     12700.35    564.43659    41.895331 
141144000    295.70416    380.96111    166.07251   -12695.117     12702.53    214.88861    41.889251 
141148000    299.76686    314.58037    792.18077   -12686.121    12716.396    -477.6004    41.957291 
141152000     296.5167    702.46564    515.52257   -12705.596    12714.642    186.94307    41.939963 
141156000    286.34253     608.7233    143.96754   -12723.772    12741.835    464.75575    41.946374 
141160000    280.61355    328.18433    455.42458   -12714.415    12734.835   -127.24025    41.919665 
141164000    314.91665    559.26482    187.81685   -12727.665    12738.355    371.44797    41.910777 
141168000    248.01842    561.96295    571.26753   -12717.815    12748.189    -9.304575    41.943979 
141172000    259.77238    284.25397    213.91446   -12732.115    12738.142    70.339512    41.908972 
141176000    277.77126    463.85686    632.41401   -12756.668    12761.557   -168.55715    41.942447 
141180000    322.36964    953.12247    394.60704   -12774.015    12775.125    558.51543    41.925433 
141184000    318.98546    475.06607     299.8315   -12781.688    12785.978    175.23457    41.898837 
141188000    264.20326    423.44388    153.92196    -12788.36     12794.49    269.52193    41.885147 
141192000    299.38308    672.27797       221.67   -12806.813    12820.368    450.60797    42.002136 
141196000    351.80991    589.31613    479.72344   -12828.291    12817.183    109.59269     41.98384 
141200000    252.47935    673.38915    435.44157   -12848.949     12864.76    237.94758    41.935099 
141204000    275.18185    553.88034    561.43271   -12855.998    12869.189   -7.5523759    41.852535 
141208000    263.24395    379.18725    283.09326   -12858.533    12876.341    96.093984     41.83896 
141212000    327.65969    420.67203    719.53867   -12865.931    12866.003   -298.86664     41.77713 
141216000    315.60391    88.782916     560.7285   -12873.254    12885.157   -471.94558    41.773504 
141220000     263.3058    506.75431    191.35253   -12895.463    12905.461    315.40178    41.856267 
141224000    260.43972    693.91409    522.23117   -12892.915    12921.722    171.68292    41.860565 
141228000    277.70312    649.75771    546.97678   -12905.336     12926.57    102.78092    41.844013 
141232000    279.23495    162.66938    499.58615   -12910.368    12928.732   -336.91676    41.790071 
141236000    277.16999    1029.4398    294.51611   -12919.179    12928.201    734.92364    41.737416 
141240000    257.02319    454.50124    416.89251   -12923.368    12942.281    37.608738    41.720586 
141244000    279.22745     665.3827    343.18727   -12927.946    12939.933    322.19543    41.748722 
141248000    271.63521    438.55614    443.15971   -12943.658    12955.894   -4.6035668    41.752919 
141252000    264.87669    225.70767    646.63435    -12951.08    12969.311   -420.92668    41.800192 
141256000    263.11306    410.29864    683.02383   -12965.892    12976.811   -272.72519    41.722556 
141260000    299.35362    758.74101    214.58641   -12983.382    12982.183     544.1546    41.829985 
141264000     298.8985    282.40134    656.21598   -12971.283    12992.685   -373.81464    41.840938 
141268000    282.00013    661.10972     544.1046   -12984.561    12998.969    117.00512    41.832297 
141272000    290.38746     642.2137    416.16107   -12995.256    12995.295    226.05263    41.857023 
141276000    268.12056    480.27338    862.99275    -12987.49    13011.327   -382.71938    41.854751 
141280000      231.966    165.94519    691.89429   -12993.371    13029.171    -525.9491     41.87786 
141284000    247.31882    582.29871    360.63468   -13012.937    13029.007    221.66403    41.894539 
141288000    227.61636    513.98071    117.45917   -13003.666    13042.661    396.52154    41.926404 
141292000    262.01228    456.99004    217.50939   -13047.619     13047.51    239.48065     41.90902 
141296000    307.66692    252.44724    656.24896   -13032.268    13039.527   -403.80172    41.935511 
141300000    251.68717    662.53476    119.88302   -13031.948    13061.458    542.65174    42.035152 
141304000    315.56901    441.03685    713.68221   -13050.462    13052.341   -272.64536    42.071415 
141308000    263.37215    158.01009     389.0094   -13038.947    13064.229   -230.99931    42.028461 
141312000    298.98033    767.14453    651.80021   -13063.069    13075.338    115.34432    42.062395 
141316000    299.37422    625.90483    598.81867   -13063.643    13084.229    27.086161    42.080473 
141320000    253.28321    267.28659    251.63938   -13084.513    13106.416    15.647206    42.055002 
141324000    295.64944    539.60944     575.5077   -13105.107    13110.615   -35.898254    41.990971 
141328000    288.87345    470.10963    348.22019    -13121.32    13136.331    121.88944    41.939143 
141332000    298.78338    307.63481    308.25732   -13130.063    13134.262  -0.62250658    41.943109 
141336000    298.79107    442.26306    352.41255   -13159.728     13173.62    89.850506    41.971805 
141340000    335.05101    522.57917    441.83635   -13179.987    13165.915    80.742819    41.982195 
141344000    295.52713    711.02981    508.71495   -13165.407    13180.013    202.31486    41.974886 
141348000    331.92799    707.75001    248.97461   -13164.302    13160.976     458.7754      41.8667 
141352000    263.27507    367.84936     262.6728   -13154.638    13170.897    105.17655    41.855991 
141356000    307.76359    411.96788    857.45814   -13164.274    13165.789   -445.49027    41.820744 
141360000    302.71884    388.00862    514.62796   -13171.392    13170.709   -126.61934    41.783347 
141364000    346.72859    807.73888    483.03061   -13161.319    13168.704    324.70828    41.825618 
141368000    287.75845    336.06406    352.04069   -13149.087    13163.648   -15.976637    41.781275 
141372000    250.24778    587.48074    524.80715   -13151.485    13179.986    62.673592    41.779929 
141376000    273.43109    361.50386    195.77873   -13172.671    13191.616    165.72514    41.792512 
141380000    307.41636    710.17213    317.84136   -13172.347    13185.441    392.33077    41.781409 
141384000     288.5446     346.3082    452.53915   -13179.453    13199.579   -106.23095    41.793793 
141388000    284.06451    369.64599    607.00022    -13201.91    13203.724   -237.35424    41.761748 
141392000    259.66039    258.13997    679.73631   -13200.311    13199.405   -421.59634     41.70194 
141396000    264.46043    484.11679    356.34957   -13194.774    13208.485    127.76722    41.706671 
141400000    282.28153    460.19292    198.89087   -13210.741    13221.615    261.30206    41.714994 
141404000    271.81933    972.88272    410.47114   -13235.818    13242.378    562.41158    41.743404 
141408000    255.92628    340.62667    353.96538   -13242.199    13264.466   -13.338707    41.802133 
141412000    275.64449    335.88505    418.16689   -13267.699    13282.988   -82.281842    41.839015 
141416000    302.69789     733.0907    138.27926    -13295.83    13303.567    594.81144     41.88136 
141420000     267.7007    336.61447    241.16311   -13301.022    13325.907    95.451357    41.831602 
141424000    246.89667    188.20455    179.43823   -13316.151    13343.394    8.7663157    41.832472 
141428000    318.51676    663.20037    305.68747   -13340.002    13345.359     357.5129    41.778411 
141432000    271.58291    551.21403    377.19776   -13354.042    13364.087    174.01628    41.767952 
141436000    270.13702    417.75027    96.309146   -13362.282    13377.276    321.44112    41.801999 
141440000    289.86999    738.61423    321.20827   -13364.379    13376.095    417.40596     41.83099 
141444000    258.75647    551.35379    494.94678     -13376.4    13378.535    56.407009    41.837053 
141448000    287.37112    490.50137    482.73681   -13378.855    13390.162    7.7645654    41.784531 
141452000    266.57457    709.14276    204.39567   -13388.201    13401.565    504.74709     41.79865 
141456000    301.71452    713.99537    621.87849   -13395.373    13409.138     92.11688    41.845207 
141460000    281.72398    430.49272    232.34314    -13423.55    13428.272    198.14958    41.883587 
141464000    312.33165    552.53008    539.40801   -13438.914    13451.333    13.122074     41.89419 
141468000    295.07792    388.07595    129.61716   -13456.039    13469.982    258.45879    41.904039 
141472000     254.6167    419.26799    503.89469   -13460.236    13490.096   -84.626698    41.872555 
141476000    296.90824    329.67202    584.24815   -13466.317    13476.618   -254.57612    41.890558 
141480000    207.50786    360.45394     324.9068   -13459.959    13498.091    35.547142    41.907877 
141484000    288.73465    186.33372    430.93285   -13482.436    13502.794   -244.59913    41.905462 
141488000    269.86587    438.02738    421.06866   -13499.038    13514.353    16.958723    41.965826 
141492000    267.92758    484.07123    333.65034   -13501.361    13522.836    150.42089    41.971142 
141496000    257.47144    478.38838    323.03199   -13503.395    13530.527    155.35638    41.967897 
141500000     283.4926    377.74138    469.71877   -13522.434    13542.541   -91.977393    41.964411 
141504000    300.36543    439.55537    274.84756   -13531.719    13546.908     164.7078    41.950759 
141508000    287.75852     919.8861    278.89388   -13542.322    13561.785    640.99222    41.945012 
141512000    294.83088    670.12139    316.43341   -13537.947    13553.321    353.68797    41.928123 
141516000    276.20627    428.77009    203.02912   -13545.334     13556.61    225.74097    41.926552 
141520000    250.77443    423.18826    340.53324    -13558.94    13568.057     82.65502    41.929642 
141524000    258.42789    659.61287    390.73689   -13550.877    13574.593    268.87598    41.922653 
141528000    275.09789    194.29602    726.07939   -13552.662     13566.22   -531.78337    41.937739 
141532000    273.93017     554.5642    344.62602   -13557.561    13579.043    209.93818    41.976611 
141536000    310.68355    651.27943    390.56371   -13556.388    13573.088    260.71572    41.969827 
141540000    300.54075    353.16833     580.2883   -13557.102    13571.742   -227.11997    41.998637 
141544000    256.41253    480.65913    355.93864   -13558.516    13578.124    124.72049    41.989489 
141548000    255.87425    162.09752      264.417   -13577.005    13601.844   -102.31949    41.938928 
141552000    279.96574    267.65302    201.08473   -13604.616    13614.158    66.568288    41.931194 
141556000    282.97615    323.58392    481.98943   -13605.233    13622.215   -158.40551    41.868358 
141560000    277.69973    802.07418    321.10743   -13614.664    13624.589    480.96675    41.872612 
141564000    302.75781    181.67573    341.91953    -13626.16    13644.921    -160.2438    41.909512 
141568000    271.22561    290.55841    439.73383   -13635.642    13647.341   -149.17542    41.929543 
141572000    305.26568     908.2585    393.97302   -13632.334    13649.177    514.28549      41.9384 
141576000    295.47122    329.04614    161.07373   -13623.303    13635.256    167.97241    41.895364 
141580000    305.01164    509.93866    430.94122   -13636.772    13639.661    78.997448    41.911585 
141584000      269.392    431.77098    453.80637   -13645.293    13650.349    -22.03539    41.920152 
141588000    293.25995    255.12473    607.51531   -13673.783    13672.387   -352.39057      41.8787 
141592000    270.00413    591.71723     268.4748   -13671.021    13690.004    323.24243    41.856963 
141596000    297.70345    553.72317    316.35098   -13695.285    13705.036    237.37219    41.843804 
141600000    290.16782    679.03461    235.29976   -13710.303     13724.19    443.73485    41.837618 
141604000    347.53412    498.26746    440.36947   -13718.423    13710.348     57.89799    41.860786 
141608000    316.41239    475.99487    419.32604   -13725.584    13735.192    56.668833    41.812386 
141612000    309.81543    587.68428    209.80808   -13744.768    13736.732     377.8762    41.915677 
141616000     265.3119    682.70473    332.94406   -13753.881    13757.924    349.76067    41.908588 
141620000    314.09208    387.92102    611.17605   -13753.437    13754.466   -223.25503    41.904146 
141624000    268.59697    303.63918    615.57966   -13762.631    13774.791   -311.94049    41.910927 
141628000    281.97815    280.64802    463.85978    -13799.77    13802.385   -183.21176    41.939318 
141632000    262.56411    285.84488     105.2077   -13794.943     13816.55    180.63717    41.881865 
141636000    286.87846    117.23597    357.23119   -13807.172    13815.706   -239.99522    41.885948 
141640000    278.31556     1165.396    565.72264   -13816.427    13839.271    599.67335     41.79776 
141644000    285.10887    143.13102     185.9647   -13822.432    13833.796   -42.833681    41.762075 
141648000    291.20678     813.3667    355.72004   -13840.456    13841.655    457.64666    41.787823 
141652000    296.96884    217.66278    320.63411   -13845.764    13856.499   -102.97133    41.834903 
141656000    307.12369    182.18974    699.04049   -13855.855    13850.058   -516.85075    41.823284 
141660000    298.02493    982.98385     204.3311   -13868.899    13874.802    778.65276    41.839278 
141664000    275.94661    383.08551    478.01175     -13877.3    13887.582   -94.926237    41.877819 
141668000    285.15656     455.2183    335.27577   -13869.102    13885.256    119.94253    41.887722 
141672000    256.26403    374.55344     248.5956   -13863.473    13887.064    125.95784    41.937881 
141676000    298.69832    261.33146    721.00687   -13883.299     13894.22   -459.67541    41.977714 
141680000    302.41858    748.08966    556.72392   -13893.213    13912.698    191.36574    41.982094 
141684000    315.58119    472.26314    442.82444   -13911.478    13918.913    29.438703    41.988467 
141688000    266.10623    204.50109    291.02798   -13910.624    13928.684   -86.526888    41.972701 
141692000    301.29833    682.11954    478.16349   -13917.486    13926.324    203.95605    41.970034 
141696000    284.21039    378.18818    494.97925   -13934.981    13953.583   -116.79107    41.970131 
141700000    296.41193    633.97795    234.27408   -13949.996    13967.087    399.70387    41.953701 
141704000     337.8296    506.06751    746.41671   -13962.457    13969.648    -240.3492    41.981917 
141708000    308.02537    458.89679    655.81107   -13969.488    13977.805   -196.91428    41.979716 
141712000    284.40884    214.99736    288.74623   -13961.709    13980.177   -73.748869     41.98831 
141716000    261.68854    918.97133    269.76777   -13995.918     14000.21    649.20356    42.044139 
141720000    313.46383    369.67192    316.28373   -14007.588    14015.976    53.388188    42.039298 
141724000    264.48012    575.41524    479.83513    -14031.51    14050.088    95.580103    42.015691 
141728000    304.81546    682.76321    605.74066   -14051.459    14058.989    77.022555    42.029087 
141732000    316.55352    447.90751    758.02489   -14058.683     14056.57   -310.11738     41.95765 
141736000     273.8384    335.81882    227.60845   -14051.447    14071.229    108.21037    41.938729 
141740000    279.21964    402.30923      565.717   -14074.204    14093.284   -163.40778     41.96152 
141744000     311.3446    975.65673    677.76208   -14086.145    14087.802    297.89465    42.027084 
141748000    256.97127       378.85    375.04622   -14070.001    14093.053    3.8037803    42.040769 
141752000    267.07045    417.84656    473.32057   -14076.738    14095.997   -55.474005    42.068888 
141756000     251.6775    223.05637    217.93125   -14072.488    14096.077    5.1251179    42.085525 
141760000    335.95643    1112.1461    349.36572   -14102.103    14097.993    762.78035    42.118789 
141764000    291.28919    583.00199    872.81091   -14096.757    14119.094   -289.80892     42.11977 
141768000    294.77082    475.19165    197.53065    -14128.82    14133.148      277.661    42.135873 
141772000     261.4902    579.71693    385.94325   -14140.501    14155.692    193.77368    42.173717 
141776000    281.95606    689.08896    317.32297    -14159.29     14169.24    371.76599    42.159786 
141780000     278.5316    210.70462      157.798   -14141.234      14163.2     52.90662    42.175583 
141784000    279.36718    432.17169    259.46534   -14154.481    14185.559    172.70634    42.151327 
141788000    261.17929    699.38183    243.76913   -14165.312    14182.564     455.6127    42.085996 
141792000    258.10499    296.38358     250.6277   -14179.352    14202.121    45.755878    42.059876 
141796000    278.09493    457.65288    428.36338   -14211.581    14223.647    29.289504    42.066393 
141800000     313.6577    515.81123    451.37155   -14242.794    14242.868    64.439687    42.032164 
141804000    298.94919    386.72391     287.0774   -14252.883    14256.838    99.646509    42.018249 
141808000    328.92618    474.06887    610.30589   -14255.333    14250.756   -136.23702    42.029793 
141812000    308.99225    271.97695    403.34829   -14268.183    14270.296   -131.37134    41.996329 
141816000    295.34214    433.72265    411.83476   -14265.732    14273.818    21.887888    42.008058 
141820000    274.81763    767.68837    746.66784   -14269.032    14283.858     21.02053    41.997365 
141824000    298.48315    271.02769    114.07717   -14299.734     14306.23    156.95052    41.984475 
141828000    264.27074    349.71346    272.00415   -14312.171    14319.012    77.709313    42.046309 
141832000     248.9177    312.31943    349.94819   -14305.751    14336.538   -37.628763    42.011961 
141836000    273.54192    601.40463    315.93138   -14318.722     14338.66    285.47325    42.070675 
141840000    264.98487    586.88035    387.31586   -14339.007    14359.536    199.56449    42.046029 
141844000    286.42136    353.79191    346.74897   -14339.335    14360.639     7.042934    42.000702 
141848000    277.65948    732.62095    488.12664    -14332.94    14358.605     244.4943    42.071803 
141852000     307.3883    1130.0881    410.50506   -14356.114    14371.363    719.58302    42.122735 
141856000    318.20912     431.3641    350.09509   -14397.415     14388.51    81.269008    42.124587 
141860000    319.76173    701.86054    805.79233   -14421.187    14418.864   -103.93179    42.119833 
141864000    256.25127    171.95628    841.82182   -14428.852    14452.467   -669.86554    42.119359 
141868000    282.16281     603.7735    542.19424   -14445.694    14463.303    61.579258    42.098507 
141872000    296.93259     489.4151    795.47938   -14462.814    14462.017   -306.06427    42.084577 
141876000    279.27276    569.29905    155.27991    -14465.96    14485.111    414.01914    42.085978 
141880000    318.70423    341.53243     361.9219    -14486.33    14487.105   -20.389474    42.063251 
141884000    276.51022    952.18325    554.02053   -14497.729    14513.638    398.16271    42.091033 
141888000    286.10468    286.04488    805.23293   -14506.879    14521.135   -519.18805    42.087755 
141892000    300.29867    241.69542    700.70692    -14521.34    14524.214    -459.0115    42.064004 
141896000     252.0008    117.47432    701.41212   -14531.644    14551.759    -583.9378    42.079984 
141900000    244.27459    204.07429    225.21806   -14548.241    14576.131   -21.143768    42.084239 
141904000    256.88642    670.79959    286.83025   -14549.496    14566.101    383.96934    42.075473 
141908000    231.15183    168.29246    193.95441   -14541.718    14578.735   -25.661955    42.080195 
141912000    279.56448    231.17598    287.97717   -14546.709    14561.821   -56.801186    42.075905 
141916000     318.5123    757.38496    293.41795   -14571.983    14568.771    463.96701     42.02169 
141920000    321.82424    819.67686    304.00705   -14577.807    14570.853    515.66982    42.054171 
141924000    285.70128    331.71099    240.89054   -14576.243    14588.078    90.820448     42.04524 
141928000    309.84923    778.31499    616.63066   -14590.508      14600.8    161.68433    42.045433 
141932000    265.23997     371.5037    698.68562   -14589.941    14612.674   -327.18193    42.011754 
141936000    303.13167    1472.2353    368.25603   -14616.547    14626.787    1103.9793    42.004777 
141940000     292.7285    812.26344    787.88726   -14620.768    14626.138    24.376184    42.056294 
141944000    243.83781    423.49817    306.77043   -14625.124    14653.303    116.72774    42.101258 
141948000     281.2149    426.65091    114.96287   -14648.676    14653.331    311.68805    42.169063 
141952000    329.70631    285.95789    490.00057   -14663.631    14666.915   -204.04268    42.175428 
141956000    277.18074    332.25352    859.42832   -14650.828    14677.558    -527.1748      42.1492 
141960000    273.26784    526.02191    220.49424   -14641.663    14651.299    305.52767    42.154255 
141964000    258.72581    416.14965    537.32278   -14643.582    14673.266   -121.17313    42.170585 
141968000     251.1921    433.02717    279.71672   -14669.675    14696.529    153.31045    42.140631 
141972000    261.33143    781.66264    570.78532   -14695.291    14705.366    210.87733    42.142254 
141976000    311.07945     521.6692    426.45676   -14681.009    14693.087    95.212439    42.101534 
141980000    266.44149    554.09986     587.1727   -14675.678    14695.715   -33.072834    42.080998 
141984000    301.92358    537.65361    497.45068   -14690.616    14694.203    40.202932    42.166886 
141988000    281.85038    265.85678    341.74732   -14695.561    14700.389   -75.890541    42.154281 
141992000    278.19604    372.97362    77.397208   -14708.486     14706.24    295.57642    42.155737 
141996000     336.7296     267.5153    335.54895   -14703.047    14695.243    -68.03365    42.145202 
142000000    329.12526    346.31901    331.66764   -14703.731    14701.342    14.651361    42.186436 
142004000    251.89801    317.78408    279.51373   -14706.786    14732.867    38.270349     42.10754 
142008000    288.82043    388.49478    429.57032    -14711.42    14730.079   -41.075548    42.083611 
142012000    248.90382    563.36878    393.32815   -14709.214    14736.669    170.04063    42.080089 
142016000    288.82753    303.78674    729.19157   -14719.817    14736.227   -425.40483    42.110074 
142020000     278.0832    280.48167    355.25313   -14720.115    14737.422   -74.771463    42.036144 
142024000    258.01675    256.78203    438.03766   -14723.285    14744.996   -181.25564    42.058148 
142028000    312.96051     169.1244    269.84907   -14755.345    14755.958   -100.72467    42.037059 
142032000    284.34822    519.28598    424.99505   -14770.527    14793.044     94.29093    42.039628 
142036000    272.65483    315.65838    455.51649   -14779.928    14801.893   -139.85811    42.057185 
142040000    242.68691    350.56499    195.05307    -14798.15    14819.894    155.51191    42.032691 
142044000    288.28882    289.22395    311.65968   -14814.123    14824.948   -22.435733    42.079789 
142048000     254.0106    136.36186    489.38135   -14810.025     14839.23   -353.01949     42.10824 
142052000    319.97115    596.47718     524.3864   -14825.444    14830.139    72.090781     42.08722 
142056000    339.50884    627.95557    350.06209   -14824.373    14813.453    277.89348    42.079649 
142060000    282.00569    407.84568    365.95851   -14838.503    14846.251    41.887173    42.074516 
142064000    326.68077    614.09545    295.62084   -14853.391    14856.522    318.47462    42.093695 
142068000    264.67352     251.6462    514.77723   -14853.652     14874.53   -263.13103    42.054969 
142072000     289.9147    251.12351    552.49008   -14852.065    14873.102   -301.36657    42.048883 
142076000     261.6965    130.45482    423.40099   -14863.392    14890.311   -292.94617     42.05056 
142080000    299.96084    736.33847    442.68623   -14885.085    14891.379    293.65224    42.061218 
142084000    255.80371    307.75339    572.35115   -14890.852    14912.752   -264.59776    41.973989 
142088000    295.39364       644.63    443.46899    -14889.78     14897.63    201.16101    41.961943 
142092000    314.45869       748.46    562.19275     -14908.8    14917.569    186.26726    41.965444 
142096000    247.01764    531.71723     455.6674   -14916.751    14934.808    76.049838    41.961816 
142100000    293.15434    279.57711    311.28783   -14917.012    14929.373   -31.710719    41.947033 
142104000    264.56012    299.44601    115.51251   -14921.619    14938.927     183.9335     41.96273 
142108000    287.86348    619.73658    446.20573   -14922.971    14933.226    173.53085    41.911772 
142112000    309.58992    303.87496    516.89517   -14941.568    14949.102   -213.02021    41.890614 
142116000    290.60705    763.42676    366.19742   -14959.756    14963.254    397.22935    41.903248 
142120000    310.54315    491.78058    369.50789   -14984.892    14981.379    122.27269    41.877915 
142124000    255.28017    282.61033    418.29953   -14993.917    15011.422   -135.68919    41.881239 
142128000    306.26728    489.95923    250.34411    -15019.61    15029.571    239.61512    41.887373 
142132000     318.6599    239.89298    596.34866   -15019.426    15023.517   -356.45568    41.889626 
142136000    287.34414    604.10356    481.90809   -15025.319    15032.985    122.19547    41.898379 
142140000    290.21046    293.76625    421.79418   -15011.951     15029.52   -128.02793    41.905916 
142144000    324.70748    469.16553    513.78232   -15019.674    15021.009   -44.616789    41.948969 
142148000    293.05105     856.1245    484.71751   -15022.135    15030.569    371.40698    41.909996 
142152000    247.77572    453.54761    344.08585   -15011.005    15033.833    109.46175    41.926136 
142156000    355.83717    959.78175    346.58406   -15038.251    15034.577    613.19769     41.99686 
142160000    257.73136    386.04996     150.9384   -15023.902    15034.877    235.11157    41.972316 
142164000    311.15725    468.90588    523.00287   -15041.668     15042.34   -54.096986    41.983991 
142168000    302.46658    224.37096    341.78005   -15048.957     15046.91   -117.40909    42.005096 
142172000    270.22628    402.22868    823.17544   -15034.433    15052.342   -420.94676    42.009413 
142176000    307.17114    776.81921    150.66464   -15060.849     15061.59    626.15457    42.015184 
142180000    321.46256    343.97997    607.18676   -15065.689    15068.941   -263.20679     42.07925 
142184000    334.19449    413.16863    246.14571   -15084.579    15090.927    167.02292    42.117531 
142188000    324.13215    1093.1622    604.93029   -15097.365    15108.682    488.23187    42.161327 
142192000    329.87756    366.31798    418.76493   -15111.935    15115.517   -52.446949    42.153799 
142196000    259.31752     695.9711    244.52193    -15112.08    15126.726    451.44916     42.14233 
142200000    265.42625    168.16745    106.45801   -15126.076    15150.604    61.709444    42.109926 
142204000    296.92577     228.1462    895.99774   -15140.577    15158.367   -667.85154    42.140856 
142208000    270.45887    336.02006     478.2695   -15160.658    15173.221   -142.24944    42.128602 
142212000    282.01597    560.89337    239.50055   -15173.279    15191.974    321.39282    42.158202 
142216000    301.19749    199.69428    324.66289   -15184.816    15182.409    -124.9686    42.185962 
142220000    274.17501    516.35775    257.52642   -15180.785    15196.764    258.83133    42.183836 
142224000    319.09343     570.1327    121.71811   -15198.836    15200.365    448.41459    42.166996 
142228000     312.5299    765.73033    348.59943   -15203.215    15208.442     417.1309    42.163474 
142232000     279.6148    514.66144    470.20807   -15218.471    15236.448    44.453363    42.169619 
142236000    283.97004     354.7156    325.48134   -15226.172    15245.622     29.23426    42.235012 
142240000    272.89653    580.24076    330.15748   -15254.476    15264.749    250.08328    42.183972 
142244000    299.43803    337.71507     598.2423   -15258.393    15263.815   -260.52723    42.169643 
142248000    280.68554    746.10378    566.95202   -15267.173    15268.156    179.15176    42.202529 
142252000    277.20717    524.92365    428.72039   -15269.925    15277.217    96.203258    42.200154 
142256000    280.42788    368.20498    477.86423    -15261.89    15284.052   -109.65925    42.173661 
142260000    252.94693    246.19579    563.61705   -15263.376    15286.861   -317.42126    42.191017 
142264000    303.61968    868.32271    222.72144   -15283.806    15291.341    645.60128    42.168423 
142268000    306.97214    270.17909    651.84564   -15292.539    15314.654   -381.66655    42.164966 
142272000     266.7068    281.05609    305.10111   -15304.112    15324.869    -24.04502    42.192738 
142276000    271.24628     532.7725    647.20858   -15318.059    15324.143   -114.43608    42.167395 
142280000    306.77426    616.48917     76.90443   -15315.605    15330.856    539.58474    42.191437 
142284000     291.9237    400.84955    434.13754   -15317.351    15324.589   -33.287988    42.217929 
142288000     268.7089    834.22222      559.193   -15343.574    15355.685    275.02922    42.210129 
142292000    289.44452    291.47159    679.26792   -15337.676    15358.129   -387.79633    42.199142 
142296000    256.34837    466.56751    163.21837   -15353.677     15373.25    303.34914    42.247547 
142300000    235.07905    324.91824    278.52998   -15369.386    15394.204    46.388258    42.244468 
142304000     322.8842    408.21886    373.85611   -15391.207    15394.514    34.362757    42.255009 
142308000    247.06832    675.41437    383.36431   -15380.184    15401.093    292.05006    42.221612 
142312000    262.67188    122.64463     202.4859   -15380.318    15412.996   -79.841268    42.234181 
142316000    272.55855    269.16289    513.75663   -15390.402    15414.465   -244.59374    42.253142 
142320000    305.92786    953.40878    489.07588   -15390.232    15404.465    464.33289    42.258284 
142324000    279.76818    389.80358    291.47632   -15385.483    15402.674    98.327261    42.262674 
142328000    286.17575     269.7631    828.91083   -15398.478     15420.42   -559.14773    42.240297 
142332000    280.48278    243.33929    228.20581   -15409.835    15427.269    15.133485    42.280279 
142336000    293.50723    228.21507    543.83485   -15426.478    15436.301   -315.61978     42.29651 
142340000    288.50205    356.21699    712.62066   -15430.625    15443.658   -356.40367    42.311558 
142344000    302.47501    1009.6114    579.69612   -15446.447    15459.532    429.91525    42.360125 
142348000    307.35884    565.23747    537.02796   -15468.575    15486.946    28.209508    42.359025 
142352000    324.67737    283.93673    538.14772   -15480.249    15480.671   -254.21099    42.336895 
142356000    303.27438     302.8324    330.29546   -15480.211    15491.063   -27.463059    42.321031 
142360000    272.07615    215.11781    569.06287   -15480.908    15504.916   -353.94505    42.282801 
142364000    296.01062    343.11497    247.07515   -15511.628    15510.749     96.03982    42.331919 
142368000    281.27298    223.63733    357.62098   -15509.247    15534.299   -133.98365     42.33195 
142372000    258.86987    644.48335      357.527   -15525.495    15545.646    286.95636    42.335566 
142376000    259.66234    376.88443    921.71344   -15540.689      15564.5   -544.82901    42.279013 
142380000    308.79065    432.02014    158.27479   -15562.352    15576.699    273.74535    42.243208 
142384000    310.39185    1332.4667     463.9076   -15569.496    15584.343    868.55915    42.294477 
142388000    270.97252    244.16499    157.04834   -15567.102    15579.675    87.116643    42.317898 
142392000    288.11715     349.0524    407.62767    -15584.66    15588.109   -58.575265     42.34562 
142396000    290.01128    404.57423    427.42722   -15601.386    15601.673   -22.852996    42.363687 
142400000    248.63988    346.40652    508.72228    -15614.92    15633.394   -162.31576    42.313709 
142404000    273.14193    327.77118    785.46772   -15621.468    15647.852   -457.69654    42.272552 
142408000    320.37374    498.18577    248.25418   -15649.766    15661.028    249.93158    42.292733 
142412000    309.02664    311.98214    606.55689   -15682.454    15694.497   -294.57475    42.258001 
142416000    271.29385    640.22472    367.37035   -15701.876    15717.533    272.85438    42.313402 
142420000    334.18084    484.71368    342.25747   -15729.122     15726.14    142.45621    42.272611 
142424000    268.53495    446.26709     494.8187   -15716.305    15736.884   -48.551608    42.299199 
142428000    308.07974    386.63303    299.82129   -15726.437    15732.573    86.811741    42.304987 
142432000     283.6492    201.30745    1088.1899   -15715.346    15732.913   -886.88247    42.307318 
142436000    260.35992    338.36438     213.9612   -15728.364    15748.463    124.40318    42.261701 
142440000    287.59294    911.19868    524.74761   -15744.286    15749.856    386.45107    42.285453 
142444000    273.81352    367.24868    597.80455   -15756.262     15763.92   -230.55587    42.252478 
142448000    291.60998    588.35041    404.89601   -15775.105    15779.645    183.45441    42.285455 
142452000    286.90171     156.2827     292.5135   -15775.269    15773.896    -136.2308    42.248614 
142456000    256.55307    527.80997     263.7911   -15800.434    15813.214    264.01886    42.219064 
142460000    281.20727    163.68441     222.2663   -15818.486    15831.682   -58.581893      42.2337 
142464000    258.86404    428.08462    609.98215   -15824.983    15845.067   -181.89753    42.195642 
142468000    301.69788    414.57347    430.11806   -15840.178    15859.344   -15.544587    42.188765 
142472000    258.78723    449.66725    420.80598   -15864.704    15875.054    28.861267    42.204122 
142476000    285.28672    439.87025    437.95455   -15881.021    15899.541    1.9156987    42.181518 
142480000    252.28134    60.546362    492.64959   -15870.214    15897.802   -432.10323    42.131237 
142484000    313.33979    582.81157    411.47535   -15903.058    15908.258    171.33622    42.166791 
142488000    329.70805    485.69955    338.75162   -15911.328    15906.831    146.94793    42.189114 
142492000    286.59935    297.91427    532.03199   -15922.458    15933.141   -234.11772    42.161795 
142496000    283.73178    443.31126     296.2372   -15918.973    15940.681    147.07406    42.168174 
142500000    278.97626    721.04153    157.18404   -15926.278    15950.874    563.85749     42.25095 
142504000    258.36974    526.63743    449.45567   -15943.765    15968.713    77.181756    42.235266 
142508000     275.5675    507.29188    201.87937   -15953.448    15980.663     305.4125    42.263464 
142512000    257.17907    183.19121     263.1715   -15958.454     15975.69   -79.980286    42.235968 
142516000    259.28822    278.41732    312.25654   -15952.908    15969.418   -33.839216    42.272316 
142520000     310.9444    306.75261    350.23703   -15955.477    15965.047   -43.484423    42.273658 
142524000    314.90899    353.95421    414.43016   -15980.547    15987.084   -60.475945    42.324041 
142528000    265.70653    327.16194    124.46479   -15980.859    15986.701    202.69715    42.331528 
142532000     296.5101    638.30784    800.72411    -15982.87    15991.325   -162.41627    42.296419 
142536000    273.50328    378.64078    268.69121   -16002.532    16009.295    109.94957    42.291328 
142540000    272.88656    265.03676    575.83932   -16006.523    16012.896   -310.80256    42.278097 
142544000    308.37546    857.66722    272.94226   -16018.998    16031.459    584.72496    42.356686 
142548000    285.52267    471.11212    823.04373   -16022.358    16036.808   -351.93161    42.391146 
142552000     298.3445    338.39547    599.76053   -16020.889    16030.607   -261.36506    42.377301 
142556000    235.68263    488.90509    386.26698   -16020.718    16036.414    102.63811    42.405527 
142560000    272.07214    61.175452    591.34381   -16032.683    16050.434   -530.16836    42.444805 
142564000    277.48195     412.4467    233.78564   -16047.374    16058.213    178.66106    42.469402 
142568000     309.8334    498.26298    437.49622   -16053.114    16062.696    60.766759    42.447118 
142572000    317.98135    309.32536    241.46189   -16071.926    16076.007    67.863467    42.446584 
142576000    302.09917    258.31945     300.3875   -16077.243    16082.902    -42.06805    42.449595 
142580000    280.34105    293.11013    628.80496   -16084.009    16096.562   -335.69483    42.445205 
142584000    279.54436    565.42824    581.88146   -16100.602    16115.307   -16.453214    42.475868 
142588000    273.80848    577.46037    544.52052   -16124.329    16123.354    32.939856    42.513311 
142592000    267.16881    111.18395     492.8735   -16133.423    16150.922   -381.68956    42.475828 
142596000    256.28326    353.04304    292.58778   -16140.964    16168.367    60.455267    42.445338 
142600000    318.75275    504.40977    1196.6693   -16168.909    16176.339   -692.25958    42.461196 
142604000    345.51227    753.76669    262.44053   -16198.898    16193.228    491.32617    42.435144 
142608000    262.53984    167.83144    286.95892   -16210.777    16217.354   -119.12748    42.396401 
142612000    234.58842    367.10236    214.64374   -16195.672    16230.144    152.45862    42.434908 
142616000    278.67047    659.54434    443.41781   -16223.428     16243.49    216.12653    42.429141 
142620000    326.08557    209.78443    429.97609   -16237.537    16232.784   -220.19166    42.473328 
142624000    372.99898    907.28741     407.9587   -16262.243    16241.313    499.32871    42.461381 
142628000    264.92443     753.0057     330.7269   -16251.615    16268.283     422.2788    42.462602 
142632000    263.96201    658.16275    315.76028   -16257.924     16273.35    342.40247    42.442449 
142636000    267.68229    495.69359    439.14619   -16265.412    16290.177    56.547404    42.416122 
142640000    313.88269    670.83427    903.10782    -16287.42     16299.04   -232.27355     42.38678 
142644000     284.5661    566.20727    479.96301   -16304.839    16318.219    86.244258    42.439524 
142648000    287.83981    230.16593      485.624   -16335.186    16340.665   -255.45807    42.407055 
142652000    275.21215    326.17705    176.72535   -16342.067    16358.067     149.4517    42.394069 
142656000    280.83908    841.89461    654.22767   -16362.904    16381.918    187.66694    42.368594 
142660000    285.83945    540.20497    318.68239   -16389.748     16396.62    221.52258    42.414176 
142664000    283.98206     451.7711    616.76831   -16407.391    16407.824   -164.99721     42.43226 
142668000    296.89748     799.9944    735.33639   -16425.473    16430.817    64.658014    42.440427 
142672000     275.4713    449.80318    387.13422   -16430.716    16436.663    62.668966    42.421462 
142676000    254.15111    408.37855    679.95751     -16427.8    16452.147   -271.57895    42.434735 
142680000    319.24591    402.62997    510.28597   -16444.937    16454.144     -107.656     42.42604 
142684000    256.29186    885.62847    265.53882   -16447.915    16472.005    620.08965    42.463027 
142688000     288.2279    418.26096    373.39781   -16472.038    16487.459    44.863152    42.474382 
142692000    319.68515    1271.9452    636.00769   -16482.225    16486.797    635.93747    42.466211 
142696000    278.99614    816.90342    239.75486   -16480.129    16496.145    577.14855    42.489585 
142700000    262.06073    377.80433    419.99651   -16486.843    16513.689   -42.192177    42.508418 
142704000    248.85368    211.03898    323.82781   -16481.109    16517.479   -112.78883    42.503389 
142708000    265.60891    350.65566     499.8772    -16484.81    16506.934   -149.22154    42.443377 
142712000    318.11195    787.54114    337.20745   -16519.846    16512.859     450.3337    42.481282 
142716000    249.74864    828.31989    233.74477   -16512.169    16544.208    594.57512    42.507362 
142720000    324.53686    420.10346    422.63989   -16535.043    16544.079   -2.5364389    42.493547 
142724000    299.39254    919.14402    192.43964   -16551.432    16565.458    726.70438    42.478429 
142728000    253.95897     464.9886    378.47101   -16575.372    16600.832    86.517598    42.483917 
142732000    291.96829    312.30183    237.79497   -16604.169    16622.211    74.506855    42.480629 
142736000    325.74266    955.61713    244.26727   -16628.795    16631.162    711.34986    42.470211 
142740000    268.09263    579.80515    895.18099   -16608.769    16623.455   -315.37584    42.490617 
142744000    300.51396    366.03321    513.80323   -16624.577    16624.189   -147.77002     42.48496 
142748000    336.48677    781.09398    565.99211    -16640.23    16635.759    215.10187    42.469317 
142752000    291.27007    274.33107    432.69517   -16634.395    16645.366    -158.3641    42.462468 
142756000    247.63989    509.26654    312.90826   -16641.161    16657.735    196.35828    42.475318 
142760000     297.2288    247.65227     452.1543   -16659.241    16660.127   -204.50203    42.508744 
142764000    284.87755    250.24319      451.521   -16657.755    16676.734    -201.2778    42.539145 
142768000    277.32818    253.57601    413.20461   -16661.981    16682.432   -159.62859     42.46779 
142772000    263.55534    470.94809    223.91855   -16664.065    16679.704    247.02955    42.487838 
142776000    262.95593    190.62575     261.9466   -16662.273    16684.268   -71.320849    42.526234 
142780000    268.77971    144.67469    268.48118   -16679.352    16693.774   -123.80649    42.533509 
142784000    284.26679    383.85559     212.8775   -16690.268    16701.227    170.97809    42.505667 
142788000     299.7615     245.7365    157.64556   -16707.406    16730.064    88.090937    42.507921 
142792000     297.1283    525.81746    481.41418   -16726.381    16726.274    44.403286    42.539627 
142796000    297.89309    181.26293    313.04544   -16749.886    16761.591   -131.78251    42.531902 
142800000    274.67846    278.42863    306.27888   -16746.768    16763.305   -27.850253    42.533674 
142804000    257.76476     242.9902    1100.7142   -16745.151    16763.674   -857.72403    42.508167 
142808000    296.91679    381.83241    788.32485   -16759.642    16776.371   -406.49244    42.499709 
142812000     285.8928    129.70895    354.00581   -16759.223    16771.235   -224.29686    42.516035 
142816000      271.352    260.25001      380.426   -16789.486     16798.96     -120.176    42.463462 
142820000    240.01467    299.57198    670.24212   -16793.682    16815.538   -370.67014    42.445163 
142824000    329.29686     802.6499    873.42181   -16813.593    16799.791   -70.771904    42.408226 
142828000    275.46377    637.74087    460.20838   -16824.694    16843.416    177.53249    42.426009 
142832000    289.26063     289.0262    569.07888   -16831.122    16844.351   -280.05268    42.399534 
142836000    251.45089    333.58379    107.41483   -16853.427     16870.07    226.16896    42.438183 
142840000    268.91295    656.92738    330.82754   -16865.748    16869.569    326.09984    42.448098 
142844000    253.26309    799.26134     488.7105   -16856.509    16882.095    310.55084    42.482777 
142848000    251.69404    198.99586     278.4996   -16859.857    16883.797   -79.503731    42.445871 
142852000    258.85967    299.82923    609.88154   -16879.116    16905.578    -310.0523    42.442449 
142856000     291.8465    393.07268    333.11477   -16897.557    16904.733    59.957907    42.421039 
142860000    286.25302    261.19856    800.88026   -16924.157    16940.648    -539.6817    42.386428 
142864000    294.26846    373.12183    404.61608   -16932.783    16944.294    -31.49425    42.342826 
142868000     234.0163    182.18635    309.23372   -16939.186     16965.98   -127.04736    42.361111 
142872000    254.03484    183.63607    488.29314   -16961.963    16983.727   -304.65707    42.337827 
142876000    265.68804      517.386    385.81098    -16959.08    16984.444    131.57502    42.331615 
142880000    253.86643    442.86552    488.38348   -16942.847    16986.853   -45.517958    42.354242 
142884000    281.30083    570.01386    379.30115   -16965.312    16985.915    190.71271    42.361559 
142888000    296.90554    678.91528    219.19859   -16965.926    16989.725    459.71669    42.327144 
142892000    264.72333    623.80159    717.65452   -16978.784    16992.304   -93.852922    42.322901 
142896000    294.13289    590.35876    276.00533   -16978.225    16992.485    314.35343    42.310825 
142900000    324.14778    613.16557    260.30329   -17000.874    17009.092    352.86229    42.334533 
142904000    274.78666    383.55493    387.38579   -17009.786    17027.925   -3.8308553    42.338324 
142908000    252.12016    284.43594    519.39049   -17017.422    17039.789   -234.95455    42.302916 
142912000     313.2777    338.61982    171.99518   -17035.344    17036.515    166.62464    42.271348 
142916000    256.69372    628.82395    198.02649   -17035.842    17052.151    430.79746    42.279206 
142920000    254.13945    501.58561    524.26149   -17031.281    17061.978   -22.675884     42.27879 
142924000    296.90831    402.95499    431.17963   -17054.226    17061.619   -28.224635    42.325007 
142928000    236.03199    384.60818    258.22824   -17056.126     17079.27    126.37994    42.363785 
142932000    288.42947    400.47679    232.23677   -17066.354    17092.515    168.24002    42.378277 
142936000    271.79776    617.77882    168.06443   -17076.839    17091.846    449.71439    42.364105 
142940000    286.03724    437.74376    147.41193   -17080.597    17103.515    290.33183    42.356083 
142944000    259.64854    443.46712    100.51262   -17098.419    17117.629     342.9545    42.357882 
142948000    300.00248    468.27406    178.88412   -17111.208    17117.292    289.38995    42.397382 
142952000    365.67678    582.63755    402.34062   -17119.298    17111.898    180.29694    42.377857 
142956000    320.95681    333.45149    302.28976   -17108.632    17116.728    31.161734    42.337053 
142960000    324.26955    283.08405    447.96508   -17115.184      17113.6   -164.88103    42.344451 
142964000    290.93081     545.3667    225.38049   -17111.905     17135.82     319.9862    42.359474 
142968000    260.02779    576.28251    302.14309   -17110.948    17137.024    274.13942     42.32139 
142972000    265.15593    367.03689    364.36756   -17122.982     17152.09     2.669329    42.297252 
142976000    266.95635    226.65925    482.39057   -17141.198    17155.116   -255.73132    42.319767 
142980000    317.86395    854.02586    638.84967   -17175.775    17184.894    215.17619    42.315243 
142984000    322.44262    729.25969     645.8576   -17184.203    17184.639    83.402091    42.331889 
142988000    292.23105    560.58784    459.25649   -17174.582    17192.747    101.33135    42.325182 
142992000    273.32485    228.48539    659.48437   -17185.977    17200.842   -430.99897    42.333994 
142996000    297.88533    424.19185    237.97195   -17194.095    17201.959     186.2199    42.316089 
143000000     294.5338    323.77904    458.86067   -17191.302    17197.188   -135.08163    42.340138 
143004000    297.32387    756.01381    824.94983   -17210.019    17212.753   -68.936017    42.410567 
143008000    264.92218    815.54058    538.97492   -17198.782    17223.909    276.56566    42.396755 
143012000    317.43097    406.34202    632.67888   -17223.552    17219.854   -226.33686    42.389901 
143016000    317.43284    449.97448    650.53011   -17221.214    17221.121   -200.55563    42.364315 
143020000    276.35756    392.60882    616.94945   -17221.458    17249.103   -224.34063    42.368368 
143024000    275.41326    422.01185    153.35029   -17237.227    17255.367    268.66156    42.348025 
143028000    284.22927    651.25724    356.15615   -17223.303    17247.028    295.10109    42.323321 
143032000    277.42266    316.45428    446.98178   -17226.903    17250.293    -130.5275    42.338309 
143036000      279.836    595.03575    320.46568   -17229.363    17247.154    274.57007    42.348979 
143040000    262.43983    354.67813    390.82814   -17254.188    17266.222   -36.150015    42.321274 
143044000    273.25449    210.25938    453.26105   -17249.831    17271.884   -243.00168     42.36122 
143048000    281.09142    378.80738    227.35732    -17261.21    17282.692    151.45006    42.359734 
143052000    303.60127    583.63029    544.57195   -17282.427    17282.786    39.058341    42.427377 
143056000    295.95454    460.76475    352.40749   -17275.755    17289.445    108.35725    42.441747 
143060000    264.41385    604.00986    295.84183    -17285.08    17297.253    308.16803    42.417477 
143064000    216.50022    351.98882    219.23593   -17273.774    17302.832    132.75288    42.413959 
143068000    278.46369    537.16576    124.30535   -17279.485    17288.064    412.86041    42.445908 
143072000    270.82766    554.18344    502.40674   -17276.911     17294.43    51.776706    42.459477 
143076000    283.45017    179.85223    565.89596   -17277.128    17294.368   -386.04373    42.418108 
143080000    249.80755    555.84335    487.27707   -17269.786    17300.424    68.566278    42.405997 
143084000    291.17776    284.67576     245.7203   -17261.342    17285.796     38.95545    42.404603 
143088000     301.1774    420.87409    373.93735   -17274.376    17284.655     46.93674    42.445281 
143092000    280.93419    381.68535    404.15866   -17271.833    17292.446   -22.473311    42.453258 
143096000    342.38827    597.31192    754.44592   -17289.627    17292.918     -157.134    42.420665 
143100000    281.84065    352.30471    380.86402   -17294.815    17304.229   -28.559312    42.408302 
143104000    274.63158    414.11615    1400.7418   -17289.332    17317.697   -986.62562    42.359788 
143108000    324.24253    770.12089    483.23951   -17303.506    17309.839    286.88138    42.374124 
143112000    284.73312    430.31745    1025.2081   -17309.336    17328.984   -594.89063    42.406474 
143116000    303.10366    434.23157    359.70449   -17335.058    17341.369    74.527083    42.384916 
143120000    247.98086    787.92406    255.46369   -17333.348     17359.36    532.46036    42.403768 
143124000    268.63675    444.65557    272.61882   -17340.041    17365.373    172.03676    42.404694 
143128000    304.67445    322.89869    533.10396   -17359.005    17361.898   -210.20526     42.37837 
143132000    295.99129    393.35981    500.61704   -17364.053    17377.455   -107.25723     42.32284 
143136000    256.30895    317.04612    598.17668   -17380.074    17401.486   -281.13057    42.285935 
143140000    294.52813    235.21004    376.45831   -17388.983    17404.144   -141.24828    42.248321 
143144000    261.25573    699.69146     136.9772   -17392.408    17425.838    562.71426    42.249575 
143148000    256.63467     538.1138    284.55879   -17413.958    17443.769      253.555    42.238575 
143152000    288.07635    549.79764    245.03427   -17422.201    17443.326    304.76337    42.220652 
143156000    293.60283    341.01318    210.24264   -17437.951    17445.989    130.77054      42.2376 
143160000    310.74617    495.39443    451.88405   -17441.039    17456.935    43.510385    42.247397 
143164000    338.82713    255.28248    439.36311   -17455.174    17452.306   -184.08063    42.216608 
143168000    264.72694    267.47554    558.65266   -17451.458    17479.342   -291.17712     42.21869 
143172000    256.31865    595.38274    200.81478   -17463.862    17489.233    394.56797    42.215921 
143176000    260.14496     572.2025     438.5952   -17461.031    17492.176    133.60731    42.247248 
143180000    241.72957    709.11648    325.71785   -17479.587    17503.929    383.39863    42.197541 
143184000     289.5309    875.37738    363.79137   -17494.707    17503.132    511.58601    42.207355 
143188000    239.23625    449.14539    282.23523   -17487.509    17527.361    166.91016    42.215782 
143192000    277.22141    260.70775    657.94877   -17512.162    17521.411   -397.24102     42.24159 
143196000     297.5119    732.03936    456.89538   -17532.179     17526.94    275.14399    42.217102 
143200000    287.12566    404.63445    705.76944   -17529.599    17546.852   -301.13499    42.212078 
143204000    290.35338    360.59423    559.12432   -17544.041    17554.388   -198.53009    42.240194 
143208000    278.48578    631.24767    285.20267   -17564.559    17577.373      346.045    42.236952 
143212000    268.50633    680.11348    398.48335   -17577.508    17601.995    281.63013    42.236796 
143216000     225.0423     391.2545     179.4302   -17584.245    17623.526     211.8243    42.195641 
143220000    282.19813    1198.3122     260.0994   -17599.523    17615.911    938.21283    42.201838 
143224000    298.92485    116.23104    486.82468   -17596.508    17611.882   -370.59364    42.210886 
143228000    260.61692    286.79672    335.42175   -17602.047    17635.473   -48.625024    42.263459 
143232000    326.59311    312.80954    906.39308   -17653.145    17659.122   -593.58354    42.296238 
143236000    280.37179    295.96048    509.10866   -17660.337    17671.543   -213.14819    42.279868 
143240000    286.21536    521.05156    129.25785     -17653.2    17659.561    391.79371    42.316885 
143244000    306.05193    1198.1891    481.90088   -17666.153    17681.528    716.28817    42.314169 
143248000    281.17562    345.94919    363.43503   -17675.523    17684.872   -17.485839    42.296934 
143252000    275.55722    541.48093    602.26452   -17685.645    17692.809   -60.783594    42.331819 
143256000    271.36063    178.05964    346.91491   -17695.466    17717.973   -168.85527    42.285417 
143260000    277.30737    538.47798    223.55607   -17711.276    17727.685     314.9219    42.267396 
143264000    314.21927    565.42265    726.54052   -17728.446    17744.817   -161.11787    42.259966 
143268000    266.81517    944.27042    363.54006   -17733.448    17750.834    580.73036    42.296512 
143272000    293.92625    26.445605    129.37231   -17751.207    17749.622    -102.9267    42.268789 
143276000    272.78487    168.88706    489.34184   -17765.931    17776.544   -320.45478    42.263436 
143280000    305.74228    284.08217    475.69133   -17768.058    17779.755   -191.60916    42.224613 
143284000    310.23037    674.24967    475.36564   -17774.567    17788.433    198.88403    42.273639 
143288000    260.24111    363.23299    140.43605   -17792.054    17818.143    222.79694    42.334849 
143292000    299.75712    424.74205    309.63906   -17810.114    17820.465    115.10299    42.361153 
143296000    268.56807    167.44453    366.38927   -17808.886    17829.358   -198.94474    42.382392 
143300000    318.56886    557.53111    569.54256   -17825.147    17830.544   -12.011444    42.414135 
143304000    280.89642    115.70816    639.52333    -17837.84    17852.128   -523.81518    42.370343 
143308000    314.65462    254.74666    230.90907   -17850.521    17838.438    23.837591    42.422771 
143312000    329.61488    223.46927    781.17677   -17871.332    17863.897   -557.70749    42.388155 
143316000    293.77809    305.39777    393.83782    -17881.71    17885.765   -88.440058    42.384791 
143320000    276.48712    433.76565    243.07776   -17874.521    17892.883    190.68789    42.400217 
143324000    268.40354    923.40458    490.67578   -17883.082    17910.738    432.72879    42.446977 
143328000     284.0694    794.68497    290.23747   -17907.084    17918.802     504.4475    42.474251 
143332000    248.68529    408.51345     622.5872   -17903.029    17929.483   -214.07375    42.446087 
143336000    275.99088    423.68932    377.91645   -17928.414    17950.058    45.772873    42.443083 
143340000    294.77875    138.89873    404.39269   -17944.743    17947.525   -265.49396    42.464742 
143344000    278.00915    585.99698    319.68838   -17947.657    17958.149     266.3086     42.48044 
143348000     272.2003    486.03993    919.07307   -17939.611     17959.22   -433.03314    42.515159 
143352000    259.50634    985.67741    675.72022   -17950.637    17975.747    309.95719    42.550459 
143356000    259.73332    357.05194    402.45543   -17969.772    17988.662   -45.403493    42.580355 
143360000    260.49298    285.30374    538.68217   -17970.815    17986.873   -253.37843     42.55323 
143364000    280.52606    209.39621    543.13878   -17965.164    17987.358   -333.74256    42.523602 
143368000    265.60993    160.57786    368.03159   -17984.167    18001.451   -207.45373    42.505375 
143372000    280.84033    247.86936    567.23585   -17990.944    18010.721   -319.36649    42.471619 
143376000    287.87404    183.18739    390.99292   -17988.942    17999.201   -207.80553    42.453303 
143380000    282.58115     558.5182     827.7726   -18012.855    18020.522    -269.2544    42.442736 
143384000    273.60512    206.54338    382.12759   -18015.037    18022.227   -175.58421    42.459298 
143388000    302.46871    380.72895    419.04383   -18041.795    18047.274   -38.314872    42.438295 
143392000    271.51177    147.15487    275.35868   -18062.568     18073.73   -128.20381    42.427411 
143396000    258.15081    600.11877    220.73288   -18070.523    18089.914    379.38589     42.43612 
143400000    287.34988    233.60524    354.44155   -18076.579    18097.455   -120.83631    42.424546 
143404000    295.30182    378.36927    294.54351   -18092.411    18096.736    83.825757    42.468285 
143408000    256.53252    262.62775    171.50974   -18086.886    18111.689     91.11801    42.476456 
143412000     326.9293    261.02044    435.15107   -18114.322    18104.334   -174.13062    42.480853 
143416000    277.41312    428.19096    224.45613   -18103.646    18127.962    203.73483    42.497396 
143420000    320.12456    481.99381    729.99357   -18122.991    18131.631   -247.99977    42.529986 
143424000    288.24917    236.31777    448.95876   -18121.076    18145.315   -212.64099    42.539521 
143428000    260.67301    685.05344    933.64189   -18146.416     18151.71   -248.58845    42.568373 
143432000    266.79809      274.408    400.39759   -18146.466    18170.561   -125.98959    42.594354 
143436000    319.15677    572.75293     569.1185   -18168.358    18171.773    3.6344203    42.661315 
143440000    285.90454    441.96535    130.92294   -18165.293    18175.957    311.04241    42.661413 
143444000    290.06919    213.91908    395.49398   -18167.749    18179.052   -181.57491     42.61061 
143448000    275.82294    270.46375    466.87512   -18173.058    18184.639   -196.41137    42.614409 
143452000     259.6682    338.90686    270.42231   -18188.841    18213.188    68.484546    42.585459 
143456000    261.25576    281.94856    225.33721   -18221.311    18225.254    56.611355    42.603859 
143460000    293.80939    348.09438    314.43514   -18212.801    18230.534    33.659248    42.607741 
143464000    280.44997    330.15832    423.38162   -18230.881    18247.557   -93.223305    42.619367 
143468000    290.36311    218.27333    531.06995   -18261.152    18277.501   -312.79663    42.590977 
143472000    279.44779    573.50417    510.38658   -18285.009    18300.489    63.117592    42.635357 
143476000     293.8373    146.70213    302.02087   -18296.057    18297.838   -155.31874      42.6689 
143480000    278.30444    452.16222    407.73475     -18280.5    18300.244    44.427467    42.676773 
143484000    294.07858     142.4122    354.41003   -18298.087    18309.459   -211.99783      42.6819 
143488000    290.64483    216.53061    746.46688   -18283.835    18308.619   -529.93627    42.651489 
143492000    257.75753     288.3986    623.43826   -18301.545    18323.176   -335.03965      42.6066 
143496000    284.24975    389.80125    715.24759   -18325.349    18339.344   -325.44634    42.529237 
143500000    262.26828    446.81961    143.72805   -18334.608     18363.07    303.09156    42.545125 
143504000    307.11717    315.70816    857.06971   -18349.666    18366.827   -541.36154    42.518669 
143508000    286.35598     416.0358    273.65862   -18359.203    18373.744    142.37718    42.554338 
143512000    275.63366    312.84482     413.9616   -18370.539    18391.929   -101.11678    42.543529 
143516000    307.57071    482.91972    606.67747   -18381.502    18397.407   -123.75775    42.540283 
143520000    298.35204    422.81203    570.90843   -18386.438    18405.045    -148.0964    42.525681 
143524000    277.75981    385.39148     391.8806   -18397.495    18409.978   -6.4891195    42.562657 
143528000    280.58633    593.47846    902.32277   -18402.222    18415.368   -308.84431    42.571912 
143532000    272.74667    613.90052    151.17121   -18410.002    18437.722    462.72931    42.602484 
143536000    280.26209     234.7254    379.53041   -18439.108    18439.797   -144.80501    42.653221 
143540000    250.30466    168.66403    220.36877   -18457.093    18471.356   -51.704737    42.667453 
143544000    273.01514    576.52384    966.90328   -18460.684    18487.213   -390.37944    42.691262 
143548000    255.04769    755.06619    332.02555     -18475.2    18503.131    423.04064    42.664217 
143552000    279.64122    274.67891    160.12997   -18484.109    18495.618    114.54893    42.677874 
143556000    288.47285    536.00058    438.19938   -18493.982     18507.49    97.801198    42.665812 
143560000    247.70347    396.60277     561.1977   -18495.194    18517.743   -164.59493    42.617596 
143564000     335.5278    642.50119    455.62344   -18516.969    18507.601    186.87775    42.590305 
143568000    298.67138    262.07083    234.26085    -18519.42    18532.686    27.809975    42.601632 
143572000    303.59205     1034.849    441.15894   -18540.657     18551.23     593.6901    42.594763 
143576000    284.29453    201.84462    466.17731   -18542.136    18557.354   -264.33269    42.600922 
143580000    253.81972    209.17922    423.16382   -18544.429    18575.655    -213.9846    42.605737 
143584000    302.48691    306.56934    422.54643   -18576.295    18586.881    -115.9771    42.608826 
143588000    291.26247     249.7117    509.12171    -18583.84    18609.847   -259.41001    42.606229 
143592000    256.05959    362.07522    251.24361   -18590.743    18599.947    110.83162    42.615553 
143596000    246.96095    347.40506    324.52314   -18586.153    18613.156    22.881924    42.639023 
143600000    284.63415    693.61813    699.11795   -18605.233    18615.934   -5.4998204     42.64314 
143604000    259.57873      270.363    598.30301   -18606.264     18626.07   -327.94002    42.637295 
143608000    279.43736    961.50099    465.65067   -18627.186     18648.86    495.85031    42.633675 
143612000    289.12261    214.42098    434.50846   -18640.654    18647.552   -220.08747    42.604863 
143616000    267.12004    410.17612    551.33692   -18659.989    18669.202    -141.1608    42.595985 
143620000    305.30857    301.71084    411.18647   -18669.635    18663.629   -109.47563    42.584181 
143624000    284.77648     320.6764    443.83179   -18677.649    18698.393   -123.15539    42.547116 
143628000    257.24272    180.93785    385.15152   -18694.363    18720.201   -204.21367    42.507465 
143632000    303.05462    884.58872    364.73359   -18723.276    18746.822    519.85513    42.533223 
143636000    283.04986    214.95001    279.78075   -18732.673    18751.277   -64.830745    42.505956 
143640000    260.25078    418.64807    322.32448   -18755.043    18763.695    96.323583    42.568211 
143644000    336.70023    1147.6318    280.81533   -18783.391    18772.712    866.81645    42.591745 
143648000    286.50284    227.48933    402.39895   -18786.534    18790.584   -174.90963    42.546743 
143652000    297.53765    365.81758    291.19311   -18801.083    18819.608     74.62447    42.569604 
143656000    263.05535       430.83    415.78961   -18824.592    18845.431    15.040387    42.551087 
143660000    301.93765     516.4966    433.33692   -18854.127    18853.417     83.15968    42.514551 
143664000     376.2205    426.05748    984.20774   -18868.606    18859.516   -558.15026    42.523613 
143668000    278.25805    203.60318    169.33849   -18872.893    18886.837    34.264692    42.466862 
143672000    307.92774    374.07315    373.19299   -18883.554    18891.397   0.88015932    42.510964 
143676000    296.01305    272.53673     206.3877   -18891.593    18913.497     66.14903    42.531062 
143680000    311.68771    337.88555     399.6896   -18902.574    18900.645   -61.804053    42.507497 
143684000    284.42024    235.99918    781.17129   -18902.329    18919.145   -545.17211    42.475111 
143688000    264.82539    757.74085     459.1314   -18925.905    18940.084    298.60945    42.503249 
143692000    321.02895    251.35369    488.97227   -18938.277    18943.705   -237.61857    42.472051 
143696000    264.93625    490.27433    102.15215   -18944.433    18974.884    388.12218    42.473387 
143700000    267.49233    869.38165    265.69919   -18963.025    18985.941    603.68245    42.506574 
143704000    271.36859    247.48054    425.77484   -18981.684    19001.674   -178.29431    42.547624 
143708000    246.18907    671.52204    169.77013   -18987.033    19021.424    501.75192      42.5048 
143712000    250.95893    283.77121    340.90752   -18992.183    19021.244   -57.136307    42.521878 
143716000    269.60516    616.65657    176.46885   -19025.359    19041.623    440.18772    42.503801 
143720000    298.74891    517.03585    434.66198   -19040.066    19045.728    82.373866    42.519437 
143724000    260.61635     396.5043    284.83677   -19042.047    19057.698    111.66752    42.518706 
143728000     285.6601     464.8927    90.319754    -19067.66    19069.235    374.57294    42.545164 
143732000    254.25661    652.56714    293.14874   -19064.311    19098.532     359.4184    42.571034 
143736000    282.35246     578.1166    291.08759   -19104.381    19117.369    287.02901    42.601727 
143740000    291.41386     556.8989    519.16805    -19106.19    19123.014     37.73085    42.603573 
143744000    280.51417    619.68653    162.16653   -19104.504    19123.427       457.52    42.604012 
143748000     293.4892    379.27968    268.20991   -19126.169    19130.792    111.06977    42.593752 
143752000    289.66308    676.09933    649.70259   -19119.338    19130.988    26.396748    42.616319 
143756000    264.30483    198.00684    639.24376   -19129.001    19139.223   -441.23692     42.60181 
143760000    287.35641    309.43925    566.61963   -19149.875    19159.968   -257.18038    42.623664 
143764000    309.00825    753.96258    532.82676   -19153.078    19171.273    221.13582    42.636268 
143768000    275.99731    113.30257    625.60901   -19159.656    19170.843   -512.30644    42.631777 
143772000    300.84547     133.6209    343.78594   -19179.771    19192.332   -210.16504    42.603757 
143776000    294.25815    555.38617    489.22909   -19193.131    19204.861     66.15708     42.66391 
143780000    311.78016    313.71057    730.66387   -19214.052    19214.325    -416.9533    42.667922 
143784000    291.61621    437.12513    260.58724   -19212.036    19236.096    176.53789    42.657029 
143788000    265.30112    657.27206    731.89281   -19229.489    19256.258   -74.620746    42.629309 
143792000    291.35478    728.24248    164.51171   -19240.891    19250.487    563.73078    42.653352 
143796000    256.51932    248.08294    669.12806   -19236.102     19259.71   -421.04511    42.691262 
143800000    330.98896    742.06863    180.42354    -19273.66    19275.039    561.64509    42.707434 
143804000    310.95019    770.60522    667.34765    -19294.45    19299.325    103.25757       42.684 
143808000    299.97576    339.36581    435.56826   -19304.019    19305.822    -96.20245    42.665658 
143812000    272.79392    223.18986    187.58959    -19302.46     19300.28    35.600268    42.702575 
143816000    284.12333    259.27102    565.89084   -19311.779    19321.387   -306.61982    42.695168 
143820000    264.19158    494.72183    445.10824   -19319.587    19338.994     49.61359    42.673457 
143824000    287.33363    272.92241    499.90259   -19322.358    19334.253   -226.98018    42.666996 
143828000    288.84348    275.59982    348.91628   -19321.845    19346.974   -73.316457    42.711869 
143832000    252.41748    557.64362    396.20269   -19326.582    19354.612    161.44093     42.74015 
143836000    314.24822     371.5151    349.54773   -19351.875    19359.553    21.967363    42.737362 
143840000     301.2059    974.86491    207.35349   -19355.327    19370.952    767.51142    42.698527 
143844000     284.5692     352.9637    592.48411    -19380.79    19392.451   -239.52041    42.736847 
143848000    268.54218     307.3372    654.70788   -19378.289    19381.736   -347.37068    42.707197 
143852000    289.24582    335.40484    664.50231   -19395.662    19392.223   -329.09747    42.668457 
143856000    272.05435    881.26468    416.61201   -19404.322    19423.667    464.65267    42.677228 
143860000    290.08666    542.24982    326.24284   -19399.837     19414.06    216.00698    42.681277 
143864000     286.3049     412.5655    285.80367   -19410.775     19431.21    126.76183    42.678305 
143868000    257.19289    214.35206    123.64924   -19435.581    19449.872    90.702826    42.677038 
143872000    280.87052    383.73426    337.11893   -19447.396     19465.58    46.615336    42.680171 
143876000    301.58566    432.00154    739.26337   -19453.538    19474.454   -307.26183    42.703699 
143880000    278.45828    130.37485    562.33905   -19456.206    19471.898    -431.9642     42.69341 
143884000    266.83163    297.97967    682.02323   -19483.556    19508.053   -384.04357    42.709478 
143888000    309.35602    1001.3036    250.37509   -19494.013    19496.444    750.92851    42.744449 
143892000    306.52846    230.12969    600.93345   -19491.681    19495.763   -370.80376    42.742438 
143896000    260.71887    475.88168    404.45411   -19491.967    19517.412    71.427571    42.752703 
143900000    255.08929    459.23754    46.159817    -19497.08    19525.811    413.07773    42.758074 
143904000    294.81173    461.17506    1120.1703   -19521.664    19542.115   -658.99525    42.767614 
143908000    302.28446    741.47395    373.53336   -19527.798    19544.462    367.94059    42.763245 
143912000    322.29566    790.00864    382.66654   -19550.471    19559.727     407.3421    42.763077 
143916000    271.18064    203.73154    337.61309   -19551.594    19573.634   -133.88155    42.738185 
143920000    271.32455    429.60778     1088.953   -19565.602    19596.057   -659.34526    42.739101 
143924000    292.45537    249.36435    623.03184   -19578.553    19596.676   -373.66749    42.722157 
143928000    291.26629    446.57336    483.54183   -19606.829    19614.551   -36.968466    42.740852 
143932000    317.53314    260.14541    856.08233   -19614.838    19615.431   -595.93692    42.712398 
143936000     291.5601     188.7274    353.77256   -19627.381    19634.425   -165.04516    42.709333 
143940000    283.46127    373.53412    513.97082   -19635.953    19650.112    -140.4367    42.696617 
143944000    318.22667    338.13433    310.12125   -19630.927     19647.22    28.013074    42.755862 
143948000    280.34249    408.05535    278.33132   -19649.216    19666.244    129.72403    42.750667 
143952000    311.69298    296.77751    523.38642   -19661.837     19675.47   -226.60891      42.7129 
143956000    323.79932     333.8987    399.15216   -19681.384    19673.889    -65.25346    42.684018 
143960000    289.22802    340.38637    252.63505   -19683.723    19700.669    87.751317    42.708822 
143964000    283.80894    405.66279    462.33607   -19705.805    19714.407   -56.673277    42.687683 
143968000    308.31876    1051.5705    221.11595   -19711.501     19718.06    830.45455    42.700017 
143972000    305.78981    537.44819    766.47824   -19706.965    19719.098   -229.03005    42.655143 
143976000    325.68944    388.24168    552.91078   -19723.074    19726.887   -164.66911    42.639397 
143980000    271.58457    196.70105    570.22784   -19708.978    19730.975   -373.52679    42.608401 
143984000    266.75505    410.95577    282.73371   -19731.822    19751.183    128.22207    42.622627 
143988000    324.90667    347.06582    729.33982   -19751.411    19742.484   -382.27399    42.620389 
143992000    315.79619    1219.2508    490.90081   -19755.164    19764.787    728.34998    42.573772 
143996000    249.32214    241.86087    867.00936   -19747.075    19779.774   -625.14849    42.590318 
144000000    273.48752     413.9733    482.99059   -19748.706    19776.149   -69.017289    42.632024 
144004000    306.75928    522.36516    687.26232   -19764.825    19765.847   -164.89716    42.667141 
144008000    307.20008    141.97843    525.60108   -19765.139    19772.594   -383.62265    42.615542 
144012000     260.6108     388.7343     556.3267   -19776.468    19792.626    -167.5924    42.611354 
144016000    271.92983    768.85802    283.26084   -19788.512    19804.847    485.59718    42.610306 
144020000    283.07714    485.77392    485.45498   -19811.967    19816.412   0.31894313    42.631423 
144024000    258.97376     314.5158    109.01459   -19830.999    19851.356    205.50121    42.666129 
144028000    281.86269    571.18222    493.93916   -19857.879     19867.02    77.243054    42.658165 
144032000    284.30559    486.32919    627.22532   -19860.309    19869.336   -140.89613    42.676257 
144036000    304.40008    619.15648    595.22369    -19871.02    19887.247    23.932788    42.623757 
144040000    334.31355    402.01289    734.63608   -19904.943     19908.88   -332.62319    42.568589 
144044000    276.77391    538.23446    311.18422   -19897.066    19921.671    227.05024    42.546798 
144048000     292.5013    595.08074    202.16706   -19910.724    19921.436    392.91368    42.568713 
144052000    300.24038      314.446    356.38339   -19913.103    19928.622   -41.937395     42.56377 
144056000    293.95671    255.25177    378.39035   -19922.495    19944.066   -123.13858    42.609872 
144060000    293.19544    82.295354    263.14509   -19932.994    19945.248   -180.84974    42.613373 
144064000    258.04256    536.06712    256.99646   -19947.792    19958.123    279.07066    42.651958 
144068000    257.77318    692.68946    522.30467   -19950.333    19967.195    170.38479    42.666223 
144072000    294.07237    399.89133    369.66533   -19975.736    19983.933    30.225995    42.683076 
144076000    298.05467    167.08791    198.37395   -19988.088    19988.006   -31.286049    42.661574 
144080000    311.46323    386.36309    714.23833    -20004.96    20013.769   -327.87524     42.69632 
144084000    269.92174    376.15943    491.21042   -20009.296    20030.301   -115.05099    42.651843 
144088000    256.40693    420.03211    289.90787   -20023.531    20041.892    130.12425    42.652077 
144092000     294.1017    1207.7362    837.04289    -20035.01    20032.028    370.69327    42.672811 
144096000    292.12811    265.12813    380.41559   -20031.393    20055.792   -115.28746    42.680554 
144100000    310.29315    348.22087    117.92517   -20042.918    20047.649    230.29569    42.710088 
144104000    270.35801     733.5008    393.48974   -20045.133    20057.093    340.01106    42.698468 
144108000    312.37212    326.91649    498.74444   -20067.619    20071.798   -171.82795    42.697259 
144112000    318.24969     468.3262    521.30078   -20068.926    20066.939   -52.974573    42.677686 
144116000    286.19147    407.75844    259.99788   -20070.721    20077.473    147.76055    42.704209 
144120000    296.60445    382.79043     237.8146   -20087.137    20096.587    144.97582    42.730161 
144124000    262.61587    425.91518    525.44297   -20089.197     20113.17   -99.527786    42.697708 
144128000    277.99514    405.72216    313.08961    -20090.62    20116.408    92.632551    42.665553 
144132000    279.71086    623.48364    462.76703   -20114.099    20128.409    160.71661    42.710489 
144136000    294.92428    795.97098    208.87756    -20138.08    20138.772    587.09342    42.674503 
144140000    273.97114    469.29939    255.58847   -20146.099    20162.925    213.71092    42.690328 
144144000    293.40368    366.68782    443.30639   -20142.026    20157.273   -76.618564    42.728244 
144148000    306.33284    474.46449    530.84058   -20177.982    20193.353   -56.376086     42.69177 
144152000    317.10031    613.78676    282.09738   -20191.805    20190.503    331.68938    42.716805 
144156000    290.61086    421.36416    529.09933   -20201.497    20210.438   -107.73517    42.662575 
144160000    258.36723    660.71267    497.47923   -20196.522     20227.81    163.23344    42.663146 
144164000    311.82328    416.50618    459.13825   -20214.667    20233.912   -42.632064    42.665381 
144168000    236.16571    136.41367    253.87794   -20218.704    20257.366   -117.46427    42.681473 
144172000    240.09772    399.80939    520.59097   -20231.556    20256.252   -120.78158    42.672302 
144176000    266.53078    237.34572     419.7863   -20247.276    20258.799   -182.44058    42.690272 
144180000    288.97925    450.76248    278.88058    -20263.79    20270.226     171.8819    42.731701 
144184000    301.51025    743.64619    515.70024   -20281.815    20290.856    227.94595    42.719467 
144188000    316.87523    212.05815    582.38149   -20306.837    20308.222   -370.32334    42.692032 
144192000    298.22037    738.20133    617.18916   -20302.844    20317.281    121.01217    42.693561 
144196000    298.00256    387.09857    694.89814   -20327.029    20340.171   -307.79956    42.712115 
144200000    271.26878    260.12739    349.58682   -20326.312    20354.264   -89.459421    42.718234 
144204000    242.41839    196.03747    268.17262   -20314.363    20339.921   -72.135156    42.732997 
144208000    297.65206    640.53251    957.11871   -20338.581    20345.719    -316.5862     42.79087 
144212000    248.27501    341.44706    240.26189   -20351.651    20357.682    101.18517    42.759819 
144216000     319.3483    395.59884    1268.6072   -20365.111    20367.765   -873.00834    42.713679 
144220000    294.53629    737.48746    631.34181    -20371.02     20380.67    106.14565    42.676763 
144224000    256.08315    573.57346    328.54073   -20366.757    20400.088    245.03273    42.680843 
144228000    265.10775    482.57933    307.61058   -20385.521    20401.245    174.96876    42.721071 
144232000    275.92703    382.30856    165.12784    -20380.42     20397.21    217.18071     42.74427 
144236000    277.26859    399.12626    348.87153   -20391.038    20418.661    50.254731    42.777477 
144240000    276.67258    301.34778    355.59371   -20402.071    20426.858   -54.245929    42.774837 
144244000     268.5988    349.53557    393.20553   -20414.072    20434.169   -43.669956    42.767343 
144248000    316.27577     771.5955    750.87088   -20427.863    20432.301    20.724621    42.780863 
144252000    273.72901    1002.0117    210.74889   -20428.887    20458.518    791.26285    42.826694 
144256000    246.18268    214.69399    193.11626   -20430.161    20466.073     21.57773    42.856311 
144260000    322.00232    73.347077    831.11218   -20439.577    20431.398   -757.76511    42.878047 
144264000    240.97609     409.7973    242.46311   -20451.628    20473.393    167.33418    42.939057 
144268000    287.02923    158.15898    212.53674     -20481.2    20481.861   -54.377754    42.975935 
144272000    271.87442    271.86851    536.84272   -20473.801    20483.425    -264.9742     42.95928 
144276000    297.65294     434.7198    422.18963   -20471.948    20486.553    12.530177    42.978571 
144280000    262.83701    706.55281    291.97868   -20481.281    20496.969    414.57413     42.98018 
144284000    298.18271    805.55331    639.39579   -20492.051        20514    166.15752    43.003892 
144288000    289.74619    361.09624    255.08533   -20520.084    20534.883    106.01091    43.007687 
144292000    300.61461    278.23929    407.19972   -20533.377     20535.48   -128.96043    42.981453 
144296000    291.12083    441.43122    428.84467   -20547.229     20566.15    12.586544    42.942829 
144300000     285.0793    314.78622    422.40637   -20552.189    20567.216   -107.62015    42.996775 
144304000    308.59672    331.09659    307.65386   -20550.945    20562.805    23.442726    42.975462 
144308000    248.27354    409.39012    707.18559   -20550.374    20578.103   -297.79547    42.979684 
144312000    274.66096    398.66285    375.31211   -20573.448    20585.445     23.35074    42.986247 
144316000    261.16437    297.97158    286.55833   -20593.524    20615.555    11.413245    42.984843 
144320000    262.79632    992.52302    342.75849   -20598.555    20615.308    649.76454    43.019367 
144324000    291.26293    854.34502    509.91995   -20592.946    20607.395    344.42506    43.020349 
144328000    262.11403    107.33478    712.66334   -20588.537    20616.714   -605.32857    43.045815 
144332000    240.18345    249.19252     521.8657   -20606.728    20620.273   -272.67318    43.038329 
144336000    275.94332    256.57071    267.34672    -20611.14    20633.541    -10.77601    43.055345 
144340000    286.70719    464.35366    432.19973   -20614.656     20628.82    32.153925     43.07619 
144344000    280.70951    538.07527    236.24972   -20628.575     20638.13    301.82555    43.062514 
144348000    325.24035     861.8782    567.87424   -20643.545    20643.595    294.00396    43.085142 
144352000    289.85052    939.93307    605.92916   -20648.519     20664.86    334.00391    43.088651 
144356000    285.08871    781.62861    192.45022   -20674.401    20681.986    589.17839    43.062123 
144360000    274.90055    556.93441    578.58289   -20682.835    20701.714    -21.64848    43.057842 
144364000    276.31053    295.79111    795.02181   -20670.465     20688.57    -499.2307    43.022737 
144368000    290.84539    283.83124    354.16664   -20673.507    20689.278   -70.335397    43.034329 
144372000    260.80268    504.44985    595.83361   -20668.175    20686.052   -91.383758    43.018547 
144376000    260.47783    379.95909     90.02645   -20674.763    20691.936    289.93264     43.02223 
144380000    285.42622    203.08916    400.03894   -20675.841    20692.619   -196.94978    43.043414 
144384000    279.09278    714.66708    366.86272   -20682.368    20698.551    347.80437    43.037544 
144388000    296.40348    668.93934    729.19651   -20689.324    20709.927   -60.257163    42.987364 
144392000    310.57233    789.85624    533.59121    -20698.87    20708.145    256.26503    43.005082 
144396000    285.35625    509.88658    573.96764   -20688.726     20705.34   -64.081061    43.006901 
144400000    309.49187    501.41249    296.74826    -20694.43    20700.242    204.66424     43.00963 
144404000    303.53709    400.07327     627.2036   -20691.593    20686.889   -227.13032    42.980918 
144408000    280.33973    276.72375    260.58866   -20695.414    20703.983    16.135093    42.990249 
144412000     288.7058    370.53282    197.96752   -20700.332    20715.083    172.56531    42.967203 
144416000    275.64162    601.80735    278.14834   -20692.466    20710.072    323.65901    42.974239 
144420000    286.90052    640.57971    480.76304   -20705.265    20713.105    159.81667    42.965308 
144424000    286.42835    666.98645    207.76848   -20715.621    20738.772    459.21797    42.999597 
144428000    251.42493    359.40157     466.2137   -20724.731    20740.845   -106.81213    43.012944 
144432000    263.62778    144.45202    302.57583   -20733.767    20749.704   -158.12381    43.056113 
144436000    240.94638    640.55841    177.13736   -20742.856    20776.755    463.42105    43.067842 
144440000    280.69998    492.68025    273.76622    -20759.97    20789.582    218.91402    43.066888 
144444000    273.71759    478.69794    491.77686   -20781.123    20800.845   -13.078928    43.067947 
144448000    269.25065    434.24474    306.34798   -20780.695    20800.345    127.89676     43.05698 
144452000     338.7882    735.89078    462.50745    -20815.99    20825.342    273.38333    43.081607 
144456000     323.4015    684.79072    615.23217   -20829.134    20831.794     69.55855    43.057772 
144460000    276.56917    396.83928    540.11297   -20841.357    20851.347   -143.27369    43.073559 
144464000    272.42345    170.10561    374.14903   -20840.895    20863.108   -204.04342     43.07123 
144468000    337.48645    351.19544    431.05976   -20852.876    20861.896    -79.86432    43.068786 
144472000    252.49964    671.66322    257.03716   -20855.039    20883.961    414.62606    43.091338 
144476000    272.59797    144.20373    252.95375   -20874.689    20899.139   -108.75001    43.059147 
144480000    313.80676    787.55454    947.02598   -20892.299    20897.414   -159.47144    43.041387 
144484000     290.1507    881.51618    471.14814   -20908.335    20916.169    410.36805    43.041999 
144488000    251.59913    385.49854    262.08708    -20901.34    20932.989    123.41147     43.04553 
144492000    304.05644    281.75351    493.76101    -20930.82    20930.821    -212.0075    43.023269 
144496000    299.86522    480.33558    605.35853    -20941.01    20943.323   -125.02295      43.0197 
144500000    270.87815     325.3219    190.40267   -20938.398    20960.725    134.91923    43.044376 
144504000    264.95457     276.1205     262.1724   -20941.565     20964.33    13.948097    42.999651 
144508000    262.92639    315.72631     647.0778   -20960.313    20983.577   -331.35149    42.975043 
144512000    229.23371    231.87781    923.35789     -20978.1    21006.151   -691.48007    42.952381 
144516000    320.20917    756.85877    602.32321   -20988.148    21010.732    154.53556    42.963581 
144520000    255.92088    366.27823    164.21001   -20989.431    21016.393    202.06823    42.926044 
144524000    293.92937    109.84839    428.11301   -21003.827    21022.781   -318.26462     42.94408 
144528000    249.89249    132.73187    461.27664   -21004.275    21031.137   -328.54477    42.958263 
144532000     291.4019    321.52413    681.91038   -21019.971    21042.876   -360.38625    42.987159 
144536000    286.42879    665.41414    845.79292   -21025.828    21027.273   -180.37878    42.974669 
144540000     275.3519    701.86451    336.41058   -21030.771    21043.628    365.45393    42.999942 
144544000    256.22886    646.85879    318.76246   -21032.453    21061.761    328.09633    42.982672 
144548000    273.57812    278.99989    557.04554   -21021.203    21041.438   -278.04565    43.021736 
144552000     244.4427    531.72135    330.42675   -21022.095    21045.121     201.2946    43.029492 
144556000    297.21689    688.95727    547.78829   -21045.355    21057.975    141.16898    43.059659 
144560000    311.47944    408.66148     413.1357   -21075.279    21083.332   -4.4742127    43.058356 
144564000    329.94342    747.94131    812.61886   -21078.264    21077.178    -64.67755    43.048412 
144568000    248.74558    534.79769     465.7309   -21075.816    21099.407    69.066783    43.056091 
144572000    254.62315     541.7344    523.00475   -21076.789    21099.917    18.729648    43.029305 
144576000    271.23081    316.26612    269.79361   -21097.498    21108.266    46.472507    43.032716 
144580000    291.54955    579.87273    515.50734   -21116.761    21121.487    64.365391    42.992274 
144584000    280.44627    863.35137    286.19673   -21117.949    21139.851    577.15464    42.992425 
144588000    276.61666    691.74731     711.9311    -21140.65     21147.74   -20.183791    43.013566 
144592000    304.78239    696.40692    271.31129   -21164.905    21170.689    425.09563    43.015024 
144596000    283.73717    758.00119     348.1087   -21192.984    21196.084     409.8925    43.061906 
144600000    282.24905    520.40275    126.05269   -21201.251     21215.11    394.35006    43.046177 
144604000    260.19456    457.49699    261.75158   -21216.092    21236.087     195.7454    43.070236 
144608000    351.15208    533.96855    450.17351   -21239.625    21238.852    83.795042    43.094571 
144612000    312.81814    771.50442    533.38627   -21253.347    21256.697    238.11814    43.116868 
144616000    339.87891       751.41    711.63382   -21264.848     21261.25    39.776183    43.100989 
144620000    276.29284    257.47046    445.04345   -21265.654    21277.237   -187.57299    43.054766 
144624000    294.00788    560.30929    361.64777    -21285.55    21287.853    198.66151    43.063473 
144628000    254.40691     208.3916    317.91614   -21275.985    21296.317   -109.52453    43.107159 
144632000    287.07513    274.81217    209.28516   -21302.411    21307.841     65.52701    43.116823 
144636000    308.49942    442.38411    395.88083   -21316.312    21325.707    46.503274    43.119615 
144640000    345.96035    859.12768    259.00605   -21337.198    21333.625    600.12164    43.120809 
144644000    312.80953    521.55368    863.41148   -21333.745    21335.994    -341.8578    43.105667 
144648000    282.68301    457.19453    453.91312    -21345.74    21357.174    3.2814126     43.13089 
144652000    281.85579    883.00518    207.18194   -21358.843    21358.353    675.82323    43.147706 
144656000     247.8733    480.84809    358.53617   -21360.817    21384.941    122.31192    43.132322 
144660000    260.36515    336.39624    210.56211   -21366.607    21391.128    125.83413    43.108944 
144664000    239.72847    322.67646     367.5874   -21380.916    21400.651   -44.910937    43.060867 
144668000    250.23457    265.24411    190.04666   -21400.009    21420.169    75.197455    43.078304 
144672000    287.83894    792.47317    740.73119   -21424.651    21440.576     51.74198    43.056153 
144676000    309.64548    525.83795    986.07084   -21435.059    21441.419   -460.23289    43.046449 
144680000    260.50291    367.78425    601.77455   -21455.253    21474.778   -233.99029    43.035185 
144684000    277.61267    527.54406    547.48308   -21468.049    21482.306   -19.939025    43.065505 
144688000     293.1236    315.75782    350.82355   -21492.392    21505.463   -35.065738    43.084098 
144692000    288.50427    560.27312     760.7265   -21503.884    21524.548   -200.45338    43.070903 
144696000    262.24328    347.23247    738.87205    -21524.45    21539.658   -391.63958    43.117983 
144700000    286.10485    257.68075    576.11303   -21548.699    21559.355   -318.43228    43.113285 
144704000     290.3578    487.62225    814.64666   -21558.109    21564.451   -327.02442    43.096651 
144708000    270.07604    199.17761    483.21157   -21571.659    21583.997   -284.03396    43.116628 
144712000    277.79684    582.20537    699.27711   -21576.161    21596.744   -117.07174     43.07313 
144716000    283.26762    454.65152     631.8366   -21595.112      21601.4   -177.18507    43.092838 
144720000    298.76278    251.91548    658.06798   -21623.324    21640.387    -406.1525    43.093848 
144724000    320.25172    117.33273    187.56242   -21648.602    21659.918   -70.229688    43.133769 
144728000    318.06412     512.3829    558.00141   -21662.672    21672.284   -45.618504     43.11134 
144732000    280.56095    275.81023    446.69402    -21674.96    21690.208   -170.88379    43.112247 
144736000    281.95477    258.88669     338.8584   -21690.414    21698.256    -79.97171    43.110779 
144740000    294.29449    452.11497    984.95882   -21692.063    21701.898   -532.84386     43.07686 
144744000     312.6616    688.43893    588.41175   -21695.126    21699.944    100.02717    43.081439 
144748000    287.36778    374.14446    305.82242   -21700.993    21710.106    68.322046    43.091656 
144752000    301.74377    460.17126    351.32133   -21704.226    21711.421    108.84993    43.054144 
144756000     304.5554    532.37926     643.0492     -21735.5    21735.428   -110.66994     43.07242 
144760000     264.3951     47.39539    161.96701   -21727.538    21740.722   -114.57162     43.04877 
144764000    281.52022    570.74744      1271.65   -21728.039    21746.792   -700.90259    43.049297 
144768000    307.58459    515.05052    508.52991   -21757.406    21768.045    6.5206082      43.0195 
144772000     334.9136    489.89749    908.56783   -21776.299    21777.827   -418.67035    43.016588 
144776000    295.79714    313.71479    375.10386   -21792.762    21797.778   -61.389071    43.039705 
144780000    309.49339    468.67111    295.23654   -21819.118    21824.263    173.43457    43.030313 
144784000     340.5357    443.24156    561.40885   -21843.561    21828.364   -118.16729    42.984512 
144788000    323.49193     339.2559    167.63294   -21856.759    21853.332    171.62296    42.948631 
144792000    278.36908    460.35847    317.03526    -21852.03    21868.965    143.32321    42.953071 
144796000     262.1402    229.92897    165.70728    -21862.01    21887.018    64.221683    42.914052 
144800000    260.62108    608.08854    356.15337   -21877.195     21888.29    251.93517    42.911215 
144804000    279.72022    807.24372    548.24036    -21896.86    21902.328    259.00336    42.938532 
144808000    305.32462     302.1354    438.95613   -21895.598    21907.569   -136.82073    42.915242 
144812000    252.82812    54.852125    204.79001   -21893.486    21910.414   -149.93788    42.938584 
144816000    303.08158     443.7351     253.1963   -21908.368    21918.244     190.5388    42.915323 
144820000    289.30617    295.06239    889.17137   -21903.307    21919.203   -594.10899    42.897633 
144824000      318.126    257.90547    226.16775   -21915.563    21928.155    31.737719     42.93859 
144828000    288.32253    451.95679    193.91496   -21928.383    21936.206    258.04183    42.868896 
144832000    310.80235    722.12142    190.14776   -21947.667    21939.365    531.97365    42.857393 
144836000    263.21472    330.43716    251.82049   -21938.002    21959.337    78.616673    42.853902 
144840000    316.16274    244.16973    699.96544    -21956.71    21972.123   -455.79571    42.830194 
144844000    286.30722    628.00506    504.52562   -21976.336     21990.32    123.47943    42.809467 
144848000    273.97637    188.20725    765.26145   -21989.585    22007.686    -577.0542    42.794797 
144852000    291.61456    368.20813    326.43748   -22019.519    22022.708    41.770655    42.830198 
144856000    269.24831    469.86803    384.26489   -22020.363    22034.729    85.603145    42.841569 
144860000    292.06125    719.50541    532.76037   -22041.146    22045.396    186.74504     42.83259 
144864000     268.8202    362.81419    243.44936   -22036.816    22057.288    119.36484    42.799907 
144868000    293.18186     281.9853    542.55977   -22045.076     22062.08   -260.57447    42.765405 
144872000    259.51546     427.6285    246.91876   -22049.903    22064.966    180.70974    42.722171 
144876000    263.11689    234.45651    266.35203   -22056.458    22067.696   -31.895525     42.72673 
144880000    270.51987     281.0169    363.89034   -22071.265    22083.695   -82.873446    42.711827 
144884000    293.47127    481.27905    280.80161   -22089.918    22085.078    200.47744    42.685823 
144888000    265.30947    753.13009    333.87556   -22090.384    22115.195    419.25453    42.693464 
144892000    249.95973    472.76615    334.50249   -22110.055     22130.18    138.26366    42.718982 
144896000    313.45135     153.8366    280.17031   -22142.089    22138.531   -126.33371    42.686052 
144900000    279.74161    517.60735    326.10695   -22140.998    22155.125     191.5004    42.680772 
144904000    297.34924     366.5895     302.7909   -22154.055    22164.166      63.7986    42.669454 
144908000    295.49303    872.70114     368.1733   -22169.425    22171.882    504.52784    42.702829 
144912000    281.08897    752.10633    428.59466   -22167.861    22174.285    323.51167    42.710063 
144916000    264.78863    490.30514    600.47383   -22157.851    22182.808   -110.16869    42.704559 
144920000    282.36426    280.39698    276.46079   -22181.314     22191.51    3.9361876    42.696419 
144924000    313.65365    202.34966    287.13297    -22202.14    22207.279    -84.78331    42.683688 
144928000     293.0509    191.58703    571.76097   -22205.227    22219.582   -380.17395    42.674801 
144932000    286.99674    119.28312    376.83881   -22204.799    22213.415   -257.55569    42.639274 
144936000    287.23992    242.21188    390.74716   -22210.611    22207.952   -148.53528    42.687094 
144940000    290.83369    600.04687    700.82887   -22221.558    22217.604   -100.78199    42.717339 
144944000    323.28698    625.22519    467.27944   -22226.596    22231.657    157.94574    42.708791 
144948000    259.23651    649.80694    543.92815   -22236.406    22261.504    105.87879    42.707459 
144952000    328.83682    596.87951    706.68509   -22264.051     22259.56   -109.80558    42.710189 
144956000    272.27335    321.98815    412.11611   -22263.324    22280.452    -90.12796    42.720616 
144960000    283.58426     509.0085    345.15748   -22276.064    22291.644    163.85102    42.724508 
144964000    321.28488    822.57856    309.42694    -22300.87    22305.842    513.15162    42.733177 
144968000    306.71703    430.27414    372.80805   -22299.164      22310.6    57.466093     42.71145 
144972000    224.72494    237.17609    254.84858   -22290.849    22327.849   -17.672487    42.733129 
144976000    240.69496    272.64177     314.4813   -22283.555    22315.212   -41.839535    42.699574 
144980000    290.75119    484.26378    233.85934   -22315.409    22315.578    250.40444    42.726881 
144984000     306.3829    455.20168    779.02909   -22321.106    22331.267   -323.82741    42.721665 
144988000    298.80747      1044.28    677.90831    -22339.29    22349.696    366.37164    42.710514 
144992000    254.42124    146.37939    720.79614   -22335.545    22352.147   -574.41674    42.736502 
144996000    260.48206     291.9066      578.445   -22359.622    22381.378    -286.5384    42.707573 
145000000     250.0741    228.90749    197.99218   -22374.786    22401.665    30.915308    42.703775 
145004000    270.36018    268.13429    350.90526   -22389.398    22400.369   -82.770972    42.723807 
145008000    293.12214    246.29908    613.35963   -22418.364    22434.956   -367.06055    42.719082 
145012000    226.11919    314.14357    433.33426   -22421.999    22449.839   -119.19069    42.708347 
145016000    282.37057    804.29175    492.31837   -22438.815     22449.48    311.97338    42.724696 
145020000    310.05858    456.85197    457.99622   -22435.126     22447.49   -1.1442467    42.751436 
145024000     282.5291    755.26823    461.45226   -22445.287    22463.141    293.81597    42.748149 
145028000     290.0358    585.82706    362.10103   -22463.614     22463.72    223.72602    42.725836 
145032000    331.13064    483.58233     873.6937   -22481.056    22483.369   -390.11137    42.719028 
145036000    276.59553    398.21843     145.9361   -22500.785    22497.719    252.28233    42.711817 
145040000    330.17862    608.55323    398.01614   -22514.057     22518.91    210.53709    42.685336 
145044000     274.8574    785.44271    484.91257   -22519.456    22534.645    300.53014    42.708973 
145048000    251.77411    225.08674    233.81044   -22510.493    22532.147   -8.7237018    42.687126 
145052000    273.07898    737.18632    397.05493   -22527.083    22536.939    340.13139    42.745489 
145056000    287.78849    683.94703    341.01537   -22557.223    22567.732    342.93166    42.721526 
145060000    261.76545    363.65281    393.63486   -22572.991    22583.972    -29.98205    42.714904 
145064000    286.28352    904.45405    107.05499   -22579.501    22597.599    797.39907    42.751689 
145068000    320.61751    533.79516    700.08743   -22608.898    22616.449   -166.29227    42.737275 
145072000    291.76055    811.09131    166.96366   -22630.057    22639.645    644.12765    42.709458 
145076000    265.48504    306.66137    419.36807   -22651.536    22667.566   -112.70669    42.680632 
145080000    265.36311    82.677791    171.38981   -22671.853    22689.975   -88.712015    42.676175 
145084000    271.64652    643.27522    311.33389   -22683.274    22698.696    331.94134    42.683235 
145088000    308.53157    635.90096    337.33363   -22714.402    22731.792    298.56732    42.692299 
145092000    313.77613    523.36052    830.67349   -22737.674    22742.767   -307.31297    42.703257 
145096000    268.76462     377.7189    446.62441   -22743.146    22760.204   -68.905511      42.6978 
145100000    232.21062    433.10627    298.78802   -22745.362    22771.144    134.31825    42.706874 
145104000      254.737    318.08087      266.378   -22761.741    22771.328    51.702868    42.698644 
145108000     275.4576    129.09117    275.70562   -22759.632    22783.042   -146.61445    42.668419 
145112000    253.06585    306.12997    492.43942   -22775.379    22811.412   -186.30944    42.661991 
145116000    267.45994    227.50759    65.301221   -22801.483    22827.927    162.20637    42.683277 
145120000    239.32639    347.70777    304.34533    -22816.33    22825.357    43.362448    42.702039 
145124000     247.7516    148.20365     162.3157   -22819.531    22841.341   -14.112045    42.724567 
145128000    265.49504    199.29264    321.78974   -22828.516    22848.045    -122.4971    42.755725 
145132000    243.39306    251.74182    315.03761    -22837.72    22854.453   -63.295785    42.777034 
145136000    285.44548    288.29067    121.74588   -22833.515    22844.904    166.54479    42.771545 
145140000    247.89527    352.05346    289.08239   -22841.002    22866.686    62.971072    42.749489 
145144000    264.67579    165.65122    541.40825   -22866.472    22871.592   -375.75703    42.747002 
145148000    320.04988    389.58001    655.25308   -22874.759    22869.801   -265.67307    42.707043 
145152000    300.89668    610.19758    561.34424   -22881.036    22891.534    48.853343     42.72575 
145156000    250.24717    649.42439    94.220715   -22874.889     22901.56    555.20367    42.727515 
145160000    305.42296    445.34406    533.80944   -22879.021    22896.718   -88.465376    42.724101 
145164000    284.58872    1035.8063    331.72384   -22891.275    22894.352    704.08248    42.754748 
145168000    303.98155    540.15707    264.99064   -22898.952     22904.33    275.16643    42.719235 
145172000    252.10466    350.96524     366.5109   -22895.979    22911.155   -15.545663    42.719598 
145176000    319.17013    377.86797     955.3427   -22908.155    22922.774   -577.47474    42.730661 
145180000    249.85287    596.59108    193.02915   -22904.192    22929.816    403.56192    42.738296 
145184000     254.8505    192.73553    356.83855   -22920.173    22933.761   -164.10302    42.739651 
145188000     284.2996    275.41453    152.71684   -22935.482    22944.855    122.69769     42.70117 
145192000    274.24816    785.02934    255.08119   -22969.694    22993.655    529.94815    42.707108 
145196000    252.81072    554.32509    481.37111    -22998.47    23008.012    72.953981     42.66333 
145200000    255.25365    161.83715    308.50425   -22992.347    23019.771    -146.6671    42.611996 
145204000     275.4826    267.46141    410.66794   -22994.933    23000.458   -143.20653       42.602 
145208000    319.12773    224.71274    437.49146   -23013.489    23016.102   -212.77871    42.606275 
145212000    270.35685    205.70742    596.89031   -23021.708    23046.844   -391.18289    42.596633 
145216000    255.37612    548.18235    551.19266   -23017.458     23048.15   -3.0103071    42.595519 
145220000    276.96292    463.44387    557.50405   -23051.967    23060.239   -94.060177    42.609684 
145224000    301.22272    372.04684    522.82485   -23074.612    23067.682   -150.77801    42.591354 
145228000    298.78472    429.35117    659.11909   -23070.117    23080.967   -229.76792    42.593585 
145232000     275.9539    430.49854    261.44884    -23080.86    23104.967     169.0497     42.56584 
145236000    287.40303    364.94774    153.10476   -23099.159    23108.329    211.84297    42.532481 
145240000    284.81788    420.98001    215.42459   -23106.947     23110.16    205.55542    42.503093 
145244000    256.31758    945.40024    144.90706   -23110.971    23133.918    800.49318    42.524473 
145248000    270.92948    527.01266    296.24216   -23114.269    23128.114    230.77051    42.539568 
145252000    320.21858    533.20183     404.2548   -23132.511    23138.842    128.94704    42.517888 
145256000    311.52446    334.09154    215.01683   -23161.158    23167.954    119.07471    42.550708 
145260000    297.42072    279.75025    295.21115   -23171.568    23185.269   -15.460898    42.569808 
145264000    278.06787    467.60687    114.54922   -23188.242    23201.973    353.05764    42.580891 
145268000    299.15356    273.42159    209.11184   -23209.619    23218.377    64.309751    42.530736 
145272000    308.62499    544.57542    769.24742   -23228.777    23233.964   -224.67199    42.541966 
145276000    236.08514    453.28071    222.80554   -23237.144    23266.436    230.47517    42.534297 
145280000    239.42732    500.26894    216.84854     -23249.1    23278.574     283.4204    42.539649 
145284000    276.04704    407.68744    626.08038    -23267.91    23292.342   -218.39293    42.554326 
145288000    279.43721    422.88276    267.47881   -23283.316    23300.407    155.40396    42.581737 
145292000    254.63757    256.49234    240.35626   -23295.163    23320.252    16.136077    42.617572 
145296000     297.2371      509.928    342.89278   -23319.923    23332.118    167.03522    42.622102 
145300000    276.65223    614.93675    800.60759     -23342.1    23352.541   -185.67083    42.666494 
145304000    290.01618    341.68411    886.34442   -23352.058    23352.374    -544.6603    42.641818 
145308000    304.22378    180.50872    513.92867   -23373.238    23383.527   -333.41995    42.628373 
145312000     256.9158    745.89786     328.6329   -23383.586    23403.051    417.26496     42.63089 
145316000     272.5049    439.88588    623.64711   -23412.975     23422.37   -183.76123    42.665629 
145320000    296.07208    297.66761    406.71916   -23421.612    23423.754   -109.05155    42.647338 
145324000    281.82962    539.18836    300.56725   -23437.939     23447.29    238.62111    42.689765 
145328000    283.31539     393.8913    1335.7597   -23449.754    23466.425   -941.86842    42.627909 
145332000    278.32836    963.58099     140.5488   -23449.585    23474.079    823.03219    42.632852 
145336000    290.23508    426.90147    522.55887   -23476.583     23479.75     -95.6574    42.636628 
145340000    285.55338    319.27398    268.15601   -23478.237    23491.673    51.117969    42.628804 
145344000    249.66903    95.558278    156.69257   -23473.922    23492.966   -61.134295    42.628404 
145348000    285.29618     46.11303    240.27013   -23491.118     23503.72    -194.1571    42.633528 
145352000     290.0614    505.70473    1370.5132   -23499.543    23508.942   -864.80843    42.634366 
145356000    265.86468    300.26311    406.31088   -23482.044    23512.495   -106.04777    42.612071 
145360000    290.69248    473.00859    481.66844   -23488.038    23501.453   -8.6598504    42.614825 
145364000    268.03831    368.52283    1080.4452   -23490.512    23507.237   -711.92241    42.580239 
145368000    266.14855    458.02144    595.52495   -23507.683    23523.643   -137.50351    42.537872 
145372000    284.89622    291.58031    247.32978   -23525.009     23530.12    44.250535    42.572832 
145376000    272.83379     524.2346    520.61651   -23533.356    23557.006     3.618087    42.563303 
145380000    272.27382    614.13511    276.76269   -23541.847    23574.033    337.37242    42.541969 
145384000    290.31521    334.37372    229.88592   -23546.786    23559.487     104.4878    42.561312 
145388000    238.38954     333.2104    287.33795   -23545.781     23579.02     45.87245     42.56226 
145392000    323.87652    202.08011    598.93173   -23570.272    23573.693   -396.85162    42.558101 
145396000    325.96912    562.76493    619.99017   -23597.058    23592.841   -57.225239    42.548977 
145400000    305.68448     335.9992    560.67164   -23603.399    23609.742   -224.67243    42.530545 
145404000    283.72511    405.91327    591.99696   -23629.282    23633.652   -186.08369    42.514382 
145408000     261.6025    336.60134    426.37779   -23645.475    23660.939   -89.776451    42.515262 
145412000    327.85338    749.28428    979.28932   -23654.013    23652.213   -230.00504    42.498701 
145416000    272.08977    797.70038    229.82611   -23650.558    23674.335    567.87427    42.482821 
145420000    324.84404    573.07905    510.11561   -23684.743    23690.839    62.963442    42.528384 
145424000    274.05385    453.71127    227.03583   -23691.824    23706.242    226.67544    42.513388 
145428000    301.02339    211.67793    512.70289   -23732.876    23735.337   -301.02497    42.491778 
145432000    288.95822    417.11158    271.89172   -23733.576     23731.43    145.21987    42.511214 
145436000    317.19863    266.21954    354.55834   -23754.371     23748.29   -88.338799    42.507301 
145440000    284.80448    603.98532    401.70898   -23745.905     23767.21    202.27635    42.509923 
145444000    310.66442    567.93871    303.78533   -23781.934    23786.247    264.15338     42.52682 
145448000    291.56555    208.56534    354.92642   -23769.471    23772.179   -146.36107    42.516272 
145452000    248.54161    402.24677    507.37588   -23764.554    23794.532    -105.1291    42.511283 
145456000    298.53601    509.01286    574.19285   -23780.333     23787.07   -65.179994    42.547311 
145460000    312.00499    468.62123    524.76097   -23794.756    23804.954   -56.139743    42.519327 
145464000     284.1113    361.86009    766.00729   -23810.861    23833.719    -404.1472     42.49679 
145468000    290.15513    164.08529    422.05285   -23792.795    23814.268   -257.96756    42.513568 
145472000     263.9874    456.24907    475.85484   -23805.922    23825.369   -19.605769    42.488154 
145476000    268.57038    497.29798    422.79638   -23827.167    23834.377     74.50161    42.470831 
145480000    282.03416    533.07445    179.13992   -23845.628    23861.384    353.93453    42.477446 
145484000    272.39152    454.31138    296.30747   -23862.722    23873.886    158.00391    42.463702 
145488000    309.37016     467.5555    611.27177   -23866.246    23868.971   -143.71627    42.412482 
145492000    330.44529    247.70171    654.00775   -23881.062    23876.209   -406.30605    42.423294 
145496000    253.06281    560.92765    439.65168   -23888.887    23905.252    121.27597    42.392932 
145500000    287.23426     944.8768    275.31747   -23901.222     23915.78    669.55933    42.394409 
145504000     249.5088       599.77    255.61025   -23916.078    23940.841    344.15976    42.408694 
145508000    281.41618    712.29127    196.67241   -23939.521    23959.815    515.61886    42.398731 
145512000    269.75712    193.25655    241.77839   -23966.165    23980.561   -48.521848    42.377057 
145516000    318.14671    190.35733    671.18083   -23978.395    23988.242    -480.8235    42.340676 
145520000    295.74817    819.97505     382.4635   -23991.266    23997.934    437.51155    42.337541 
145524000    285.97131     961.9697    691.72199    -24016.77    24022.963    270.24771    42.335006 
145528000    261.40007    254.25107     687.1315   -24027.122    24043.918   -432.88042     42.34659 
145532000    263.80418    495.91079    319.62749   -24052.563    24064.805     176.2833    42.330978 
145536000    283.89884    432.37274    507.08283    -24059.58    24076.796   -74.710097    42.312672 
145540000     271.9814    203.79796    370.16432   -24069.376    24077.496   -166.36636    42.273561 
145544000    263.30418     191.7362    706.52131   -24083.534    24101.873   -514.78511    42.293918 
145548000    284.26371    448.14507    715.18907   -24103.504    24111.449     -267.044    42.268225 
145552000     309.5233    299.14417    371.91577    -24108.29    24129.406   -72.771607    42.296535 
145556000    297.40637    394.79552    395.40071   -24112.605     24120.27   -0.6051838    42.302866 
145560000    287.54887    636.97819     284.9158   -24118.646    24118.211    352.06239     42.29887 
145564000    249.35201    526.60331    416.85493    -24116.51    24134.348    109.74838    42.291078 
145568000    267.08998    458.13826    214.01452   -24137.658    24158.039    244.12375    42.293993 
145572000    253.57107     363.3588    361.01667   -24156.647    24172.594    2.3421273    42.288034 
145576000     289.8029    223.20488    329.37124   -24176.339    24179.488   -106.16636    42.283681 
145580000    282.62161     179.3514    427.58088   -24184.641    24208.386   -248.22948    42.284514 
145584000    306.43433    865.63835      171.622   -24208.584    24209.984    694.01635    42.276879 
145588000    288.93916    213.87088    270.28898   -24221.834    24229.616   -56.418096     42.33151 
145592000    291.66005    277.69947    493.03153   -24230.367    24247.664   -215.33206    42.329656 
145596000    293.94283     224.5374    578.24891   -24231.053    24239.152   -353.71152    42.318706 
145600000    279.81619     752.8033    538.93461   -24235.045    24243.254    213.86869    42.341576 
145604000    290.47088    560.31073    151.51391   -24253.629    24266.554    408.79681    42.308034 
145608000    299.69885    828.60882    580.34246   -24264.325    24268.836    248.26636    42.297557 
145612000    327.72906    167.64432    1058.4989   -24282.148    24283.316   -890.85462    42.256667 
145616000    289.30687    429.21361    181.38593   -24293.702    24301.783    247.82768    42.267889 
145620000    273.80012    585.80344    315.48235   -24308.952    24315.592    270.32109      42.2854 
145624000    331.61907    1088.5728    380.26169   -24334.557    24332.924    708.31109    42.309462 
145628000    271.55097    252.78758    318.16764   -24316.697    24326.747   -65.380062    42.318851 
145632000    316.21724    542.38938    579.41302     -24332.4    24342.942   -37.023633    42.337003 
145636000    271.46861     387.1117    292.16781   -24334.588    24356.413    94.943886    42.303651 
145640000    259.29218    519.49822     373.3587   -24352.325    24372.403    146.13952    42.307806 
145644000    314.56968    246.04522    368.09048   -24361.291    24364.564   -122.04527    42.308841 
145648000    297.10965    590.42714    696.63066   -24361.971    24373.872   -106.20352    42.321651 
145652000    280.55564    381.61516    533.90311   -24354.168    24369.377   -152.28795    42.305597 
145656000    270.13076    408.98853    616.90403   -24361.875    24385.813    -207.9155    42.302876 
145660000    266.44148    403.34928    254.56201   -24388.127    24412.653    148.78727    42.313093 
145664000    240.47504    209.08653    77.388194   -24412.389    24438.377    131.69833    42.305585 
145668000    271.69086    153.99692    326.64546   -24421.081    24431.144   -172.64854    42.307777 
145672000    262.41227    242.10609    696.74633   -24426.915    24450.439   -454.64024    42.310523 
145676000     296.6491    180.75451    1056.6169   -24453.432    24452.149   -875.86236    42.303873 
145680000    290.15515     675.7737    406.48078   -24441.567    24451.752    269.29292    42.297752 
145684000    254.17258    270.42186    487.60864   -24460.215    24479.059   -217.18678    42.280547 
145688000    263.81285    484.65617    397.14309   -24456.787    24471.489    87.513085    42.274489 
145692000    284.00246    893.52787    518.70263   -24473.219    24487.711    374.82524    42.274388 
145696000    287.87733    363.38626    266.90434   -24471.252    24488.386    96.481921    42.293751 
145700000    307.80082     982.0747    645.61709   -24466.969    24483.443    336.45761    42.303347 
145704000    274.42658    445.10252    155.32295   -24468.525     24476.86    289.77957    42.303957 
145708000    277.46011    425.02526    401.72609    -24479.84    24492.588    23.299168    42.305886 
145712000    259.11683    639.00499    433.99348   -24477.193    24498.717    205.01151    42.296493 
145716000    285.44289    343.60728    245.58203   -24480.143    24503.315    98.025252    42.302375 
145720000    285.27702    580.60839    668.51481   -24500.211    24512.972   -87.906419    42.324538 
145724000    221.62878      530.455    312.67585   -24523.742    24547.415    217.77915    42.355319 
145728000    227.65379     409.8444    334.53888   -24537.728    24565.831    75.305516    42.308666 
145732000    273.33008    502.19843    285.50139    -24559.48    24568.342    216.69704    42.344168 
145736000    278.09807    259.13325    515.02963   -24566.985     24578.24   -255.89638    42.369609 
145740000    292.52157    352.31507    268.17565   -24589.611    24595.214    84.139413    42.368718 
145744000    305.15143    271.04842    657.50563   -24600.989    24598.799   -386.45722    42.367766 
145748000    278.33346    448.49651    569.94989   -24617.299    24625.924   -121.45338    42.392819 
145752000    265.45925    429.49867    386.38497   -24614.813    24639.911    43.113708    42.390637 
145756000    288.27452    417.16573    567.11847   -24630.495    24648.869   -149.95274    42.377911 
145760000    289.38615    299.05952    271.55047   -24642.907    24656.249    27.509053    42.330195 
145764000    285.78529    212.08875    518.11597   -24659.275    24657.355   -306.02721    42.333658 
145768000    284.05436    648.96436    1051.7339   -24664.577    24685.503   -402.76951    42.316611 
145772000    253.29186    823.55896    515.50761   -24683.328    24705.807    308.05135    42.307827 
145776000    304.79877    631.03306    451.23095   -24704.955    24715.083    179.80211    42.310661 
145780000    275.10304    495.92631    238.45464   -24704.655    24717.105    257.47166    42.293223 
145784000    254.50665    767.72026    311.40831   -24714.142    24739.979    456.31195    42.324863 
145788000    269.40178    657.37233    435.68873    -24722.08    24738.312     221.6836    42.303146 
145792000    251.69826    397.42664    234.38439   -24722.823    24741.141    163.04225    42.303922 
145796000    299.21932    467.37117    211.88286   -24722.055    24723.074    255.48831    42.316639 
145800000     251.6658    474.80956    317.26247   -24724.909    24746.913    157.54709    42.302238 
145804000    298.58234    272.63896    260.90328   -24743.378    24753.312    11.735681    42.318152 
145808000    286.92491     276.7488    521.71927   -24755.772    24757.013   -244.97047    42.341833 
145812000    314.59807    660.98447    129.80531   -24769.586    24764.522    531.17916    42.353949 
145816000    305.26942    610.10444    1241.3766   -24782.917    24780.445    -631.2722    42.363186 
145820000    253.76015    644.18462    712.37545   -24784.692    24791.288   -68.190828    42.363902 
145824000    295.47645    223.24299    204.08154   -24785.997    24800.636    19.161453    42.358153 
145828000    282.61057     553.9343    393.40779   -24800.612    24815.153    160.52652    42.353188 
145832000    320.02521    424.32513    841.72313   -24827.195    24827.401     -417.398    42.366304 
145836000    279.89776    1230.5309    151.77329   -24847.489    24860.685    1078.7576     42.36998 
145840000    296.50934    186.36941    141.32781   -24864.463     24857.64    45.041593      42.3594 
145844000    269.02384    251.10915     331.2937    -24869.16    24883.167   -80.184556    42.369781 
145848000    274.33355    418.08613    143.91661   -24868.613    24891.518    274.16952    42.392361 
145852000    281.37037    649.44561    322.34422   -24888.962    24899.866    327.10138    42.382472 
145856000    290.66525    452.58374     238.8383   -24898.704    24916.937    213.74544    42.364668 
145860000     272.1387    306.05269    268.36663   -24899.474    24922.675    37.686064    42.364952 
145864000    284.25052    929.56056     262.3342   -24912.996    24931.258    667.22636     42.36217 
145868000    270.58077    509.29499    560.67047   -24918.488    24931.318   -51.375482     42.32499 
145872000    269.80497    544.32976    510.78932    -24933.18    24941.663    33.540443    42.333977 
145876000    253.33019    268.96312    295.87645    -24938.03    24956.075   -26.913333    42.314567 
145880000     301.0208    536.18966    310.40263   -24947.813     24965.42    225.78703    42.289237 
145884000    262.68357    72.846103    90.319446   -24952.613    24986.198   -17.473343    42.288326 
145888000    292.55547    568.77823     612.8543    -24981.59    24980.412   -44.076074    42.299353 
145892000    295.05354    382.65044    375.43841   -24997.919    25001.427    7.2120295    42.306189 
145896000    269.79344    516.69906    151.45362   -25006.959    25028.173    365.24544    42.329649 
145900000    253.46271    578.62987    138.27579   -25018.391    25048.464    440.35408    42.389278 
145904000      288.622    171.05598    310.28691   -25025.287    25039.798   -139.23092    42.358022 
145908000    237.47711    320.22653    174.47757   -25017.108    25039.176    145.74897    42.327006 
145912000    279.32756    274.58571    257.94883   -25056.498    25071.369    16.636878    42.368597 
145916000     280.4769    249.59044    467.50772   -25059.911    25087.457   -217.91727    42.377381 
145920000    277.28928    253.26494    209.23949   -25082.315    25102.813    44.025458    42.395836 
145924000    262.85596      569.692    488.72801   -25090.971    25124.081    80.963988    42.409082 
145928000    252.92149    807.53752    208.32046   -25099.105    25123.409    599.21706    42.406052 
145932000    271.48709     683.6314    461.30408   -25110.988    25126.454    222.32733    42.391949 
145936000    263.74331    273.15975    215.98193   -25122.114    25142.885    57.177818    42.417068 
145940000    259.64273    379.83759     248.3248   -25132.105    25148.093    131.51279    42.437743 
145944000    290.12087     401.7793    644.72185   -25138.187    25153.394   -242.94255    42.433169 
145948000    284.73091    219.72303    501.22743   -25168.926    25175.518    -281.5044    42.390174 
145952000    324.36987    1497.8489    700.25988    -25184.37    25188.618    797.58899    42.406398 
145956000    299.12917    570.07305    499.09221   -25196.917    25207.673    70.980844    42.424709 
145960000    273.10355    680.96622    417.59048    -25208.04     25229.33    263.37574    42.458589 
145964000    268.39917    266.55789    500.77498   -25220.836    25229.927   -234.21709    42.473147 
145968000    261.19952    140.88149    536.17167   -25210.721    25236.975   -395.29018    42.459989 
145972000     298.2235    152.77575    540.17152   -25240.571    25248.163   -387.39576    42.427756 
145976000    283.50951    155.34652    666.01359   -25259.614    25267.328   -510.66707    42.437547 
145980000     235.5144    241.30217    671.25994   -25265.573    25300.238   -429.95777    42.426929 
145984000    282.11044    433.34708    193.43277   -25283.496    25307.872    239.91431    42.401774 
145988000    275.95945    483.53261    479.42706   -25292.889    25299.609    4.1055445    42.429359 
145992000    289.59356    699.05339    727.04956   -25287.752    25303.746   -27.996174    42.443276 
145996000    294.31522    699.15993    456.75199   -25318.017    25324.962    242.40794    42.457947 
146000000    259.85846    261.61143    511.04351   -25300.304    25330.454   -249.43208    42.471889 
146004000    277.75542    507.60457     227.7414   -25302.225    25332.551    279.86317    42.489723 
146008000    304.61716    134.81713    322.55614   -25312.113    25326.819   -187.73901    42.496243 
146012000    269.30188    506.82194    550.97843   -25318.194    25326.668   -44.156486    42.489049 
146016000     264.9134    332.51866    228.15064   -25318.253    25336.638    104.36803    42.474957 
146020000    310.64131     879.1814    1020.2033   -25334.389     25335.79   -141.02187    42.474392 
146024000    270.86139    465.25623    408.60757   -25323.812    25344.379    56.648664    42.475854 
146028000    275.16835    307.67484     400.2743   -25319.838    25343.845   -92.599466      42.4759 
146032000    276.72893    266.65719    313.05801   -25331.747    25347.318   -46.400821    42.448627 
146036000    309.12835    357.92147    258.60707    -25342.36    25352.092    99.314408    42.458118 
146040000     256.0014    464.36639    414.18136   -25341.959    25365.142    50.185032    42.461162 
146044000    243.56677    334.75551    367.23767   -25356.134    25378.272   -32.482159    42.454439 
146048000    262.64655    611.18275    342.01828   -25374.888    25398.625    269.16447    42.461149 
146052000    267.02037    644.92365    244.25243   -25386.064     25408.33    400.67122    42.460915 
146056000    284.82804    223.68751    232.12979   -25388.827    25409.495   -8.4422771    42.445694 
146060000    273.82909    698.37089    288.15566   -25394.129    25405.029    410.21523    42.474609 
146064000    282.00107    323.41831    335.72262   -25402.068    25407.622   -12.304317    42.486761 
146068000      237.058    368.94557    142.40125   -25394.602    25424.504    226.54432    42.488715 
146072000    270.10685    511.22564    280.01891   -25401.099    25427.285    231.20673    42.503214 
146076000    284.93338    340.07052    332.55606   -25413.934    25426.016    7.5144519    42.499783 
146080000    265.94202    202.30434       678.44   -25424.624    25440.074   -476.13566    42.504256 
146084000    284.30526     137.2858    370.61162    -25431.04    25442.661   -233.32582    42.506011 
146088000    275.51114    420.95574    288.67684   -25439.851    25466.341    132.27891    42.552881 
146092000    316.30119    952.05565    591.36681   -25448.303    25451.789    360.68884    42.526814 
146096000     261.9844      473.083      170.668   -25449.008    25460.665      302.415    42.528382 
146100000    296.16554    718.46585     574.8684   -25478.521    25485.145    143.59745    42.547621 
146104000    277.86783     585.7317    252.12883   -25490.548    25509.929    333.60287    42.523931 
146108000    261.87618    380.14759    337.01337   -25489.552    25511.211    43.134216    42.534052 
146112000    271.14796    507.10215    237.93572   -25490.539    25505.088    269.16642    42.530977 
146116000    294.13785    219.54039    526.90136   -25484.351    25506.094   -307.36097    42.493621 
146120000    310.51662    978.16578    299.03877   -25485.623    25494.106      679.127    42.502451 
146124000    263.09912     221.6475    417.92072   -25494.474    25509.645   -196.27322    42.486809 
146128000    301.75182    448.72174    437.43927   -25518.284    25519.921     11.28247    42.483619 
146132000    302.98572     500.1023    521.59857   -25529.843    25537.949   -21.496263    42.491285 
146136000    318.03287    625.64896    620.13725    -25542.78    25547.551    5.5117094    42.488083 
146140000    252.28754    134.68354      529.221   -25543.357     25568.27   -394.53746    42.481855 
146144000    293.64739    398.53731    259.26754   -25559.219    25573.751    139.26977    42.472546 
146148000    257.21733    363.22967    529.55447   -25544.718    25569.806   -166.32479    42.469071 
146152000    265.29059    267.78587    358.32587   -25553.401    25574.318       -90.54    42.449998 
146156000    270.07244    282.12374     488.4466   -25572.913    25592.007   -206.32286    42.406259 
146160000    312.88575    195.84055    465.16434   -25592.596    25601.258   -269.32379    42.429207 
146164000    284.31839    249.34894    432.86429   -25599.392      25611.5   -183.51535    42.387195 
146168000    289.19292    622.56644    171.46647   -25618.685     25634.09    451.09997    42.398419 
146172000    253.25483    238.06216    264.51388   -25596.774    25629.303   -26.451719    42.389702 
146176000    289.80866    665.13318    122.20261    -25612.24    25619.581    542.93057    42.372188 
146180000     267.4061     342.0868    482.49803   -25602.408    25613.814   -140.41123    42.370992 
146184000    300.86285    385.23176    926.31584   -25605.536    25607.602   -541.08409    42.355148 
146188000     270.2836    401.21622    470.97113    -25613.17    25627.838   -69.754905     42.37753 
146192000    257.36512    125.87294    277.06063   -25611.198    25641.861   -151.18769    42.375463 
146196000    264.88228    343.44915    470.25915   -25633.542     25659.45      -126.81     42.33896 
146200000    324.88033    705.98877    660.40084   -25659.549    25680.422     45.58794    42.314516 
146204000    284.39249    343.79848    276.00313   -25674.856    25676.648    67.795348    42.327864 
146208000    317.02743    479.29534    544.87129   -25697.139    25693.307   -65.575952    42.323028 
146212000    278.96028    480.16139     298.4799   -25696.932    25709.805    181.68149    42.295602 
146216000    259.52254    1164.9737       458.12   -25711.688    25736.902     706.8537    42.349144 
146220000    297.77609    419.94617    421.41266   -25722.248    25738.598   -1.4664837    42.336339 
146224000    276.17041    260.12237    272.74578   -25727.908    25733.746   -12.623415     42.32911 
146228000    310.65059    374.34309    779.28096   -25754.677    25757.607   -404.93787    42.319631 
146232000    285.28915    486.14995    416.00348   -25758.807    25771.365    70.146468    42.307398 
146236000    276.27929    470.91022    931.00179   -25769.423    25792.253   -460.09157    42.329574 
146240000    305.22931    810.88875    624.79459   -25785.716    25792.804    186.09415    42.354328 
146244000    289.59006    308.39245    676.71329   -25792.979    25789.418   -368.32085    42.348595 
146248000    274.83797    246.84596    638.21156   -25778.407    25794.966    -391.3656    42.353232 
146252000    273.70821    418.97195    142.82777   -25775.111    25791.064    276.14418    42.322131 
146256000    267.95506    401.45024    598.92141   -25788.185    25806.213   -197.47117    42.307844 
146260000    278.17287    536.99863     311.4306   -25816.199    25814.883    225.56802    42.295646 
146264000    298.04177    537.46858    617.43846   -25822.439    25843.547   -79.969882      42.3204 
146268000    314.42002     1144.944    127.25471   -25838.226    25843.507    1017.6893    42.337209 
146272000    295.83949    369.76655    725.70234   -25833.473    25835.067   -355.93579    42.323668 
146276000    259.69733    395.65372    245.18281   -25833.095    25863.012    150.47091    42.368931 
146280000    321.56773    740.18189    582.49081   -25845.755    25849.775    157.69108    42.373002 
146284000    279.84136    486.09217    431.41375    -25836.12    25860.527    54.678419    42.363678 
146288000    286.51845    410.23317    691.75261   -25849.507    25855.981   -281.51944    42.360192 
146292000    240.39475    404.83989     284.9284   -25845.945    25857.887    119.91149    42.375293 
146296000    316.24835    455.77724    128.40418   -25864.646    25864.718    327.37306    42.378642 
146300000     264.6329    1026.3467    322.70337   -25851.833    25867.146    703.64338    42.386308 
146304000    246.47219    363.47938    355.55028   -25865.295    25877.512    7.9291036    42.359697 
146308000    288.04085    670.61563    475.48369   -25885.588    25883.199    195.13193     42.34135 
146312000    277.21075    173.32062    383.94308   -25878.686    25898.516   -210.62246    42.324266 
146316000    291.77178    823.44507    1061.4976   -25871.904     25888.26   -238.05252    42.318468 
146320000    297.70878    227.20081    203.02776    -25879.66    25892.595    24.173047    42.297955 
146324000    279.49362    422.02839    569.79075   -25894.249    25910.928   -147.76236     42.29888 
146328000    288.73231     397.2654    825.37683   -25904.308    25904.183   -428.11142    42.274017 
146332000    323.38736     407.0861    311.90256    -25907.64    25916.164    95.183534      42.2917 
146336000    328.28662    440.60868    553.74156   -25923.608    25919.929   -113.13289    42.307069 
146340000    295.68622    435.10291    550.26787   -25916.039    25917.742   -115.16496    42.306592 
146344000    253.85205    499.74598    263.13957    -25912.85    25930.047    236.60641    42.309659 
146348000     279.8327    267.22353    280.24933   -25929.601     25946.98   -13.025796    42.336473 
146352000     245.9388    205.19756    505.49211   -25937.592    25959.712   -300.29456    42.344077 
146356000    286.23539     543.6736    191.97571    -25943.89    25947.169    351.69789    42.340341 
146360000     278.4905    280.09453    516.13176   -25940.018    25950.954   -236.03723    42.311476 
146364000    290.84374    544.71471    266.83028   -25950.182    25954.216    277.88443    42.300431 
146368000    275.26686    476.39138    200.41924   -25971.396    25979.761    275.97215    42.286985 
146372000    302.88561    825.59625    558.84612   -25977.176    26001.514    266.75013    42.312236 
146376000    291.95022    610.60306    396.75795   -25999.185     26007.57    213.84511    42.293143 
146380000    298.97036    722.17602    189.38864   -26010.076    26011.926    532.78738    42.269213 
146384000    323.36835    471.74635    320.50421   -26014.852    26013.581    151.24214    42.280223 
146388000    310.02244    221.15723    224.84955    -26027.88     26033.13   -3.6923276    42.284735 
146392000    290.30692    474.25009    750.39259   -26042.309    26062.757    -276.1425    42.275916 
146396000    313.80421    263.90941    485.46872   -26058.677    26061.453   -221.55931    42.263401 
146400000    293.04688    295.94723    479.53358   -26064.882    26070.899   -183.58635    42.283588 
146404000    297.87803    266.28295    294.46886   -26073.656     26083.95   -28.185916    42.289682 
146408000    294.21622    342.02413    281.98501   -26080.361    26097.805     60.03912    42.304576 
146412000    293.16731    531.18149    624.77294   -26090.187     26102.69   -93.591452    42.297949 
146416000    301.41575    409.91244     259.6957   -26086.858    26097.194    150.21673    42.310985 
146420000    278.23035    565.53517    374.06113   -26102.895    26096.306    191.47404    42.292665 
146424000    308.94014    691.07843     326.5704   -26126.963    26130.226    364.50803    42.289876 
146428000    281.58361    605.19457    925.63939   -26143.923    26151.894   -320.44482    42.286434 
146432000    323.99716    258.94558    306.62145   -26148.773    26150.197   -47.675873    42.284307 
146436000    316.35819    538.87125    959.79274   -26163.043     26170.14   -420.92149     42.26576 
146440000    297.11272    353.58284    182.21666   -26173.849    26183.791    171.36618    42.267783 
146444000    292.86493    525.76547    134.36015   -26189.164    26205.057    391.40532    42.277716 
146448000    287.95111    910.65711    853.87667   -26171.497    26193.029    56.780443    42.268448 
146452000    284.63326    405.81163    892.91463   -26161.776    26184.623     -487.103     42.27076 
146456000    297.43866    513.02147    406.21811    -26170.86    26188.213    106.80336    42.245753 
146460000     294.1456    509.39061    298.33432   -26181.954    26194.836    211.05629    42.259934 
146464000     290.1977    389.64096    184.63858   -26207.795    26223.771    205.00238    42.260474 
146468000    265.24537    326.15636    519.16977   -26211.482     26233.12   -193.01342    42.234586 
146472000    303.18751    503.09568     666.9066   -26238.979    26244.207   -163.81091    42.244345 
146476000    272.80657    328.45357    420.47713   -26237.576     26250.74   -92.023553    42.243057 
146480000    299.68514    313.92543    370.62598   -26255.918    26275.451   -56.700551    42.250442 
146484000    279.57108    572.06246    260.18817   -26269.344    26283.815    311.87428    42.275465 
146488000    271.96043    180.26985     685.1115    -26267.98    26286.335   -504.84165    42.271959 
146492000    265.49397    268.12445    451.92662   -26272.182    26292.569   -183.80217    42.261832 
146496000    278.52286    612.59802    276.06994   -26285.444    26308.596    336.52809    42.296743 
146500000    284.34607     303.8826    273.53718   -26312.846    26318.445    30.345415    42.314329 
146504000    309.26813    227.22434    711.30322   -26334.085    26335.361   -484.07888    42.293588 
146508000    294.20274    197.10505    491.81139   -26339.684     26351.57   -294.70633    42.259318 
146512000    285.13804    393.75364    852.30537   -26348.685    26356.715   -458.55173     42.20674 
146516000    256.35248    775.72465    775.62785   -26365.374    26380.212  0.096797408    42.194639 
146520000    256.64317    362.13659    325.74174   -26364.032    26383.785    36.394849    42.193362 
146524000    304.40227     301.6574     758.4228   -26371.833    26372.185   -456.76539    42.212592 
146528000    291.59637    1030.2707    119.77562   -26384.866     26395.56    910.49509    42.219837 
146532000    288.93073    874.70581    332.31937   -26391.225     26408.69    542.38643    42.245237 
146536000    281.67321    298.04193    224.83338   -26419.248    26407.015    73.208548     42.22475 
146540000    293.90574    313.07187    747.90172   -26426.446    26420.751   -434.82985    42.179469 
146544000     272.1819    717.00838    553.96607   -26431.865    26454.527    163.04231    42.147224 
146548000    284.85413    423.78226    292.16171   -26424.106    26449.063    131.62055    42.146998 
146552000    281.86028    518.17538    405.08464   -26436.789    26456.423    113.09074    42.156985 
146556000    244.29831    272.86397    489.53041    -26453.25    26473.944   -216.66644    42.169213 
146560000    269.88574    304.66553    503.06617   -26463.199    26474.916   -198.40065    42.176502 
146564000    328.93435    383.57823    582.47307   -26480.392    26483.161   -198.89484    42.175059 
146568000    279.63016    622.99705    550.92413   -26482.524    26509.444    72.072921    42.164382 
146572000     298.9347    459.60304    380.69213   -26517.951     26524.81    78.910909    42.157011 
146576000    280.70813    418.52717    417.63479   -26530.259    26548.636   0.89237851    42.139877 
146580000    314.99614    389.62431    312.13177   -26562.243    26568.222    77.492539    42.162405 
146584000    269.62005    389.91506    199.29923   -26586.692    26598.007    190.61583    42.200565 
146588000    250.90445    1081.1763    131.54543   -26600.095    26630.849     949.6309    42.209953 
146592000    255.21802    570.08174    452.54581   -26614.148    26640.388    117.53592     42.20885 
146596000     280.3581    269.49531    608.36706   -26629.637    26650.307   -338.87175    42.214354 
146600000    269.95947    379.85305    543.81594   -26659.352    26671.611   -163.96289    42.215863 
146604000    298.98782    128.37202    198.63923   -26664.997    26679.321   -70.267214    42.218749 
146608000    264.03016    956.28062    189.54189    -26689.54    26707.916    766.73873    42.233827 
146612000    249.85104    298.21342    182.65725   -26696.812    26714.091    115.55617    42.252452 
146616000    271.67066    644.39603    472.16044   -26714.167    26724.705    172.23559    42.233482 
146620000      277.157    347.03376    404.73657   -26724.368    26733.197   -57.702809    42.240228 
146624000    257.11548    580.09402    260.44574    -26740.59      26756.6    319.64828    42.208645 
146628000    299.69874    354.88535    429.08022   -26752.756    26756.151    -74.19487    42.211225 
146632000     321.7269    234.16127    1010.2684   -26768.271    26754.667   -776.10713     42.23412 
146636000    291.66016    225.95954    565.79299   -26778.885    26776.507   -339.83346    42.244265 
146640000    311.06466    245.96579    378.70767    -26781.27    26801.727   -132.74189    42.229431 
146644000    293.74799    534.65833    427.92062   -26795.698    26797.993     106.7377    42.218424 
146648000    313.52045    418.67871    630.07206    -26792.77    26804.062   -211.39334    42.231385 
146652000    316.40653    263.81574    100.85385   -26798.962    26803.109     162.9619    42.241052 
146656000    275.43509     313.5912    473.58551   -26812.795    26814.887   -159.99431    42.235497 
146660000    288.02229    313.48275    306.54699   -26820.253    26838.914    6.9357539    42.240185 
146664000    260.59416    146.38015    542.42859   -26817.508    26837.529   -396.04843    42.227974 
146668000    244.57921    478.98876    174.18389   -26832.836    26849.186    304.80487     42.21269 
146672000    312.91951    353.19568    396.92832   -26863.675    26863.888   -43.732643    42.203387 
146676000     265.6351    465.02696    266.24995   -26882.596     26893.76      198.777    42.181704 
146680000    280.14782    68.352332    162.73032   -26912.123    26913.985   -94.377991    42.176184 
146684000    276.74325    505.15883    243.12937    -26907.94    26918.879    262.02946    42.187914 
146688000    264.77636    663.39183    333.65923   -26900.157    26920.914    329.73261    42.223086 
146692000    236.48224    405.20949    747.27418    -26901.65    26931.284   -342.06469    42.227457 
146696000     265.6726    203.23642    283.34724   -26914.008    26940.952   -80.110823    42.235493 
146700000    279.81247    249.23588    222.16235   -26925.155    26941.554    27.073527    42.261386 
146704000    301.59902    370.35433    347.50544   -26928.304    26938.773    22.848882    42.240731 
146708000    269.89894    533.15492    207.34906   -26945.001    26963.978    325.80586    42.236002 
146712000    300.81045    561.39352    451.34956   -26958.803    26967.544    110.04395    42.235894 
146716000    286.27842    260.78719    666.40717   -26976.302    26982.687   -405.61998    42.256616 
146720000    319.69644    498.87942    212.88333   -26985.515      27001.7    285.99608    42.231847 
146724000    291.22692    93.885996    384.54156   -26995.677    27005.266   -290.65556    42.228142 
146728000    325.89935    442.86483    218.47918    -27022.14    27021.821    224.38565    42.245801 
146732000    281.13576    321.34069    931.40044   -27029.654    27026.197   -610.05975    42.228182 
146736000    275.69419    388.49882    437.10545   -27021.987    27044.795   -48.606621    42.226227 
146740000    281.20722    882.45422    189.16869   -27026.493    27040.753    693.28553    42.221925 
146744000    290.95935    500.13151    469.58084   -27030.965    27038.297    30.550668    42.212303 
146748000    281.69602    801.04863    270.78403   -27044.096    27064.347     530.2646    42.230747 
146752000    248.40512    315.05191    625.56579   -27041.873    27072.423   -310.51388    42.240952 
146756000    287.29375    544.99627    583.91835   -27066.986    27078.006   -38.922074     42.22284 
146760000      282.924     465.8353    445.73515   -27079.685    27083.802    20.100149    42.212183 
146764000    243.73262    326.42326     344.9015   -27091.998    27120.734   -18.478237    42.225599 
146768000    265.44351    439.22503    214.83538   -27109.943    27132.985    224.38965    42.217726 
146772000    262.43299    111.26226    621.75649   -27121.383    27137.879   -510.49423     42.23921 
146776000    301.76555    708.13241    231.75458   -27132.182     27151.18    476.37783    42.246661 
146780000    328.41073    701.80132    144.32384   -27160.523    27164.122    557.47748    42.248167 
146784000    310.53482    1104.8267    262.01724   -27184.506    27178.042    842.80944    42.248862 
146788000    285.90338    875.55535     620.9417    -27190.86    27202.458    254.61365    42.282046 
146792000    267.63437    583.19473    299.20826   -27219.059    27228.992    283.98647     42.31239 
146796000    263.83861    585.01544    527.55785   -27235.771    27252.976    57.457589    42.345995 
146800000    269.72261    573.12418    525.44029   -27250.935    27256.924    47.683893    42.342156 
146804000    254.41147    824.62785     224.2007   -27261.543     27278.01    600.42715    42.332902 
146808000    293.72676     418.8642    324.41353   -27271.261    27287.251    94.450672    42.338843 
146812000    239.58796    466.91238    457.51672   -27284.966    27310.452    9.3956657    42.348858 
146816000    268.98689     177.9832    300.55968    -27299.49    27324.507   -122.57648    42.318846 
146820000    268.29653    512.01151    115.40342   -27319.082    27345.322    396.60809     42.34635 
146824000    242.19594    426.71079    169.04862   -27334.192    27359.607    257.66217    42.342266 
146828000    272.11075    370.70448    476.30497   -27348.434    27373.231   -105.60048    42.357968 
146832000    232.91531    673.79073    437.36123   -27346.614    27390.323     236.4295    42.350338 
146836000    271.89743     289.0189    469.94578   -27366.106    27391.299   -180.92688    42.336089 
146840000    246.80297    227.87794    509.92973   -27370.131    27386.341    -282.0518    42.340629 
146844000    279.66552    302.41034    321.57958   -27392.684    27405.434   -19.169245      42.3474 
146848000    259.01376    278.10268    110.14638   -27402.017    27425.984     167.9563    42.352559 
146852000    278.24115    432.89125    645.38667   -27395.581    27411.227   -212.49542     42.38018 
146856000    269.24143    320.98117    381.64752   -27407.913    27423.666   -60.666346    42.380438 
146860000    274.04452    153.95028     388.8446   -27415.015    27431.131   -234.89431    42.376582 
146864000    286.65481    331.00895    989.50348   -27424.824     27432.06   -658.49453    42.389962 
146868000    293.97086    287.23862    345.85656   -27452.574    27450.613   -58.617939    42.370235 
146872000     328.8859    353.58364    408.70819   -27459.574    27446.551   -55.124544    42.368181 
146876000    275.26963    498.38723    422.65533   -27457.398    27477.619    75.731896    42.364718 
146880000     270.2859    255.39662    632.44191   -27467.406    27479.706    -377.0453    42.386518 
146884000     276.6679    573.21991     234.6214   -27463.863    27471.517    338.59851     42.36648 
146888000    304.76878    608.33186    1206.4555   -27461.531    27472.868   -598.12364    42.370041 
146892000     267.7235    483.34434    290.06452   -27473.145     27480.25    193.27982    42.364088 
146896000    266.37519    428.17531    335.49635   -27480.738    27508.014    92.678963    42.358013 
146900000    250.04972    454.80961     296.2131   -27470.014    27498.476    158.59651    42.354805 
146904000    300.66998    348.96128    513.97354   -27489.154    27500.779   -165.01226    42.318801 
146908000    292.83875    589.69541    539.16937   -27497.461    27515.568     50.52604    42.315551 
146912000    297.31601    319.16226    169.05397   -27512.193    27534.647    150.10829     42.29662 
146916000    252.22852    104.25084    627.39968   -27525.684    27544.629   -523.14883     42.31278 
146920000    296.28829    913.43696    526.67178   -27551.088    27555.516    386.76518    42.301224 
146924000    308.69821    522.08017    348.53902   -27549.895    27555.512    173.54115    42.294609 
146928000    280.00444    295.70049    291.36538   -27566.258     27576.92    4.3351078    42.302978 
146932000    289.48488    414.07886    291.26119   -27582.776    27587.503    122.81767    42.338388 
146936000    251.94704    471.13276    254.50047   -27596.363    27613.738    216.63229    42.347315 
146940000    244.96287    416.80349     182.9357   -27591.775    27619.887    233.86779       42.361 
146944000    320.42504    542.20877    483.03196   -27602.244    27613.289    59.176815    42.347261 
146948000     278.9694    274.31273    635.98944   -27622.674    27636.927   -361.67671    42.337686 
146952000    299.26421    233.15457    277.76749   -27615.507    27622.624   -44.612922    42.326735 
146956000    236.06339    398.82476     315.3598   -27614.849    27644.103    83.464953    42.358151 
146960000    311.16153    681.27922    414.55367   -27645.566    27646.716    266.72555    42.400551 
146964000    256.76382    862.01483    353.66557   -27659.308    27676.506    508.34926    42.399297 
146968000    278.55148    288.73087    219.26673   -27661.066     27675.87     69.46414    42.412712 
146972000    301.31029    362.22248    206.68439   -27674.239     27684.44    155.53809    42.421182 
146976000    264.91285    360.47312    351.27158   -27677.598    27695.623    9.2015415    42.440851 
146980000     302.3553    238.20112    257.71842   -27682.415    27681.934   -19.517308    42.447311 
146984000    291.20422    519.81022    625.05093   -27698.254     27704.88   -105.24071    42.449899 
146988000    281.65764    543.03314    340.90548   -27709.284     27719.33    202.12766    42.461619 
146992000    290.63638    446.45725    383.86953   -27717.377    27730.163    62.587717     42.46322 
146996000    338.97279    376.58991    305.87542   -27725.675    27729.389    70.714484    42.454231 
147000000    311.98454    806.83109    738.63264   -27726.291     27731.91    68.198455    42.485518 
147004000    272.39399    319.52894    445.82674    -27729.87     27742.63    -126.2978    42.480432 
147008000    266.72648    595.60352    497.67867   -27735.798    27761.817    97.924849    42.484318 
147012000    326.74565    747.05182     883.8178    -27764.11     27773.92   -136.76598    42.469166 
147016000    256.34614    136.03557    625.33485   -27754.747    27775.571   -489.29928    42.439267 
147020000    285.69211    456.34878    279.15452   -27768.224    27788.077    177.19426     42.40884 
147024000    346.64809    663.76122    769.58724   -27782.253    27783.198   -105.82602    42.417598 
147028000    278.82761    253.95986    518.52893   -27787.041    27801.561   -264.56907    42.414103 
147032000    282.84924    425.05798      300.854   -27782.944    27801.811    124.20398    42.431841 
147036000    310.64781    310.59489     370.4725   -27800.562    27804.568   -59.877613    42.417828 
147040000    342.03272    167.85059    633.66898   -27822.745    27812.221   -465.81839    42.409995 
147044000    271.31391    306.17093    292.72402   -27825.349    27850.661    13.446917    42.380027 
147048000    312.91637    597.00582    320.17697   -27847.991    27851.667    276.82885    42.369294 
147052000    325.94366    612.87278    322.08302   -27863.017    27871.553    290.78976    42.355762 
147056000    278.54748    277.25754    337.84275    -27855.15    27876.054   -60.585213    42.339021 
147060000    308.82633     501.3349    831.61622   -27865.256    27878.181   -330.28131    42.340695 
147064000    254.17234    156.81303    515.03919   -27888.593    27910.328   -358.22616    42.346472 
147068000    301.27864    312.97003    302.31654   -27913.534    27924.035    10.653498     42.33566 
147072000    257.08846    419.93781    470.04761   -27927.351    27951.204   -50.109799    42.328539 
147076000    243.88985    1033.0015    479.33063   -27948.883    27984.816    553.67083    42.347401 
147080000    270.29188    430.45646    577.18415   -27973.943    27998.746   -146.72769    42.354059 
147084000    270.06657    557.18221    390.60033   -28004.632    28027.281    166.58188    42.346543 
147088000    237.88806    177.41302     145.2268   -28020.559    28037.443    32.186219    42.345571 
147092000    285.46871    228.88261    90.164065   -28040.574    28052.345    138.71854    42.365578 
147096000    336.81351    213.99153    277.18606    -28073.45    28072.105   -63.194528    42.359192 
147100000    267.85862    362.18943    671.05758   -28073.343    28089.001   -308.86816    42.364614 
147104000    275.82312    208.86815    410.80072   -28063.174    28078.346   -201.93257    42.353537 
147108000     254.1479    472.88292    258.85625   -28078.649    28103.447    214.02667    42.371645 
147112000    324.91803    454.40189    75.774319   -28102.516     28105.66    378.62758    42.368658 
147116000    305.62338     518.4526    510.08531   -28105.954    28120.253    8.3672976    42.362471 
147120000    266.36992    197.97605    501.75981   -28120.654     28138.92   -303.78377    42.342011 
147124000    283.52767    358.05973    555.50502   -28138.931    28159.206    -197.4453    42.347038 
147128000    271.61746    308.32077    405.40863   -28149.825    28168.663   -97.087861    42.341596 
147132000    237.27933    188.03477    212.86928   -28145.759    28176.746   -24.834511    42.319409 
147136000    273.47873    456.20908    550.04896   -28147.429    28171.336   -93.839888    42.296009 
147140000    263.42074    447.31261    671.37469   -28154.143    28171.025   -224.06208    42.279523 
147144000    276.97837    409.94702    357.65541   -28166.118    28175.737    52.291609    42.310529 
147148000    304.69459    231.71799    427.76918   -28159.489    28181.717    -196.0512    42.297641 
147152000    252.00353     603.3773    328.91069   -28171.505    28192.133    274.46661    42.293833 
147156000    277.17784    368.82698    200.84585   -28187.848    28214.018    167.98114    42.272694 
147160000    296.05589    120.87367    468.77376   -28200.665    28224.733   -347.90009    42.284476 
147164000    265.55813     485.9081    245.92539   -28213.321    28236.243    239.98271    42.250519 
147168000    246.79168     406.6707    290.54624   -28208.461    28229.971    116.12446    42.242092 
147172000     240.3883    636.61808    351.79043   -28204.552    28230.352    284.82765    42.258084 
147176000    266.90953    525.60285    301.47575   -28214.732    28233.501     224.1271    42.263979 
147180000     299.6238    341.68773    742.27273   -28242.841    28243.724     -400.585     42.26307 
147184000    281.10536    214.53036    536.20779   -28237.736    28241.781   -321.67744     42.26699 
147188000    276.63825    339.41142    79.556599   -28227.839    28249.493    259.85482     42.26226 
147192000    274.38123    254.26039    433.41033   -28251.709    28269.667   -179.14993    42.239069 
147196000    290.28945    465.19488    487.57746   -28263.035    28279.244   -22.382583    42.225168 
147200000    303.63857     356.1171    636.80081   -28286.095    28297.466   -280.68371     42.24209 
147204000    241.81773    379.21714    358.54125   -28295.249    28301.524    20.675891    42.239263 
147208000    307.81377    457.78635    378.87232   -28295.004    28312.937    78.914034    42.240616 
147212000    295.11957    326.00937    1302.0284   -28292.192    28316.819   -976.01901    42.223846 
147216000    335.47788    610.80176     933.1808   -28312.234    28311.404   -322.37904    42.255401 
147220000    224.15919    155.30908    467.34476   -28324.974    28355.303   -312.03568    42.241074 
147224000    312.29343    397.00149    457.56078   -28359.847    28366.173   -60.559288    42.221267 
147228000    246.41397    176.75703    401.76831   -28362.064    28372.475   -225.01129    42.209915 
147232000    243.20912    457.59908    346.50682   -28361.956    28386.638    111.09226    42.204186 
147236000    275.55026    550.60295     169.0493   -28387.262    28408.963    381.55364    42.209543 
147240000    273.52316    1260.5751    389.95864   -28402.629    28416.048    870.61642    42.217767 
147244000    303.39325    334.84617    132.04595    -28424.32    28434.595    202.80023    42.212318 
147248000    271.57302    621.21145    563.30743   -28430.348    28449.065     57.90402     42.19451 
147252000    279.10201    207.82395    822.47583   -28437.615      28449.8   -614.65188    42.178872 
147256000    287.08578    489.95095    744.37123   -28461.876    28477.378   -254.42028    42.190283 
147260000    330.15412    232.14953    212.23294   -28491.153    28494.956    19.916596    42.210216 
147264000    296.07927     632.9492    531.57932   -28503.611    28498.392    101.36988    42.238759 
147268000    337.56791    306.22742    931.73448   -28504.553    28492.378   -625.50706    42.253817 
147272000    258.90232    291.09473    161.69638   -28503.318    28519.244    129.39835    42.244134 
147276000    301.77475    1157.1186    442.94253   -28482.801    28507.654    714.17607    42.221996 
147280000    282.99852    638.52174    574.23441   -28494.615     28505.08    64.287337      42.2337 
147284000    288.42092    622.11787    489.06893   -28521.552    28529.822    133.04894    42.227707 
147288000    251.40654    473.39795    137.16671   -28526.273     28545.95    336.23125     42.23305 
147292000    279.44202    148.40988    208.66482   -28538.734    28558.598   -60.254936    42.243987 
147296000    258.18257    482.34742    120.26827   -28547.585    28561.875    362.07915    42.250627 
147300000    262.65215     238.1116    707.28956   -28540.949    28575.345   -469.17796     42.24213 
147304000    273.27864    455.98149    369.20263   -28557.839    28588.535    86.778865    42.243705 
147308000    358.87167    383.26201    449.64827   -28571.721    28574.558   -66.386262    42.236517 
147312000     319.4024    302.10238    741.08635   -28572.378    28583.765   -438.98397    42.237377 
147316000    231.69419    311.64097    225.21039   -28573.653    28604.199    86.430576    42.246709 
147320000    295.30402    807.92761    620.40769   -28585.791    28597.345    187.51991    42.259843 
147324000    326.57171    473.93992    460.55519   -28598.773    28591.008    13.384735    42.239878 
147328000    300.48634    308.12454    241.32196   -28592.872     28606.08    66.802583    42.221252 
147332000    263.30992    302.19906    311.99282   -28615.731     28636.22   -9.7937506    42.210571 
147336000    295.90145    457.84987    572.08114   -28628.794    28647.119   -114.23126    42.228041 
147340000    257.99088    294.28429     249.4772   -28631.023    28649.357    44.807086    42.233516 
147344000    317.64099    858.99979    537.10948   -28635.626    28649.694    321.89031    42.243238 
147348000    322.44792    728.03819    717.02885   -28646.672    28653.899    11.009339     42.24286 
147352000    297.28198    508.45264    766.72811   -28661.709    28673.939   -258.27547    42.223762 
147356000    299.86181    327.88147    240.77046   -28687.643     28686.79    87.111012    42.219251 
147360000    293.36112    423.85856    99.699671   -28692.886    28694.438    324.15889    42.177898 
147364000    232.03271    513.01794    337.16273   -28689.728    28719.046    175.85521    42.207585 
147368000    305.55669     686.2234    1039.1902   -28689.076    28712.176   -352.96681    42.191651 
147372000    271.53795    455.91161     426.9691   -28707.899    28722.342    28.942501    42.209293 
147376000    277.78158    459.85649    312.37698   -28725.821    28738.335    147.47951    42.208832 
147380000    296.58415    611.27404    345.54979   -28736.414    28747.003    265.72425    42.219934 
147384000    252.41142    234.31777    1031.3767   -28728.375    28757.979   -797.05895    42.208791 
147388000    268.05379    608.42807    41.708542   -28755.741    28764.729    566.71953    42.218641 
147392000    277.34394    615.96928    253.58193   -28751.905    28764.684    362.38735    42.230573 
147396000    345.27066    893.46602    586.60758   -28782.157    28774.593    306.85844    42.242369 
147400000    310.95616    306.66558    465.99844    -28798.62    28805.578   -159.33286    42.246856 
147404000    251.61376    531.73029     461.6488   -28799.376    28827.713    70.081495    42.232189 
147408000    282.56066    731.81591     560.9905   -28798.426    28823.308    170.82541     42.22638 
147412000    305.96747     559.6444    282.82043    -28813.68    28806.089    276.82397    42.202875 
147416000    293.80541    862.86645    730.02506   -28796.006    28803.817     132.8414    42.197544 
147420000    294.87482    319.01192    586.05602   -28799.675    28819.482   -267.04411    42.190527 
147424000    261.85025    497.44352    505.65854   -28801.081    28828.616   -8.2150146    42.178971 
147428000    276.54354    589.31045    269.77612   -28816.887    28835.479    319.53434    42.205241 
147432000    244.22121     395.7721     319.4037   -28818.458    28852.962    76.368399    42.202777 
147436000    305.32412    1108.5014    413.89593   -28853.207    28872.456    694.60552    42.220384 
147440000    298.73081    726.33759    262.27716   -28859.734    28875.599    464.06043    42.216255 
147444000    275.88312     785.5381    569.41265    -28866.58     28884.81    216.12545    42.206388 
147448000    289.26719    408.29192    351.80459   -28877.846    28895.901    56.487335    42.210233 
147452000    251.72714    268.10413    248.03069   -28896.143    28909.729    20.073435    42.182845 
147456000    293.58283    477.89952    366.05891   -28918.859    28925.485    111.84062    42.148877 
147460000    269.78422     600.6287    429.15634    -28921.97     28933.64    171.47237    42.151492 
147464000    285.81129    507.10788    288.68222   -28932.006     28942.68    218.42566    42.105305 
147468000    280.22743    448.76452    176.47713   -28939.361    28954.139    272.28739    42.108819 
147472000    306.46089    521.98909    383.00356   -28941.525     28946.59    138.98553     42.12237 
147476000    316.33796    503.43757    606.08497   -28944.102    28948.118   -102.64741    42.128532 
147480000    270.51511    352.86882    621.94318   -28948.491    28958.065   -269.07437    42.145693 
147484000    294.81017    538.76786    418.24962   -28965.457    28977.533    120.51824     42.13524 
147488000    271.13878    476.18483    348.02677   -28971.425    28997.643    128.15806    42.146722 
147492000    247.84425    251.61169    234.24691   -28975.997    29001.345    17.364771    42.146439 
147496000    291.20349    783.20976    435.63964   -28985.219    29004.529    347.57012    42.160826 
147500000    255.72313    163.37491     430.9476   -28993.224    29015.009   -267.57269    42.154597 
147504000    233.66246    273.31977    1069.8251   -29002.544    29036.212   -796.50534     42.13392 
147508000    281.95327     634.5294    47.181136   -29033.521    29042.692    587.34826    42.152207 
147512000    332.32483    613.61537    331.75306   -29050.964    29043.155     281.8623    42.154467 
147516000    282.99136    271.99495     248.4796   -29057.649    29083.472    23.515351    42.144651 
147520000    312.38462    854.68619    275.94365   -29077.234    29091.906    578.74254    42.127526 
147524000    331.91894    1011.5635    578.09422       -29103    29112.736    433.46929    42.116117 
147528000    262.93934    615.42205     657.1792   -29108.916    29133.444   -41.757155    42.107173 
147532000    279.65339    631.23986    204.64078    -29131.25    29134.009    426.59909    42.111926 
147536000    287.14564    672.06737    568.08072   -29137.575    29153.075    103.98665    42.110509 
147540000    292.04223    259.27195    236.48213   -29131.736    29158.812    22.789819     42.10756 
147544000    250.27915    549.78624    140.13094   -29153.795    29170.971    409.65529    42.132837 
147548000    272.37642    270.00826    606.56297   -29172.729    29181.105   -336.55471    42.126871 
147552000     303.8286    479.12929    217.79186   -29193.164    29193.674    261.33743    42.160271 
147556000     259.0697    284.45584    328.70357   -29176.857    29197.589   -44.247732    42.162314 
147560000    286.82682    498.17018    385.64186   -29182.286    29197.814    112.52832     42.17919 
147564000    295.26463    558.56916    217.83021   -29204.484    29221.248    340.73895    42.192338 
147568000    273.93678    387.78468    408.08315   -29208.172     29224.61   -20.298472    42.221766 
147572000    279.91303    769.05728    454.66755   -29238.319    29251.455    314.38973     42.20467 
147576000    324.13124    498.57492    754.83027    -29264.79    29259.478   -256.25535    42.241949 
147580000    297.19134    363.30423    209.35275   -29260.299    29266.969    153.95147    42.233757 
147584000     289.1497    320.42661    279.47445   -29249.542    29272.915    40.952165    42.266233 
147588000    240.99177    573.70477     502.0579   -29257.732    29296.068    71.646871    42.262157 
147592000    280.52731    446.94919     390.8349   -29270.574    29279.724    56.114289    42.274521 
147596000    292.91159    554.12595    629.05904   -29263.491    29284.719   -74.933088    42.271478 
147600000    292.80858    406.20751      773.839    -29279.64    29277.519   -367.63149    42.268269 
147604000    290.74007    114.36989    366.91797   -29293.189    29303.329   -252.54808    42.261598 
147608000    268.52695    279.56082    389.31691   -29315.516    29323.929   -109.75609    42.282109 
147612000    282.57254    464.79183    438.24444   -29320.805    29332.475    26.547392    42.266158 
147616000    295.02531    607.46532    531.20009   -29335.807    29335.438    76.265232    42.270947 
147620000    262.20418    81.186739    333.48528   -29339.123    29354.738   -252.29854    42.285703 
147624000    261.72725    497.08914    266.83278   -29345.524    29365.694    230.25636    42.296175 
147628000    293.93209    286.12714    380.72593   -29370.648    29375.457   -94.598782    42.303535 
147632000    270.34145    191.92109    483.09486   -29368.378    29381.299   -291.17378    42.281431 
147636000    322.66305    183.46106    580.65415    -29391.91    29389.971    -397.1931    42.284526 
147640000    278.97427    188.04757    798.72848   -29371.293    29374.243   -610.68092     42.25342 
147644000    253.20057    246.72177    553.75633   -29382.485     29403.13   -307.03456    42.239463 
147648000    262.04195    223.89277    656.07821   -29395.585    29426.564   -432.18544     42.21217 
147652000    281.35496    635.97762    345.39897   -29413.907    29428.633    290.57865    42.215997 
147656000    229.91657     382.9481    268.79879   -29403.969    29446.463    114.14931    42.241214 
147660000    282.62456    441.18416    255.94815   -29421.594    29433.442      185.236    42.212042 
147664000    260.24923    437.83087    450.43093   -29423.043     29437.86   -12.600055    42.193364 
147668000    291.95154    531.95091    171.11638   -29429.804    29439.874    360.83453    42.172802 
147672000    312.93419    384.75954    456.56023   -29433.666    29439.061   -71.800693    42.171959 
147676000    306.57829    738.53878    210.61528   -29433.763    29440.918     527.9235    42.203281 
147680000    280.87413    797.66665    181.47413   -29438.493    29452.865    616.19252    42.183788 
147684000    332.14377    628.50074    418.19415   -29450.678    29442.789    210.30659    42.158735 
147688000     270.9631    731.04877    149.12956   -29464.087    29463.567    581.91922    42.156782 
147692000    320.35946    387.17705    450.50112    -29482.54    29486.103   -63.324079    42.144217 
147696000    265.11518    201.48122    292.13813   -29477.459    29503.165   -90.656916    42.095909 
147700000    271.21584    759.19896    324.84509   -29486.929    29506.096    434.35387    42.089367 
147704000    304.32819    424.42133    443.39113   -29496.187    29491.737   -18.969801    42.096768 
147708000    275.21316    143.70916     329.4583   -29487.065    29502.658   -185.74913    42.117474 
147712000    286.53044    594.57128     364.9671   -29509.167    29526.101    229.60418     42.13884 
147716000    291.47192    475.23703    851.04653   -29518.724    29534.723    -375.8095    42.153357 
147720000     274.9291    466.96552    186.50392   -29540.117    29561.157     280.4616    42.146565 
147724000    276.08308    363.51752     372.7817   -29552.885     29569.91   -9.2641844    42.148073 
147728000      273.569    333.74609    535.27665   -29547.017    29569.015   -201.53056    42.150453 
147732000    286.58393    267.74883    338.43971   -29576.867    29582.998    -70.69088    42.161815 
147736000    237.33738    262.32747    536.31741   -29597.677    29615.449   -273.98994    42.172142 
147740000    262.99416    701.71281    313.75866   -29609.536    29632.644    387.95414    42.166721 
147744000    322.69351    831.18084    410.95561   -29630.607    29637.814    420.22523    42.150812 
147748000    265.12333    604.34618    230.02343   -29636.102    29647.795    374.32275    42.160006 
147752000    271.74856    441.24669    341.82797   -29640.702    29658.926    99.418724    42.185211 
147756000    290.60798    408.23775    316.01184   -29671.344    29673.181    92.225916    42.169167 
147760000    265.10406    252.04981    242.16593   -29685.446    29717.469    9.8838761    42.155058 
147764000    279.56349    528.83972    344.50133   -29705.847     29726.04    184.33839    42.163873 
147768000    298.37358    397.46392    616.66087   -29721.901    29731.759   -219.19695    42.170298 
147772000    262.73709    327.45204    277.61151   -29732.003    29743.302    49.840537    42.168416 
147776000    299.97134    498.65938     271.2527   -29735.918    29748.022    227.40668    42.167576 
147780000    292.41496    694.40307    656.25296   -29731.601     29745.58    38.150104    42.178581 
147784000    276.38305    332.40964    649.45895   -29741.482     29759.84   -317.04931    42.189972 
147788000     301.4272    514.08643     660.9465   -29734.732    29743.169   -146.86007    42.217786 
147792000    307.57075    311.95236    1042.8975   -29749.015    29744.827   -730.94517    42.205807 
147796000    324.22041    291.57194    419.11032   -29764.568    29772.638   -127.53838    42.201373 
147800000    287.38297    304.46551    233.84902   -29797.643    29807.474    70.616486    42.213352 
147804000    297.14283    844.78132    481.43457   -29808.507    29813.578    363.34675    42.219131 
147808000    258.85388    331.23315    119.64758   -29814.358    29837.419    211.58557    42.208974 
147812000    252.46303    708.83999    840.33828   -29829.201      29853.4   -131.49829    42.189387 
147816000    280.95373    604.48546    321.08828   -29863.018     29875.11    283.39718    42.207482 
147820000    290.67639    383.76008     499.3777   -29860.578    29872.247   -115.61762    42.214991 
147824000    306.83086    999.14553    360.86093   -29875.665    29890.384     638.2846    42.237714 
147828000     292.6684     395.8449    344.62153   -29890.165    29909.622    51.223374    42.263315 
147832000     300.3619    663.08408    487.97752   -29918.181     29927.67    175.10657    42.250887 
147836000    291.11755    475.95834     972.9807    -29909.38    29922.763   -497.02236     42.26216 
147840000    258.26085    428.74265    427.16883   -29914.455    29943.448    1.5738251    42.264246 
147844000    301.38052    490.04199    543.10028   -29933.066    29934.373   -53.058296    42.277635 
147848000    298.42487    443.90607    348.02864   -29933.947    29936.953     95.87743    42.303415 
147852000    315.91102    866.56643     807.0751   -29942.505     29958.82    59.491329    42.319086 
147856000    247.90815    485.75293    896.03573   -29933.074    29960.265   -410.28281    42.329522 
147860000     284.7005    525.21778     477.6875   -29948.607    29971.422    47.530288    42.306997 
147864000    261.03387    277.66037    212.24067   -29967.236    29986.693    65.419693    42.310524 
147868000    276.78502    221.99948    450.27517   -29983.336    30008.833   -228.27569    42.342226 
147872000    267.78221    102.90872    180.44013   -29992.962    30020.293   -77.531411    42.338712 
147876000     261.3782    621.44885    149.28403    -30011.48    30019.085    472.16482    42.322865 
147880000    272.74906    666.00243    261.02191   -30008.566    30028.609    404.98052    42.343193 
147884000    332.32804    722.46909    619.61977   -30036.772    30029.877    102.84931    42.345732 
147888000    320.10192    428.90867      672.295   -30037.994    30045.883   -243.38633    42.356699 
147892000    294.76528    227.49527    393.03129   -30062.765    30072.049   -165.53602    42.354884 
147896000     253.4387    222.16406    316.57763   -30059.604     30080.57   -94.413569    42.351736 
147900000    283.44928    664.81015     574.2887   -30073.958    30093.458     90.52145    42.362593 
147904000    289.44046    534.45749    340.63886   -30080.231    30101.633    193.81863    42.350625 
147908000     328.2307    867.55166    663.13226   -30110.485    30115.321     204.4194    42.345444 
147912000    333.64023    409.95653    554.21506   -30118.781    30119.372   -144.25853    42.342775 
147916000    324.42984    313.58609    576.41343   -30134.946    30153.414   -262.82733    42.355645 
147920000    276.84179    599.29361    229.78285   -30141.805    30169.818    369.51076     42.36308 
147924000    252.89551    84.663777    163.57797   -30156.202    30181.569   -78.914191    42.371387 
147928000    307.81626    892.22451    397.34931   -30172.368    30179.933     494.8752    42.370559 
147932000    264.91767    502.33256    699.02273   -30197.525      30220.3   -196.69017    42.362507 
147936000    281.75566    608.42506    589.30386   -30207.554    30225.156    19.121204    42.377644 
147940000    259.13002    765.81538     385.4987   -30206.565    30225.663    380.31667    42.369235 
147944000    306.19575     493.3426    805.81923   -30227.526    30240.616   -312.47663    42.371429 
147948000    273.80751    448.80489    301.47355   -30239.445    30257.238    147.33134    42.382691 
147952000    288.86784    848.79498    454.15671   -30251.521    30271.898    394.63827    42.394657 
147956000    258.63543      400.841    298.88267   -30252.091    30270.548    101.95833    42.388131 
147960000    303.50132    493.90927    527.59251   -30269.235    30278.943   -33.683232    42.415357 
147964000    242.54701    246.62153    179.99124   -30284.081     30299.32    66.630296    42.419354 
147968000    343.00311    373.71628    627.61022   -30303.061    30303.726   -253.89394    42.396958 
147972000    280.77571    465.78361    521.19346   -30312.674    30315.253   -55.409854     42.40568 
147976000    292.15327     66.95652    852.98509   -30331.291    30336.602   -786.02857    42.425405 
147980000    275.62945     693.7685     317.3825   -30334.166     30352.67      376.386    42.450789 
147984000    267.91336    796.67465    385.07715   -30337.788     30351.42    411.59749    42.479801 
147988000    278.55837    1064.9892    851.12091   -30344.797    30367.213    213.86831    42.462862 
147992000    242.03251    453.12089    247.77026   -30362.087     30384.21    205.35063    42.477908 
147996000    305.84301    686.28977    460.88898   -30372.428    30382.653     225.4008     42.50276 
148000000    245.90983    462.88988    210.89995   -30368.658     30394.07    251.98993    42.492431 
148004000    311.43964    937.58152    666.39146   -30389.493    30390.347    271.19006      42.5126 
148008000    314.93614    757.91398    299.81384   -30390.273    30395.497    458.10014    42.508783 
148012000    262.07929    1003.5315    420.29176   -30374.271    30391.591    583.23974    42.505679 
148016000    298.02565    323.57628     198.9589   -30384.011    30400.332    124.61738    42.495288 
148020000    296.43406    767.51209    125.85574   -30391.356    30396.775    641.65635    42.497409 
148024000    260.22831    231.93094    215.84562   -30395.072    30400.734    16.085315     42.50538 
148028000    286.20984    343.56939    188.84014   -30392.342    30419.295    154.72925    42.511366 
148032000    261.95322    421.29629    648.23895   -30423.335    30444.277   -226.94266    42.496976 
148036000    250.69584    162.00477     352.6784   -30438.818    30458.125   -190.67363    42.508208 
148040000    307.23253    274.80405    412.04638   -30456.564    30464.998   -137.24233    42.505123 
148044000    263.30437    400.25849      290.147    -30468.91    30489.281    110.11148    42.516668 
148048000    339.06779    318.33287    700.87143     -30495.8    30495.393   -382.53856    42.516067 
148052000    246.78265     473.5798    426.69789   -30504.288    30517.436    46.881909    42.506826 
148056000    311.46094    684.66456    200.61564   -30527.626    30531.895    484.04892    42.509915 
148060000    277.96233    302.76498    485.19363   -30526.816    30539.395   -182.42865    42.504463 
148064000     274.4034    158.63027    468.32001   -30551.046    30571.348   -309.68973    42.496298 
148068000    275.75876    618.75928    561.03032    -30574.97    30574.258    57.728955    42.472426 
148072000    258.17435    245.33298    334.48216   -30569.867    30585.743    -89.14918    42.481206 
148076000    267.20304    668.73529    714.12672   -30593.325    30611.395   -45.391427    42.458047 
148080000    285.17068    464.91436    458.13358   -30584.126    30600.385    6.7807746    42.449702 
148084000    323.19744    1079.1034    246.48343   -30613.362    30613.721    832.61998    42.463655 
148088000    260.06696    646.74341    330.64143   -30620.871    30644.612    316.10198    42.452297 
148092000    289.12178    242.81268    420.28586   -30635.975    30652.734   -177.47318    42.445776 
148096000    266.52942    65.921008    299.61896    -30654.99    30672.923   -233.69796    42.420918 
148100000    297.17141    490.34283    312.85804   -30676.349    30678.854    177.48479    42.450822 
148104000    277.58717    554.98715    752.63105   -30675.448    30690.183    -197.6439    42.466556 
148108000    297.47863    986.89387    575.76495   -30690.732    30701.648    411.12892     42.44086 
148112000    260.28343    342.29553    133.76982   -30712.757    30726.567    208.52572    42.460503 
148116000    341.11629     1089.228    497.51809   -30728.338    30726.097    591.70994    42.473744 
148120000    252.05259    462.86012     669.7622   -30733.989    30750.751   -206.90208    42.504915 
148124000    265.58394    272.56641    311.06999   -30744.431    30758.152   -38.503581    42.510254 
148128000    324.16073    273.73095    709.94173   -30771.326    30777.913   -436.21078    42.498827 
148132000    262.55862    352.79216    475.75639   -30764.927    30782.946   -122.96423    42.510034 
148136000    284.06579    329.20113    279.53209    -30764.22    30778.746    49.669037    42.522286 
148140000    281.69917    131.86573    852.10444   -30764.762    30779.322   -720.23872    42.516951 
148144000    286.79767    596.03884    284.62113   -30785.034    30791.115    311.41772    42.502648 
148148000    303.38723     224.5493    524.91853   -30789.526    30803.813   -300.36923    42.500732 
148152000    318.86971    368.78117    581.52511    -30796.52    30796.747   -212.74393    42.509597 
148156000    262.19116    309.30252     813.3823   -30791.765     30800.54   -504.07979    42.541733 
148160000    236.77966    562.15304    350.51893   -30778.422    30808.726    211.63411    42.538707 
148164000    275.11221    259.12375    636.71618   -30784.055    30806.533   -377.59243     42.53567 
148168000    313.43306    740.43335     300.4874   -30828.777    30834.469    439.94595    42.530341 
148172000    256.94456    228.62404    151.47402   -30803.813    30847.519    77.150016    42.550876 
148176000    283.78064    542.07724    323.55077    -30845.44    30860.841    218.52646    42.544739 
148180000     343.6725     542.1741    705.95597   -30865.485    30863.702   -163.78187    42.544527 
148184000    242.51329    130.96791    504.95006   -30866.982    30900.742   -373.98215    42.548255 
148188000    265.39591    386.69979    482.77369   -30900.919    30921.647   -96.073899    42.557093 
148192000    278.70787     273.4645    188.29516   -30920.241     30926.22    85.169343    42.532621 
148196000    263.02289    665.26236    475.94484   -30927.753     30951.29    189.31752    42.532869 
148200000    256.86847    260.12095    326.19783   -30946.301    30955.285   -66.076885    42.556531 
148204000    287.44228    533.35321    880.80667   -30946.731     30967.25   -347.45345    42.572349 
148208000    279.26337    300.64759     391.1621   -30969.757    30970.355   -90.514503     42.57139 
148212000    276.72215    763.59861    395.41843   -30968.636     30989.85    368.18018    42.579459 
148216000    259.57158    506.08058    403.26181   -30978.078    30997.745    102.81878    42.562585 
148220000    284.70097    261.81091    644.26019    -30974.88    30988.809   -382.44928    42.558561 
148224000    260.59057    541.25312    413.17846   -30982.933     31009.35    128.07466    42.563913 
148228000    288.14347    459.46094    270.23009    -31007.09    31017.031    189.23085    42.554299 
148232000    272.15486    571.27953    590.48076   -31013.106     31037.57   -19.201234    42.552138 
148236000      272.003    434.72933     413.5813    -31043.76    31055.791    21.148031    42.570814 
148240000    269.82454    424.25405    266.42566   -31047.332    31058.429     157.8284    42.551135 
148244000    375.19509    534.23461    481.30778   -31077.465    31063.593    52.926828    42.521358 
148248000    298.09602    497.90226    300.16904   -31080.143    31079.258    197.73322      42.5234 
148252000     304.7451    481.02546    577.41283   -31098.858     31091.15   -96.387364    42.504759 
148256000    289.98988    282.53709    798.99294   -31090.593    31095.357   -516.45585    42.503187 
148260000    273.58618    607.50277    434.37464   -31107.223     31124.67    173.12813    42.499921 
148264000    281.47741    1080.7806    1072.1673   -31110.446    31120.857    8.6133046    42.514292 
148268000    253.69883    285.06997    434.85743   -31103.216    31122.775   -149.78746    42.512215 
148272000    300.79785    439.25831    718.52132   -31117.423    31131.272   -279.26302    42.511896 
148276000    255.66719    124.74567    467.62787   -31120.529    31142.732    -342.8822    42.460467 
148280000    280.14346    229.44197    352.42582    -31127.93    31143.482   -122.98385    42.462498 
148284000    330.75934    508.53504     1009.618   -31145.377    31137.392     -501.083    42.439447 
148288000    290.37914    693.12992    467.03127   -31160.031    31172.389    226.09865    42.444762 
148292000    289.79215    571.61322    557.13853   -31180.552      31186.1    14.474691    42.441553 
148296000    255.42985     598.1951    114.50171   -31192.089    31224.297    483.69339    42.437869 
148300000    269.91359     402.2539    480.64822   -31206.408    31225.633   -78.394316    42.454795 
148304000    245.73785    184.33212    477.33813   -31229.629    31256.459   -293.00601    42.451326 
148308000    277.38022    627.52344    114.99355   -31246.886     31267.98     512.5299    42.447416 
148312000    271.36054    617.52188    622.62912   -31260.254    31273.769   -5.1072484    42.423726 
148316000    285.23767    724.48079    559.05847   -31278.977    31296.056    165.42232     42.41252 
148320000    274.55951    260.42747    224.15655   -31303.579     31317.64    36.270922    42.423839 
148324000    295.74243    226.19745    319.16587   -31306.615     31322.51   -92.968422    42.445162 
148328000    325.42155    267.92807    624.03046    -31318.57    31326.872   -356.10239    42.425615 
148332000    293.07302    701.52925    532.04071   -31341.915    31351.165    169.48854    42.428279 
148336000    276.67212    523.16652    345.47253   -31349.287    31361.565    177.69399    42.426975 
148340000    293.98107    595.46097    419.74719   -31362.819    31372.338    175.71378     42.41538 
148344000    294.10675    408.94808    491.96978   -31372.163    31386.335   -83.021702    42.412786 
148348000    266.28412    206.50169    748.13068   -31384.637    31403.197   -541.62899    42.414021 
148352000    267.68268     226.0705     658.1902    -31407.14     31417.76    -432.1197    42.395659 
148356000    268.06998    378.41742    242.48544   -31414.986    31438.151    135.93198    42.389362 
148360000    270.15036    475.92179    355.10395   -31411.071    31430.459    120.81784    42.378595 
148364000    277.79103    607.18136    194.55521   -31438.672    31451.612    412.62615    42.365459 
148368000    294.70693    746.54985    509.98765   -31454.502    31469.965     236.5622    42.342647 
148372000    326.81575       153.24    753.76707   -31453.986    31452.978   -600.52708      42.3492 
148376000    278.41686    1117.6319    399.45556    -31467.26    31473.583    718.17632    42.350229 
148380000    297.50428    304.48839    683.40114    -31477.47    31474.098   -378.91275     42.35287 
148384000    278.25444    462.88679     762.8777   -31473.879    31486.907   -299.99091    42.343926 
148388000    311.31171     525.7627    438.93424   -31499.904    31501.166    86.828458    42.327223 
148392000    292.26937    203.34774    140.05354   -31501.185     31505.42    63.294193    42.335903 
148396000    280.99549    458.91786    445.23473   -31502.112    31520.111    13.683128    42.327385 
148400000    279.64198     564.8858    428.47473   -31528.766    31537.218    136.41106    42.342937 
148404000    269.65157    449.03469    597.38532   -31522.637    31538.708   -148.35064    42.336758 
148408000    238.03256    305.68902    535.44901   -31516.978    31550.676   -229.75999    42.333034 
148412000    304.77569    317.59045    342.11192   -31541.312    31545.714   -24.521471    42.333648 
148416000    304.05406    155.43351    718.17049   -31538.138    31539.536   -562.73698    42.335739 
148420000    296.07394    489.32256    512.40071   -31553.686    31553.205   -23.078151    42.350103 
148424000    302.68265    754.02699    347.05262   -31568.696    31575.492    406.97437    42.367671 
148428000    258.77514    570.83203    403.70446   -31575.842    31595.356    167.12757    42.377736 
148432000    247.76077    250.21807     184.9444   -31580.449    31607.586    65.273674     42.39248 
148436000    313.72036    291.64653    676.43472   -31609.405    31600.327   -384.78818     42.37973 
148440000     308.5576    726.65448    897.07453   -31626.694    31636.967   -170.42005    42.365769 
148444000     327.1073    550.03991    278.53152   -31634.416    31637.455    271.50839    42.362685 
148448000    313.98832    613.70869    546.21008   -31644.281    31650.692    67.498618    42.358564 
148452000    289.86654    767.01576    393.02929   -31655.673     31671.59    373.98647    42.361659 
148456000    272.59593    350.16904      347.152   -31666.621    31681.669    3.0170463    42.350714 
148460000    255.98026    807.41264     396.2735   -31677.709    31690.845    411.13913     42.35856 
148464000    312.96596    677.34259    477.57782   -31680.109    31695.931    199.76477    42.317073 
148468000    303.10474    549.42713    822.37978   -31693.292    31693.434   -272.95265    42.331812 
148472000    347.62131    260.16672    503.79563   -31720.381    31714.419   -243.62891    42.336775 
148476000    317.59626    509.80582    632.68252    -31740.71    31736.539    -122.8767     42.33916 
148480000    300.98361     543.5563    454.48324   -31745.007    31755.783    89.073064    42.347613 
148484000    318.96823    210.89437    745.50454    -31756.63    31756.744   -534.61017    42.353767 
148488000    310.26824    699.10066    749.47221   -31775.201    31776.843   -50.371548    42.343326 
148492000     320.4603     1426.299      529.725   -31787.937    31795.889    896.57399    42.317478 
148496000    283.87666    381.61447    461.09278    -31798.36    31806.713   -79.478306    42.328537 
148500000    260.67948    184.74263    568.43188   -31796.309    31810.174   -383.68925    42.322378 
148504000    282.54733    232.19217    385.82971   -31795.784    31806.281   -153.63754    42.342838 
148508000    285.70152    193.13414    487.15847   -31800.519    31807.868   -294.02433    42.322959 
148512000     281.6403    545.01642    524.34642   -31819.818    31828.477        20.67    42.325282 
148516000    294.54715    649.84596    248.48619    -31812.52    31834.237    401.35976    42.343499 
148520000    271.04798    325.64012    143.52145   -31827.881    31839.696    182.11868    42.352009 
148524000     283.7646    314.71544    433.40636   -31837.193    31852.472   -118.69092     42.35102 
148528000    285.85803    785.97332    146.57386   -31853.263    31863.101    639.39946    42.341633 
148532000    284.30635    644.03377    413.21152   -31860.581    31874.332    230.82225    42.337757 
148536000    294.16847    432.36075    369.86592   -31868.819    31881.429    62.494829    42.348782 
148540000    332.60432    464.26772    308.69506   -31883.526     31883.81    155.57265    42.316524 
148544000    281.33325    804.18575    602.49448   -31900.943    31914.412    201.69127    42.277703 
148548000    292.05523    377.68092    391.99978   -31911.812    31936.706   -14.318857    42.291088 
148552000    284.54835    544.40624     354.1675   -31916.814    31934.787    190.23875    42.285091 
148556000    280.27559       530.04    234.84405   -31930.528     31948.88    295.19595    42.300154 
148560000    286.78473    206.85273    795.98509   -31927.682    31944.112   -589.13236     42.28455 
148564000    273.68569     417.0376    734.07703   -31946.977    31955.652   -317.03944    42.294433 
148568000    267.52999    317.52366    206.76947   -31948.256    31970.536    110.75419    42.277664 
148572000    299.30492     356.1439    288.76138   -31966.627    31974.533    67.382521    42.325227 
148576000    283.44675    337.10461    425.88481   -31988.548    32002.228   -88.780198    42.317902 
148580000    301.05934    454.27248    306.02531   -32016.412    32022.138    148.24717    42.318184 
148584000    277.41765    143.54161    123.26285   -32028.158    32050.304    20.278755    42.290768 
148588000    292.86479     494.1725    445.84291   -32024.349    32040.279    48.329585    42.298847 
148592000    312.32285    680.75084    1172.5176   -32022.482    32037.865    -491.7668     42.30842 
148596000    284.54016    175.63562    521.49923   -32028.081    32052.142   -345.86361    42.325001 
148600000    261.56899    419.55182    658.88911   -32036.087    32060.636   -239.33729    42.330645 
148604000    307.00815    598.85044     257.5265   -32060.497    32057.546    341.32393    42.329079 
148608000    259.83485    368.80551    86.809919   -32059.824     32070.68    281.99559    42.362402 
148612000    318.44273     401.3186    488.02815   -32090.455    32084.876   -86.709546    42.375247 
148616000    259.95247    682.91009    507.69089   -32088.628    32107.323     175.2192    42.381812 
148620000    302.63008    469.06085    175.99323   -32109.639    32113.332    293.06762    42.396746 
148624000     269.6058    349.76556    371.36464   -32115.513     32134.84    -21.59908    42.394696 
148628000    256.79835    236.11962    369.56451    -32113.42    32147.764   -133.44489    42.394432 
148632000    280.51355     440.3413    314.44615   -32128.135    32151.969    125.89514    42.415664 
148636000    264.32765    515.98604    272.37845   -32128.754    32144.926    243.60759    42.429422 
148640000    264.62438    355.10788    354.73475   -32134.565    32144.553   0.37313306    42.432162 
148644000    248.40421    130.09006    665.72673   -32131.121    32159.761   -535.63668    42.430115 
148648000    304.54775    189.51882    867.26187   -32143.716    32155.554   -677.74305    42.441199 
148652000    271.12996    251.33209    393.97272   -32149.007     32162.26   -142.64063    42.440878 
148656000    267.38771    427.65823    440.22707   -32153.331     32182.23   -12.568847    42.450702 
148660000     294.8816    394.52599    450.39135   -32179.097     32181.93   -55.865363    42.451533 
148664000    289.63303    858.08573    347.15299   -32198.667    32202.518    510.93274    42.456334 
148668000    269.79378      381.374    284.73716   -32206.026    32228.134    96.636834    42.450422 
148672000    286.76152    338.18517    148.22295   -32224.263    32240.479    189.96222    42.460169 
148676000    254.58587    140.55387    160.02756   -32226.432    32245.813   -19.473689    42.438643 
148680000    288.56287    408.04195    183.55681   -32242.784     32243.02    224.48514    42.447297 
148684000    274.57138    369.30031    283.32126   -32239.745    32253.732    85.979059    42.467795 
148688000    272.43783    443.04519     414.2519   -32245.451     32258.68    28.793295    42.488289 
148692000     283.4291    489.55355    208.02892   -32259.678    32269.636    281.52463    42.480692 
148696000      294.811    339.89026      581.551   -32269.633    32275.049   -241.66074    42.472379 
148700000    316.83375    429.13791    508.27097   -32277.976    32285.159   -79.133055    42.474988 
148704000    318.67506    184.93419    606.56122   -32289.329    32286.956   -421.62702     42.46648 
148708000    296.15675    545.35545    432.47724   -32265.873    32280.023     112.8782     42.44126 
148712000    333.93002    696.79608    412.24691   -32278.827    32276.624    284.54917    42.416525 
148716000    284.76916    493.68246    417.10683   -32287.734    32294.545    76.575635    42.412757 
148720000    295.57125    417.50469    369.31698   -32276.858    32288.482    48.187702    42.412901 
148724000     291.0498    410.23859    297.97245   -32272.995    32275.317    112.26614    42.415566 
148728000    285.42038    194.04172    409.24139   -32279.621    32295.914   -215.19967    42.409913 
148732000    260.75631    608.01055    441.84187   -32296.153    32315.897    166.16867    42.443558 
148736000    264.41965    220.61381    346.27321   -32297.937    32313.846    -125.6594    42.417523 
148740000    307.07617    337.95292    287.91778   -32323.361    32332.922    50.035144    42.433682 
148744000    289.21067    1083.7571    259.55537   -32333.282    32344.037    824.20169    42.452507 
148748000    254.28429    374.78468    192.58774    -32336.32      32357.4    182.19693    42.474489 
148752000     294.9451    327.36403    289.21287    -32365.84    32382.994    38.151163    42.442654 
148756000    257.57103    341.77991    191.72397   -32393.615    32406.002    150.05594    42.412577 
148760000    314.04005    317.01383    335.00103   -32392.562    32399.915   -17.987204    42.402702 
148764000    275.77414    383.17852    523.24149   -32386.886    32412.071   -140.06297     42.40773 
148768000    263.03601    555.93028      510.798   -32400.159    32424.677    45.132281    42.366993 
148772000     288.2597    884.15679    554.81668   -32424.237    32430.312    329.34012     42.35522 
148776000    279.39175    680.22723     429.8466   -32427.622    32443.556    250.38063    42.359661 
148780000    312.25543    530.31708    371.12929   -32438.916    32446.424    159.18778    42.367583 
148784000    286.45326    214.96593    187.25059   -32448.829    32454.532    27.715343    42.359001 
148788000    278.97536     378.0833     302.7669   -32450.588    32481.951    75.316393    42.328803 
148792000    240.39441    478.03102    160.49488   -32447.759     32471.49    317.53614    42.323158 
148796000    244.31496    304.42192    791.86549   -32462.241    32494.552   -487.44357    42.310212 
148800000    253.07385    346.74195    403.22353   -32504.085    32513.189   -56.481582    42.291659 
148804000    272.21251    434.35431    391.27593   -32504.055    32513.854    43.078388    42.299271 
148808000    273.06263    217.29274    504.38021   -32512.572    32522.049   -287.08746    42.307707 
148812000    308.19862    259.15887    203.55121   -32527.836    32536.026    55.607655    42.322289 
148816000    272.29087    263.74009     236.5769   -32545.489    32553.871     27.16319    42.319448 
148820000    285.98535    728.93828      237.387   -32575.316    32583.364    491.55128    42.305747 
148824000    283.46408    680.20538    535.99789   -32586.163    32599.891    144.20748    42.316177 
148828000    263.02095    296.17719    416.85206   -32597.549    32608.858   -120.67488     42.29979 
148832000    271.52179    149.11302    435.98196    -32586.76     32602.25   -286.86894    42.324821 
148836000    314.61187    480.85614    728.32706   -32594.457    32605.403   -247.47093    42.299258 
148840000    258.00149    670.11948    205.61067   -32590.209    32621.339    464.50881    42.310786 
148844000    230.29698    191.95424    203.98939   -32597.197    32624.446   -12.035154    42.317934 
148848000    268.63421    324.13734    201.97323   -32620.024    32646.836    122.16411    42.299502 
148852000    222.53796    421.55389    561.93752   -32624.619    32656.113   -140.38362    42.272138 
148856000     249.1337     255.2667    651.65739   -32642.128    32666.801   -396.39069    42.254566 
148860000     301.8301     241.9492    530.62763   -32671.219    32684.818   -288.67844    42.246166 
148864000    288.51778    672.89539    621.56654   -32691.678    32696.653    51.328855    42.254017 
148868000    291.78406    379.31124     387.5981   -32686.628     32700.66    -8.286856    42.239619 
148872000    274.80466    373.92382    389.64016   -32690.033    32702.969    -15.71634    42.232609 
148876000    283.65112    715.56803    393.68712   -32702.237     32711.59    321.88091     42.26329 
148880000    308.83247    401.85117    317.17284   -32702.329    32712.694    84.678329    42.255199 
148884000    273.26176    266.25791    554.96142   -32724.402     32734.09   -288.70351    42.236941 
148888000    257.85889    606.84235    394.31754   -32739.188    32754.745    212.52482    42.208401 
148892000    265.87799    568.04204    882.67922   -32746.378    32766.021   -314.63718    42.206552 
148896000    307.16883    190.27281    654.44479   -32757.812     32768.56   -464.17198    42.191534 
148900000    264.54928     784.3955    282.69718   -32782.496    32786.859    501.69831    42.187509 
148904000    273.29626    306.05659    702.87376   -32794.166     32816.93   -396.81717    42.182046 
148908000    296.04685    550.39466    292.87344   -32819.967    32816.412    257.52122    42.182868 
148912000    309.16078    743.20529    335.97724   -32804.574    32814.396    407.22805    42.184634 
148916000    339.05248    201.34987     487.3063   -32811.032    32811.049   -285.95642    42.172005 
148920000     255.0786    170.51492    582.25511   -32792.563    32819.415   -411.74019    42.201797 
148924000    261.99447    340.26513    596.75147   -32812.254    32836.619   -256.48634    42.191013 
148928000    257.26829    515.23846    518.23305   -32827.472    32847.973   -2.9945921     42.19967 
148932000    263.51597    373.66958     622.6938   -32827.418    32859.181   -249.02422    42.213428 
148936000    273.66612    625.46434    252.11674   -32852.109    32868.588     373.3476    42.249442 
148940000    274.14053     490.5393    369.68659   -32890.272    32905.283    120.85271    42.272423 
148944000    263.74219    564.14938    603.66232   -32885.838    32904.946   -39.512942    42.274405 
148948000    284.48035    585.02304    384.65091   -32890.063     32908.46    200.37213    42.266229 
148952000    317.84086    536.52504    166.81771   -32899.836     32909.57    369.70733    42.273094 
148956000    287.74553     465.5039    413.29203   -32930.018    32943.397    52.211874    42.282986 
148960000      269.671     189.3278    602.76366   -32930.673    32954.895   -413.43586    42.263385 
148964000    280.22966    240.26897    39.334662   -32952.194    32972.062    200.93431    42.250076 
148968000    298.91697    1277.7879    358.25591    -32974.42    32984.334      919.532    42.290767 
148972000    259.35386    857.42497    181.38982   -32977.756    32996.608    676.03515    42.290643 
148976000    241.87295    424.68568    325.58469   -32956.313    32981.855    99.100988    42.285011 
148980000    339.80858    350.66388    833.01812   -32991.952    32981.691   -482.35424     42.27887 
148984000    288.30212    429.74643    329.27567   -32988.806    32997.143    100.47077     42.29086 
148988000    236.56532    377.62887    505.02493   -32992.488    33009.762   -127.39606    42.298978 
148992000    296.55292     984.9076    511.44267   -33020.094     33018.15    473.46493    42.294952 
148996000    247.31403     405.7032    359.58422   -33038.435    33059.318    46.118979    42.292672 
149000000    312.01705    820.47051    1262.9388   -33057.051     33060.92   -442.46825    42.300378 
149004000    316.73461    307.16694    358.79606   -33087.078    33091.116    -51.62912    42.299624 
149008000    260.97801    377.18351    200.98351   -33107.583    33115.614        176.2     42.28981 
149012000    236.67724     438.1705    195.05523   -33116.787    33131.815    243.11528    42.295815 
149016000    276.62415    514.76348    850.85956   -33135.194    33158.965   -336.09608    42.270874 
149020000    333.91337     651.1717    1313.0016   -33159.624    33157.317    -661.8299    42.288653 
149024000     310.5275    364.82973    462.00639   -33174.669    33176.276   -97.176656    42.280929 
149028000    275.23189    448.02396    374.69296   -33159.393    33177.639    73.331001    42.281451 
149032000    287.92702    722.43571    225.96678   -33181.953    33190.566    496.46893    42.320845 
149036000    256.87726    547.49975    533.68591   -33191.668    33207.762    13.813842    42.332945 
149040000    283.40502    574.47284    478.40559    -33187.95    33207.734     96.06725     42.32383 
149044000    309.42996    645.28888    666.09103   -33211.786    33217.682   -20.802151    42.311238 
149048000    285.06275    295.30422    370.34068   -33201.903     33224.41   -75.036465    42.295032 
149052000    309.67763    379.13572    305.30143   -33214.406    33224.255    73.834294    42.331068 
149056000    246.15092    568.81593    335.81464   -33205.375    33229.486     233.0013    42.352972 
149060000    300.72512    945.22528     635.5723   -33242.815    33240.449    309.65297    42.351457 
149064000    299.68709    388.79352    471.94294   -33244.273    33249.695    -83.14942    42.327975 
149068000    276.66333    522.07483    666.26788   -33257.746    33281.943   -144.19305    42.318114 
149072000    247.87856    876.99793    405.68561   -33275.663    33288.609    471.31232     42.32838 
149076000    327.12192    1094.7051    431.94666   -33288.287    33288.327    662.75844    42.340734 
149080000    288.21748    349.87203    227.88425   -33283.117    33285.964    121.98779    42.323975 
149084000    254.35564    523.44808    615.93272   -33295.919    33321.539    -92.48464     42.31615 
149088000    291.14469    197.06449     703.5178   -33300.671     33316.31   -506.45332    42.321689 
149092000    313.71506    574.49663    1078.8995    -33321.94    33329.893   -504.40287    42.331502 
149096000    245.15725    402.61008    243.30538   -33317.651    33341.582     159.3047    42.349249 
149100000    279.40968    426.90947    147.60831   -33330.325    33339.207    279.30116    42.357739 
149104000    291.17141    178.63871    771.65964    -33350.28    33359.699   -593.02093    42.359716 
149108000    244.39532    406.35869    405.00073   -33363.029    33384.006    1.3579541    42.362757 
149112000     255.7759    470.14969    508.25514   -33368.685     33392.02   -38.105455     42.35792 
149116000    281.22645    235.64639    400.26684   -33389.971    33403.178   -164.62045    42.354603 
149120000    268.96541    531.31551    168.72787   -33399.299    33424.059    362.58765    42.352603 
149124000    305.25263    207.39829    393.92026   -33421.649    33419.853   -186.52196    42.334408 
149128000    266.52967    822.19081    243.97232   -33440.428    33456.725    578.21849    42.309761 
149132000    300.83746    237.81715    398.30475   -33455.446    33470.567    -160.4876    42.318548 
149136000     261.5445    354.15128    265.24202   -33467.802    33488.492    88.909255    42.298634 
149140000    270.69699    291.74615    544.24258   -33482.492    33502.505   -252.49643    42.307497 
149144000    295.47719    206.64612    624.31412   -33491.602    33505.902     -417.668    42.314804 
149148000    311.84121     203.3821    122.66615   -33498.024    33508.705    80.715942    42.298028 
149152000    314.44789    346.89324    382.64399   -33510.727    33504.293   -35.750747    42.293571 
149156000    262.78259    70.318826    524.53487   -33516.723    33532.052   -454.21605    42.281579 
149160000    286.09285    817.16054    366.80307   -33514.535    33540.388    450.35747    42.297743 
149164000    281.87738     690.6765    685.06464   -33521.715    33534.896    5.6118586     42.27462 
149168000    259.38635    564.99093    396.66344   -33540.325    33550.422    168.32748    42.253851 
149172000    301.25093    1094.2508    432.41898    -33556.94    33555.479    661.83183    42.261824 
149176000    304.98781       518.86    307.95574   -33565.783    33572.639    210.90426     42.27238 
149180000    284.43709    214.24826    390.71423    -33569.02    33572.622   -176.46596    42.280375 
149184000    309.01966    479.85397    262.33693   -33599.127    33598.725    217.51704    42.258315 
149188000    293.12409    512.97743    515.54515   -33614.746    33629.242   -2.5677221    42.230197 
149192000    281.13743    556.45674    642.36342   -33628.188    33652.203   -85.906683    42.247178 
149196000    250.47606    289.47192    229.21385   -33633.632    33657.825    60.258072    42.231455 
149200000    279.49421     488.9228    584.80628   -33668.473    33669.058    -95.88348    42.231454 
149204000    298.11872    484.19859    468.31307   -33668.104    33674.074    15.885527    42.207547 
149208000    284.26003    226.07079    257.79616    -33670.92    33693.356   -31.725373    42.222277 
149212000     271.7498    142.95042    343.07906   -33664.794    33679.932   -200.12864    42.216998 
149216000    265.72312    276.77296    288.30157   -33661.698    33673.968   -11.528607    42.191863 
149220000    312.74412    334.89613    250.49214   -33687.284    33684.435    84.403981    42.181162 
149224000    290.37763    283.62005    367.85462   -33695.355    33694.168   -84.234566    42.175095 
149228000    295.19312    540.42313    421.10114   -33680.661    33698.392    119.32199    42.190928 
149232000    296.88077    652.95038    689.96622   -33678.762    33690.641   -37.015842    42.190962 
149236000    280.53138    244.77995    112.42868   -33677.803    33688.444    132.35127    42.204891 
149240000    268.02125    305.32157    512.13602   -33688.141    33708.267   -206.81445    42.204405 
149244000    276.15847    233.02156    592.12457    -33704.38    33721.659   -359.10301    42.188626 
149248000    296.36198    240.87689    313.56185   -33720.985    33740.932   -72.684963    42.191617 
149252000    301.49126     843.4678    412.69608   -33724.218    33746.083    430.77172    42.199318 
149256000     259.3811    363.29481    454.23448   -33725.516    33742.973   -90.939676    42.173428 
149260000    297.45306    942.83329    412.18378   -33746.297    33744.613    530.64951    42.149825 
149264000    307.18287    851.91701    165.11079   -33759.995    33756.328    686.80622    42.141249 
149268000    333.82517    593.89009    713.44275    -33792.66    33785.116   -119.55265    42.133686 
149272000    299.17049    884.41828    292.65542   -33807.677    33817.336    591.76286    42.135926 
149276000    246.94797    214.00682     254.3584   -33824.733    33864.166   -40.351575    42.149417 
149280000    252.24153    590.80887    1056.9187    -33840.36    33866.616   -466.10981    42.149978 
149284000    244.32949    399.63681    381.39783     -33848.9    33875.965    18.238987    42.140865 
149288000    297.27664    819.68666    374.86003   -33859.676     33875.36    444.82663    42.156766 
149292000    301.52305    192.74729    299.35175   -33867.631    33884.635   -106.60445    42.161715 
149296000    262.36881    467.63672    686.01966   -33874.188    33876.844   -218.38294     42.17202 
149300000    283.44939    507.61301    296.02886   -33888.642    33903.434    211.58414    42.125018 
149304000    304.36698    755.99028    119.63806   -33908.385    33906.684    636.35222    42.122441 
149308000    282.96753    258.07138    523.21898   -33908.259    33933.171    -265.1476    42.118467 
149312000    313.41064    791.11644     450.0536   -33927.269    33943.304    341.06284    42.125661 
149316000    258.20392    578.42376    214.22479   -33926.257    33957.045    364.19896    42.101799 
149320000    303.74434    242.58289     603.8725    -33938.05    33946.759   -361.28961     42.09938 
149324000    287.10026    622.47539    827.08494    -33940.57    33959.536   -204.60955    42.118945 
149328000    283.26242     404.1168    446.82265   -33963.801    33977.134   -42.705853    42.117244 
149332000    296.92919    513.63984     313.4441   -33965.112    33963.021    200.19574    42.111544 
149336000    253.98514    227.62905    410.70141   -33960.015    33974.824   -183.07236    42.076605 
149340000    265.92373    602.52948    202.85921   -33969.129    33992.334    399.67027    42.103734 
149344000    313.68723    913.99624    163.17015   -33990.619    34000.731    750.82609     42.13103 
149348000    287.29519    669.89511    334.90548   -34009.131     34019.34    334.98964    42.143139 
149352000    316.72285    177.72907    555.66545    -34040.22    34039.598   -377.93638    42.126924 
149356000    261.49664     549.4062    480.22847   -34062.016      34068.8    69.177726    42.114032 
149360000     300.4869     630.7917    325.95144     -34071.3    34083.307    304.84025    42.120924 
149364000    305.77077    328.21858    498.57622   -34089.346    34097.134   -170.35764     42.13386 
149368000    306.55277    887.18361    352.56702   -34099.079     34109.42    534.61659    42.139439 
149372000    270.02437    544.17544    838.59876    -34115.82    34119.003   -294.42332    42.131235 
149376000    299.78688    612.93777    144.04263   -34112.933    34123.216    468.89514    42.134015 
149380000    289.14762    581.77292    255.13502   -34118.576     34121.37     326.6379    42.118506 
149384000    297.81697    290.29894    559.57061   -34129.937    34133.888   -269.27167    42.147134 
149388000    327.52309    774.34944     595.5451   -34143.134    34146.557    178.80434    42.148419 
149392000    270.10011    251.24515    622.27366   -34160.706    34173.988   -371.02851    42.124158 
149396000    281.89669     722.5707    662.61933   -34184.544    34196.651    59.951367    42.132694 
149400000    290.48403    635.35845    593.13605   -34192.988    34214.385    42.222398    42.129427 
149404000    284.37002    267.28473     763.9618   -34207.982    34215.571   -496.67707    42.112254 
149408000     290.3503    477.63964    637.69781   -34233.335    34240.598   -160.05817    42.121497 
149412000    311.00887    285.10285    324.04634   -34246.806    34251.865   -38.943491     42.14385 
149416000    236.63878    435.45786    381.62902   -34260.059    34268.842     53.82884    42.160547 
149420000    263.15965    356.45965    161.03501   -34261.772    34274.636    195.42465    42.160789 
149424000    288.53067    544.91841    235.75056   -34276.974     34292.45    309.16784    42.175952 
149428000    275.84331    698.96366    259.47672   -34292.384    34297.323    439.48694    42.196839 
149432000    238.83594     314.4934    160.79619   -34299.305    34311.687     153.6972     42.18224 
149436000    244.51801      200.285     132.0018   -34303.204    34325.724    68.283201     42.16286 
149440000    292.30269    425.52619    257.34693    -34330.28    34341.605    168.17926    42.164374 
149444000     260.0091     238.2638    658.97032   -34367.022    34376.024   -420.70652    42.171283 
149448000    310.68585    446.64127    551.68687   -34380.237     34371.42    -105.0456    42.145305 
149452000    336.20562    986.43643    793.41731   -34407.772    34387.822    193.01912    42.161191 
149456000    325.90963    214.77521    908.83202   -34400.043    34401.943   -694.05681    42.153868 
149460000     287.4152    201.10473     294.7196   -34419.743    34417.645   -93.614874    42.146432 
149464000    306.03343    475.09423    560.09226   -34430.969    34429.354   -84.998033    42.147014 
149468000    276.29559    560.41358    258.67072   -34431.003    34446.434    301.74286    42.151353 
149472000    269.93745    272.25062    617.41338   -34446.652    34465.989   -345.16276     42.15252 
149476000    321.26299    371.25943    886.01565   -34460.335    34459.969   -514.75621    42.135601 
149480000    344.86845    597.21588    1146.7913   -34477.305    34468.447   -549.57543    42.148986 
149484000    273.29249    535.90109    248.81725   -34474.693    34484.125    287.08384    42.165893 
149488000    294.78682    447.83805     777.6841   -34495.512    34500.433   -329.84604      42.1591 
149492000    296.31281    301.66828    295.56508   -34506.553    34527.089    6.1031968    42.154053 
149496000    272.13244    430.44852    255.68535    -34507.88    34517.847    174.76317     42.15394 
149500000    286.30322     785.3118    252.88573    -34515.51    34535.353    532.42607      42.1537 
149504000    301.02119    321.74695      291.125   -34521.308    34532.096    30.621947    42.160553 
149508000    266.72745    659.91893    328.31556   -34522.199    34547.178    331.60337    42.168814 
149512000    295.89317    164.15362    339.85919   -34542.945    34548.284   -175.70557    42.171757 
149516000    305.51159    344.55018    398.79128   -34546.122     34556.99   -54.241097    42.197602 
149520000    296.44282     330.7627    431.37697    -34555.35    34558.862   -100.61428    42.203112 
149524000    278.75895    508.86936    472.65217   -34568.976    34582.857    36.217197    42.227509 
149528000    282.93383    422.82863    795.98946   -34563.049    34578.203   -373.16083    42.253477 
149532000    283.34584    185.15235    879.35944    -34578.72    34586.562   -694.20709    42.235823 
149536000    261.68271    565.58063    374.36447   -34580.187    34604.294    191.21616    42.206238 
149540000    270.86475    675.68337    701.78859    -34596.88    34603.081   -26.105224    42.224773 
149544000    265.86299    345.67346    369.22447   -34602.281    34618.913   -23.551016    42.219716 
149548000    257.64132    340.12108    229.67787   -34602.897    34624.245    110.44321    42.213032 
149552000    277.79978    698.01016    412.03171   -34630.096    34636.622    285.97845    42.210505 
149556000    278.47305    628.75835    374.43314   -34636.115    34647.414    254.32521    42.200406 
149560000    257.24881    364.83257    736.43506    -34640.19    34664.143   -371.60249    42.216541 
149564000    288.97396    337.29791    172.12176   -34647.812    34663.421    165.17615    42.193388 
149568000    283.40248     141.8546    300.92823    -34663.36    34677.918   -159.07363    42.216209 
149572000    330.04515    711.52753    383.32195   -34674.609    34668.019    328.20559    42.239289 
149576000    315.13989     469.3767    155.16891   -34670.984    34677.039    314.20779    42.253823 
149580000    328.23394    228.83666    247.06548   -34703.669    34689.623   -18.228821    42.246177 
149584000    281.22627    725.14114    134.95526   -34713.083    34721.048    590.18588    42.247942 
149588000    280.82119     553.7506    180.15491   -34718.496    34722.979    373.59569    42.238037 
149592000    277.10121    372.70424     363.9303   -34713.255    34728.205    8.7739448    42.231908 
149596000    300.77591    524.27604     312.9866    -34715.32    34716.803    211.28944    42.262524 
149600000    259.97939    266.50716    208.29255   -34722.154    34732.679    58.214616    42.289025 
149604000    298.85566    505.24307    300.71416    -34745.75    34755.593     204.5289    42.288867 
149608000     270.1752    893.07333    310.62356   -34744.381    34771.099    582.44976    42.294988 
149612000    303.71775    575.92391    340.75425   -34787.411    34781.062    235.16966    42.287796 
149616000    288.71651    753.12154    324.92334   -34780.668    34802.237     428.1982    42.285113 
149620000    278.49045    598.86809    449.48178   -34791.691    34806.523    149.38631    42.259219 
149624000    298.68833    250.81522    354.79281   -34795.187    34797.537   -103.97759     42.25956 
149628000    281.79447     436.7359    256.99215   -34802.827    34824.027    179.74375    42.258467 
149632000    296.19873    246.64492    511.78984   -34801.003    34816.983   -265.14492    42.251762 
149636000    290.02917    111.89496    461.54357   -34822.986    34837.552   -349.64861     42.25798 
149640000    246.19808    302.12838    314.92161    -34818.98    34847.496   -12.793231    42.267973 
149644000    256.35906    488.04961    171.87494   -34811.328    34840.763    316.17467    42.252446 
149648000    263.47939    291.70268    400.31951   -34815.962    34829.384   -108.61683    42.248727 
149652000    285.50837    309.58254    219.81731   -34830.364    34852.434    89.765229    42.261121 
149656000    310.62895    328.58204    535.90142   -34850.975    34857.889   -207.31938    42.264932 
149660000    297.68764     251.3618    299.08057   -34860.305    34858.309   -47.718763    42.286901 
149664000    307.42601    791.38849    274.39034   -34871.397    34874.042    516.99816    42.329716 
149668000    275.94318    449.68426    535.25446   -34874.063    34890.262   -85.570199    42.362342 
149672000    276.08803    503.91225    239.30719    -34896.28     34911.51    264.60506    42.354185 
149676000    279.16054    436.00035    307.99796   -34904.102    34918.486    128.00239    42.324054 
149680000    250.46655    380.95144    687.07386   -34892.748    34916.348   -306.12242      42.3025 
149684000     288.7602    738.18259    364.03564   -34907.782    34916.902    374.14695    42.310843 
149688000    315.35554     557.0593    609.10974   -34935.071     34939.16   -52.050439    42.298307 
149692000    285.72942    460.77047    1036.9816   -34935.632    34950.558   -576.21113    42.294451 
149696000    288.89373    569.61539    209.10038   -34950.134    34960.559      360.515    42.288963 
149700000    305.37265    659.81659    603.35982    -34943.74     34952.97    56.456768    42.292957 
149704000     269.3345    424.25589    358.24524   -34931.062    34950.406    66.010652    42.298357 
149708000    258.63366    432.31941    321.93637   -34937.973    34960.875    110.38304     42.29045 
149712000    280.30695    459.80786    394.61706   -34946.313    34965.482    65.190802    42.302767 
149716000    268.67116    209.82678    726.69344    -34961.03    34981.122   -516.86665    42.285813 
149720000    288.44606    495.49139    700.02224   -34974.232    34983.892   -204.53085    42.271077 
149724000    303.43874    572.92105    448.45242   -34988.803    35007.224    124.46863    42.268594 
149728000    299.30216    292.55676    254.50414   -34996.167    35012.111    38.052621    42.275911 
149732000    267.23603    375.14384    256.23859   -35007.578    35026.055    118.90525    42.253223 
149736000    307.80268    323.55213    624.68167   -35029.972    35025.718   -301.12954    42.221353 
149740000    294.60882    442.06051    703.89275   -35043.529    35057.645   -261.83223    42.237118 
149744000    275.86195    661.80904    341.98179   -35051.562    35061.502    319.82725    42.233191 
149748000    304.00637    690.49459    566.62547   -35048.881    35061.244    123.86911    42.223663 
149752000    247.08635    452.93398    507.08219   -35058.018    35083.743   -54.148205    42.206643 
149756000    324.36726    524.81768    286.67014   -35082.927    35085.176    238.14754    42.194384 
149760000    267.49199    322.14209    252.38765    -35066.94    35079.016    69.754439    42.205899 
149764000    290.12944    308.98992    152.77583    -35055.57    35065.178    156.21409    42.213575 
149768000     301.2969    381.70813    527.52964   -35060.597    35067.341   -145.82151    42.213748 
149772000    285.58613    469.30117    653.24296   -35062.635    35073.954   -183.94179    42.232035 
149776000    258.69543    628.61648    870.86019   -35079.623    35108.044   -242.24371    42.202477 
149780000    261.17845    455.79889    399.05647   -35092.151    35110.628    56.742426    42.182196 
149784000    344.53153    288.01676     410.0312   -35102.972    35099.541   -122.01444    42.202476 
149788000    296.81417    434.97657    622.69507   -35110.215    35122.454    -187.7185    42.189495 
149792000    269.37139    435.01064    1027.1904   -35125.389    35146.267   -592.17977     42.17774 
149796000    298.25524    486.56632    231.86891   -35149.291    35157.032    254.69741    42.160409 
149800000    285.88607     514.7076    184.46101    -35158.59    35168.529    330.24659    42.165323 
149804000    260.73017     373.5519    916.81281   -35163.975    35192.371   -543.26091    42.158268 
149808000    305.01855     610.4936    729.54651   -35186.219    35200.938   -119.05291    42.155132 
149812000    275.58308    588.60266    247.25498   -35187.113    35195.723    341.34768    42.150745 
149816000    259.96457    189.69721    228.19243   -35193.113     35217.28   -38.495229    42.129412 
149820000    339.20645    582.40937     392.2232   -35202.488    35201.324    190.18616    42.137391 
149824000    266.43549    460.78504     295.2841   -35210.914    35224.445    165.50094    42.117521 
149828000    297.53522    545.88395    412.48961   -35216.588    35234.856    133.39434    42.104802 
149832000    289.63577    285.00863    198.91929   -35211.553    35238.832    86.089345    42.101858 
149836000    280.53688    796.22756    246.89845   -35223.886     35235.91    549.32911    42.123813 
149840000    307.56611    805.61251     342.6136   -35235.297     35236.23    462.99891    42.115527 
149844000    264.12215    245.29222    430.23947   -35230.493    35244.185   -184.94725    42.128175 
149848000    275.06118     411.9411     223.3327   -35234.252    35258.448    188.60839    42.133805 
149852000    282.76147    623.35151    389.13765   -35234.276    35241.909    234.21386    42.140703 
149856000    264.79583    434.88068    325.94736   -35242.072     35258.91    108.93332    42.122866 
149860000    300.96552    230.85975    414.28495   -35270.319    35274.237   -183.42519    42.120955 
149864000    311.99004    817.55341    279.80025    -35263.48    35276.925    537.75315    42.128612 
149868000    275.53174    491.82804    301.64789   -35254.914    35273.001    190.18015    42.133994 
149872000    287.34764    548.38253    159.20949   -35259.992    35265.749    389.17303    42.156044 
149876000    300.79273    458.99761    465.91177   -35279.943    35282.275   -6.9141556    42.137963 
149880000    293.38776     358.4931    324.13862   -35287.643    35295.258    34.354481    42.146747 
149884000    288.09165     408.2276    252.19656    -35295.96    35304.365    156.03104     42.13166 
149888000    298.85364    421.96304    142.91599   -35289.134    35297.299    279.04705    42.139925 
149892000    276.81443    357.29722    165.76989   -35285.788    35308.598    191.52733    42.130762 
149896000    317.95054    694.29997    471.15016    -35305.85    35316.087    223.14981    42.118786 
149900000    274.14185    421.41185     100.9754   -35304.737    35327.967    320.43645    42.124581 
149904000    267.44749    740.07432    281.69717   -35310.296     35337.82    458.37715    42.150626 
149908000    274.82065    122.73626    418.42761   -35329.015    35347.244   -295.69134    42.149575 
149912000    303.00119    394.05738    109.04192   -35346.066    35361.701    285.01547    42.155821 
149916000    310.87248    926.08059    295.16827   -35345.617    35340.592    630.91232    42.142705 
149920000    261.90802    168.84334    182.70442   -35338.983    35363.026   -13.861083    42.106886 
149924000    282.33344    952.19481     312.3978   -35359.102    35377.455    639.79701    42.114249 
149928000    277.20055    823.18116    387.95125   -35392.197     35400.24    435.22991    42.109767 
149932000     273.1974    381.60292      920.522   -35400.131    35404.452   -538.91907    42.096477 
149936000    255.57088    336.67091     516.1374   -35394.381    35416.183   -179.46648    42.090013 
149940000     271.1763    420.35238    570.23078   -35406.745    35436.743    -149.8784    42.074105 
149944000    257.18141    212.82976    422.55469   -35409.895    35431.994   -209.72492    42.081698 
149948000    261.19218    814.28139    222.06812   -35429.664    35434.976    592.21326    42.088084 
149952000    263.15182    107.27858    331.87805   -35427.607    35447.202   -224.59947    42.083831 
149956000    313.60451    775.70223    163.10632   -35459.792    35463.554    612.59591    42.101473 
149960000    268.13146    303.17052    436.70234   -35460.773    35481.869   -133.53182    42.079371 
149964000    284.29036    513.66202    603.67585   -35480.118    35493.643   -90.013833     42.07962 
149968000    293.42158    231.86514    570.14255   -35494.366    35504.645   -338.27741    42.057258 
149972000    310.79374    351.82086    667.95274   -35502.412    35513.045   -316.13187    42.040124 
149976000    272.45339     486.3179    389.91037   -35506.824    35526.847    96.407531    42.053701 
149980000    310.86003    297.82526    365.25872   -35520.961    35529.646   -67.433465    42.044159 
149984000     296.3669    410.43321    433.15499   -35541.019    35552.669   -22.721781    42.074036 
149988000    287.86889    377.85076    675.21508   -35541.009    35553.555   -297.36432     42.07825 
149992000    318.33309    467.51302    1013.4949   -35550.827    35554.374   -545.98189     42.05639 
149996000    323.72371    221.32217    743.43324   -35571.277    35559.855   -522.11108    42.058947 
150000000    287.79052    260.17165    421.20668   -35571.045    35570.046   -161.03503    42.053737 
150004000    294.21535    579.91188    217.23862   -35571.811    35585.401    362.67326    42.044826 
150008000    273.29034    196.53488    272.66726   -35586.682    35605.395   -76.132386     42.05662 
150012000    314.96127    423.97686     217.6607   -35617.976    35618.543    206.31616     42.05209 
150016000    285.62862    673.05206    345.78433    -35618.25    35640.134    327.26773    42.036496 
150020000    309.85172    454.93793    654.59251   -35640.063    35644.987   -199.65458    42.040255 
150024000    294.01024    164.87732    317.20705   -35635.805    35653.672   -152.32972    42.025882 
150028000    319.58138    403.57556    723.01322   -35668.948    35666.124   -319.43766     41.99778 
150032000    306.07554    355.99618    301.23845   -35673.529     35682.06    54.757731    42.008555 
150036000    282.13657    610.56491    797.58031   -35694.038    35700.298    -187.0154    42.003634 
150040000    295.47018    335.90996    399.15222   -35707.395    35724.426   -63.242261    41.993243 
150044000    323.06871    459.49727    255.47698   -35713.076     35718.07    204.02028    41.973071 
150048000    253.12031    107.99433    196.32984   -35697.024    35730.922   -88.335505    41.963621 
150052000    281.69551    739.40949    445.82226   -35716.921    35728.169    293.58723     41.97381 
150056000     296.9731    247.44048    384.36533   -35730.439    35735.401   -136.92484    41.989931 
150060000    291.93077    320.22316    669.33927   -35740.774    35749.351   -349.11612    41.984466 
150064000     292.1716    574.36467    217.47204   -35735.139    35749.828    356.89263    41.979482 
150068000    279.00397    1070.9083    710.94731   -35738.433    35765.849    359.96097    42.001256 
150072000     282.1425    496.54744    527.05345   -35737.376    35758.636   -30.506012     42.00327 
150076000    266.75773    660.39339     201.6942   -35741.963    35765.826     458.6992    42.012276 
150080000    287.66348    770.24644    375.19353   -35744.418    35764.164    395.05291    42.009611 
150084000    256.96131    484.46853    394.20886   -35763.074    35784.328    90.259667    42.005493 
150088000    275.41828    262.23622    291.94388   -35793.794    35789.496   -29.707658    42.006763 
150092000    266.73651    356.79571    259.95494   -35788.946    35814.315     96.84077    42.018485 
150096000    237.37635    395.60732    791.23794   -35800.631    35829.116   -395.63061     42.01801 
150100000    297.45585    388.81429     446.8178   -35827.023    35839.914   -58.003511    42.021489 
150104000    246.57637    521.27726    235.29782   -35836.675    35854.018    285.97944    42.044652 
150108000    237.33776    527.77438    649.37053   -35840.482    35870.359   -121.59614    42.044636 
150112000    270.29449    568.67729    273.18357       -35847    35872.223    295.49372     42.07417 
150116000    283.69423    606.37455    311.81648   -35860.475    35876.787    294.55807       42.087 
150120000    266.32134     557.8322    414.04759   -35876.843    35896.307    143.78461    42.091455 
150124000     282.6473    380.52509    234.48698   -35892.278    35915.017    146.03811    42.073276 
150128000    287.78379     784.1286    422.49103   -35915.626    35932.834    361.63757    42.062425 
150132000    264.02233    424.26658    261.76942   -35914.613    35941.819    162.49715    42.072846 
150136000    278.71931     250.8782    307.32469   -35917.217    35933.376    -56.44649    42.084784 
150140000    264.17907    378.65662    377.97579   -35911.212    35935.523   0.68083222    42.097728 
150144000    266.02758    274.79552    169.34623    -35927.34    35957.084    105.44929    42.089101 
150148000     329.7911     229.1082     398.4893    -35948.64    35948.552   -169.38109    42.083923 
150152000    277.88253    328.25007    421.58395   -35945.274    35963.563   -93.333881    42.072346 
150156000    289.62504    264.94255    368.89948   -35949.761    35952.296   -103.95693    42.065851 
150160000    283.03425    267.96857    676.48104   -35967.801    35967.727   -408.51247    42.071719 
150164000    284.61132    270.63873    354.71704   -35966.551    35986.723   -84.078305    42.081356 
150168000    289.23457     219.1325    882.47823   -35986.741    36008.426   -663.34572     42.08228 
150172000    254.71734    204.50713    419.20508   -35989.566    36013.606   -214.69795    42.072432 
150176000    317.05983    603.44387    287.50584   -35998.484    35996.162    315.93803    42.099454 
150180000     291.4416    713.10843    349.02159   -36002.895    36013.099    364.08684     42.11785 
150184000    253.37173    664.31006    313.91796   -36010.166    36033.223     350.3921    42.116049 
150188000     296.3665    434.56625    511.03472   -36028.453     36033.27   -76.468466    42.101708 
150192000    276.47011    143.22582    409.23715   -36023.382    36045.384   -266.01132     42.11238 
150196000     285.4314    220.65254    350.43159   -36039.748    36057.563   -129.77905     42.12447 
150200000    295.42502    585.66418    538.21307   -36056.921     36066.34    47.451116    42.113431 
150204000    216.48094    376.80775    614.58792   -36045.199     36083.34   -237.78017    42.108982 
150208000    264.21512    612.19548    201.36203   -36076.501    36105.732    410.83345    42.111622 
150212000     332.6583     597.3855    646.67941   -36107.067    36114.971   -49.293914    42.104519 
150216000    257.32727    282.40929    223.32863   -36123.977    36140.144    59.080663    42.096063 
150220000    264.91307    373.10127    423.50804   -36153.134    36163.314   -50.406768    42.114483 
150224000     279.4288    651.70753    510.34399   -36142.288    36161.542    141.36353       42.118 
150228000    271.96821     353.4124    399.82498   -36145.532    36165.901   -46.412579     42.11281 
150232000     249.8691    186.96144    264.71902   -36150.852    36179.139   -77.757577    42.118373 
150236000    293.49776    898.41055    524.24952   -36174.333     36177.67    374.16103    42.142203 
150240000    306.92971    438.30602    390.79662   -36179.215    36184.604    47.509401    42.136862 
150244000    263.36199    772.06185    419.54648   -36188.744    36213.471    352.51537    42.171342 
150248000    253.86676    363.25434    399.76726   -36181.702    36207.168   -36.512923    42.167927 
150252000    270.49261    163.78201    299.63458   -36188.891     36214.85   -135.85257    42.195297 
150256000    281.39422    531.71501    727.00927   -36205.808    36220.877   -195.29426    42.164359 
150260000    293.39125    608.74179    380.71402   -36227.957    36230.613    228.02777    42.166837 
150264000    281.67973    324.61118      275.062   -36238.883    36253.267    49.549181    42.154427 
150268000    304.78905    749.84013    507.74035   -36261.464    36259.807    242.09979    42.150392 
150272000    264.80553    681.18776    268.39456   -36257.766    36288.363    412.79321    42.118091 
150276000    267.42562    358.09453    498.45676   -36279.808    36297.548   -140.36223    42.093225 
150280000    268.18449     534.8567    430.60604   -36295.642    36320.074    104.25066    42.108284 
150284000    250.03235    183.37197    137.74898   -36303.466    36333.521    45.622988    42.108007 
150288000    277.53403    703.38022    343.92301    -36321.94    36332.982    359.45721    42.125124 
150292000    294.44435    603.90262    534.54946   -36331.201    36340.651    69.353153    42.129589 
150296000    296.19881    337.55375    475.94626   -36344.636    36361.691    -138.3925    42.130554 
150300000    294.97113    304.41287     636.7125   -36353.365    36362.954   -332.29962    42.127095 
150304000    312.76736    203.65636    1135.8781   -36377.732    36392.398   -932.22169    42.127811 
150308000    322.26928    509.11172     393.9358   -36387.212    36384.482    115.17592    42.133702 
150312000    266.13479    643.21195    491.69358   -36394.659    36407.856    151.51836     42.13962 
150316000     255.8144    472.04906    871.80654   -36390.368    36413.513   -399.75748    42.132093 
150320000    299.46417    237.94163    333.48238   -36400.331    36421.904   -95.540749    42.112123 
150324000    286.96057    361.24424    824.78188   -36413.766    36425.123   -463.53764     42.11753 
150328000    266.48842     411.8834    362.93566   -36410.674    36438.859    48.947737    42.105854 
150332000     271.4679     243.9028    413.28688   -36421.342    36441.972   -169.38408    42.103687 
150336000    285.11512    609.83306     530.0026   -36431.356    36454.908    79.830455    42.107728 
150340000    314.57141    593.19847    663.38627   -36466.116    36460.029   -70.187802    42.081918 
150344000    299.63266    451.38344    357.76137   -36478.342    36476.961    93.622069    42.092494 
150348000    277.75581    566.97269    370.29711    -36476.56    36489.165    196.67558    42.092409 
150352000    289.35427    625.14577    316.01267    -36483.56    36498.629     309.1331    42.084951 
150356000    293.42677    621.65764    586.40781   -36494.007     36516.54    35.249833    42.099892 
150360000    273.03349    764.26901    795.19658   -36493.303    36519.551   -30.927568    42.099231 
150364000    275.69235    504.59429     445.1289   -36513.107     36525.67    59.465394     42.11204 
150368000    265.26691    150.91978    491.44167   -36507.739    36542.085   -340.52189    42.128163 
150372000    273.11727    417.40702    811.61054   -36519.583    36547.188   -394.20351    42.139337 
150376000    297.71064     475.3611    245.18431   -36550.405    36547.251    230.17679    42.141232 
150380000    325.78438    182.34423    237.32335   -36555.728    36561.231   -54.979119    42.120727 
150384000    284.80813    315.50799    608.14301    -36566.91    36583.871   -292.63502    42.104503 
150388000     237.2617    155.13876     387.5364   -36570.328    36594.249   -232.39765    42.105609 
150392000    289.21349    636.00799    621.37946   -36578.777     36586.74    14.628533    42.100097 
150396000     272.2219    435.12018    524.88527   -36606.839    36624.941   -89.765098    42.093988 
150400000    302.96245    853.87057    379.21319   -36642.222    36638.273    474.65738    42.085647 
150404000    304.00345     349.0544    52.984802   -36663.635    36672.048     296.0696    42.072954 
150408000    252.18523    306.02573      252.643   -36660.342    36678.064    53.382726     42.08251 
150412000    286.05005    101.35773    430.40799   -36683.187    36687.915   -329.05026    42.097584 
150416000    315.54381    747.81822    457.82646   -36707.463    36713.567    289.99175    42.101814 
150420000    318.48575    866.00522    510.04372   -36708.145    36719.336    355.96151    42.113213 
150424000    212.80882    451.47308    244.57537   -36705.552    36741.855    206.89772    42.120935 
150428000    300.04016     518.4719    708.85128    -36716.06    36724.132   -190.37938    42.108241 
150432000    287.14547    724.96002     329.5443   -36737.273    36755.245    395.41572    42.119029 
150436000    280.26096    452.18725    670.14407   -36756.789    36782.577   -217.95683    42.126819 
150440000    232.50675    237.56951    423.54043    -36760.26     36797.02   -185.97091    42.117176 
150444000    243.25923    419.08951    185.62932   -36769.278    36799.047    233.46018    42.130311 
150448000    260.35209    317.46767    637.21597   -36776.049    36803.361   -319.74831    42.135304 
150452000    251.62267    586.16572    345.13764   -36771.582     36808.38    241.02809    42.104853 
150456000    290.41803    545.98671    333.59204   -36780.958    36802.151    212.39466    42.127727 
150460000    301.82541    437.83692    346.91458   -36802.589    36818.982    90.922341    42.128731 
150464000    265.92639    940.04386    176.80452   -36801.168    36816.893    763.23934    42.158089 
150468000      307.384    366.58602    605.24319    -36815.27    36819.327   -238.65716    42.138116 
150472000    299.29005    378.60096    389.99925   -36797.627    36816.374   -11.398283    42.142212 
150476000    265.00942    72.609844    314.91606   -36813.461    36826.888   -242.30622    42.129829 
150480000    268.83036    508.93003    449.73001    -36821.49    36846.641    59.200022    42.146041 
150484000    288.86735     634.0042    208.15844   -36836.529    36852.754    425.84575    42.150386 
150488000    265.47497     315.6169    365.29098   -36847.594    36879.468   -49.674081    42.166434 
150492000    266.27233    475.19559    536.99875   -36871.306    36899.256   -61.803167    42.166322 
150496000    315.17129    168.21248    214.10152   -36898.627    36896.857   -45.889037    42.183481 
150500000    298.28932     626.0591    399.84411    -36904.09    36916.554    226.21499    42.181947 
150504000    252.94982    295.93818    573.01324   -36892.182     36925.71   -277.07506    42.202378 
150508000    289.54503     263.0635    263.74227   -36900.898    36925.752  -0.67876754    42.207717 
150512000    269.51371    459.37927    498.05526    -36912.54    36940.104   -38.675989    42.220031 
150516000    292.27164    486.21911    74.783703   -36933.999    36937.508    411.43541    42.230727 
150520000    267.69069    336.70665     361.8317   -36954.292    36965.587   -25.125056    42.229759 
150524000    280.74623    355.59242    587.26353   -36941.384    36958.563   -231.67111    42.246675 
150528000    227.60223    182.28531    392.14425   -36946.976    36982.787   -209.85894    42.266185 
150532000    298.61601    389.34961    617.96491    -36957.21    36960.708    -228.6153    42.262482 
150536000    251.08048    95.623512    573.08499   -36958.255    36977.696   -477.46147     42.25495 
150540000    241.55902    612.77166    310.86581   -36967.171    36993.151    301.90585    42.240243 
150544000    274.96327    559.24824    628.17381   -36982.923    37007.253   -68.925578     42.22684 
150548000    242.66067    93.312382    523.08922   -36991.463    37020.055   -429.77684     42.21838 
150552000    316.78416    781.62425    343.35578   -37003.148    37003.202    438.26848    42.214224 
150556000    256.90783    314.11492    551.65652   -36992.813    37022.842    -237.5416    42.192167 
150560000    234.05244    230.86876    537.56362   -37000.697    37036.099   -306.69486    42.204679 
150564000    335.02068    479.59387    331.96574   -37043.136    37043.565    147.62814    42.206261 
150568000    327.05072    679.61501    105.20674     -37035.2    37037.898    574.40827    42.202873 
150572000    281.77383    230.18976    537.04603   -37030.794    37044.083   -306.85627     42.18646 
150576000    295.79457    963.09945    360.00507   -37026.795    37038.887    603.09438    42.164248 
150580000    306.37404    268.76177    293.38974   -37043.174    37043.209   -24.627964    42.177778 
150584000    327.56377     422.1291    466.35222   -37051.105    37052.627   -44.223112    42.172509 
150588000    278.66742    222.56607    496.98878   -37070.111    37077.991    -274.4227    42.176822 
150592000    255.62138     397.4599    245.16872    -37076.05    37094.946    152.29118    42.175969 
150596000     289.2896    694.81862    338.25402   -37070.806    37089.895     356.5646     42.17279 
150600000    283.81436    433.09128    211.99405   -37096.523    37113.534    221.09723    42.190139 
150604000    229.13825    418.78622    359.19713   -37088.278    37126.159    59.589098    42.186485 
150608000    331.25886    613.46057    887.08097   -37121.658    37116.767   -273.62041    42.169686 
150612000    260.13357    377.98091     560.1438   -37122.454    37147.134    -182.1629    42.161161 
150616000     340.4949    630.90537    366.53224   -37141.133    37144.024    264.37313    42.163971 
150620000    271.85327    583.21179    384.04604   -37152.045    37161.678    199.16575    42.152855 
150624000     260.7071    480.57929    700.19998   -37158.733    37180.955   -219.62069    42.174277 
150628000    296.85048    232.75284    396.06774   -37170.383    37184.632    -163.3149    42.165304 
150632000    291.40902    1030.5664    273.34207   -37190.634    37203.396    757.22433    42.190271 
150636000    292.05833    174.21224    752.33995   -37194.834    37199.753   -578.12771    42.175445 
150640000    325.39522    285.97492    472.35821   -37205.129    37207.593   -186.38329    42.189236 
150644000    294.05707    672.79002    320.20608   -37227.453    37236.989    352.58395    42.223683 
150648000    320.12791    859.12534    332.57978   -37239.455    37250.507    526.54556    42.235366 
150652000    280.76655    263.76776    514.15095   -37242.664    37247.685   -250.38319    42.238975 
150656000    278.77683    688.48826    336.90144     -37257.3    37275.854    351.58683    42.247569 
150660000    299.00377    366.50713    236.74336   -37257.869    37269.453    129.76376    42.263877 
150664000    326.82372    360.77887    388.03479   -37286.655    37284.827   -27.255922    42.276646 
150668000    302.97464    312.64025    511.57199   -37285.292    37301.247   -198.93174    42.262464 
150672000    314.58955    624.08889    617.61031   -37281.987    37286.342    6.4785756    42.246102 
150676000    310.93263    577.45285    166.15555   -37294.956    37296.311     411.2973    42.229718 
150680000    296.89465    380.03009    692.95061   -37285.598    37292.885   -312.92052    42.256923 
150684000    278.89166    301.37659    300.53926   -37288.561    37292.891   0.83733812    42.230845 
150688000    265.73715    499.72876    537.18965   -37286.261    37303.791   -37.460885    42.196556 
150692000    269.57327    350.69633    433.52493   -37283.094    37302.391   -82.828599     42.19466 
150696000    266.42636    143.87913    507.25719   -37295.794    37309.319   -363.37806    42.192209 
150700000    317.57925    1069.0368    282.79177   -37297.376    37296.752    786.24502    42.181409 
150704000    319.86059    397.29022    803.95963   -37297.185    37291.718   -406.66941     42.18983 
150708000    283.84847    664.67103    893.68886   -37291.482    37309.027   -229.01783    42.177615 
150712000    278.77963    821.02509    599.93186   -37301.421    37329.902    221.09323    42.191693 
150716000    318.49396    667.82131    580.29311   -37311.685     37326.92    87.528194     42.20529 
150720000    238.16912    384.59231    1017.8203   -37306.285    37342.768   -633.22796    42.202661 
150724000     265.2103    299.00518    186.27393   -37324.355    37350.288    112.73125    42.209564 
150728000    310.67248    424.65662    840.46529   -37337.939     37352.26   -415.80867    42.214294 
150732000    254.64789    599.54198    375.36185   -37347.275    37382.976    224.18013    42.209349 
150736000    274.22547     832.6328     254.8206   -37344.529    37369.015     577.8122    42.220364 
150740000    297.94835    858.63283    290.53891   -37354.408    37353.981    568.09392    42.230954 
150744000    239.83035    697.04429    120.19325   -37338.413    37369.019    576.85104    42.231098 
150748000     290.1978    734.68972    61.944706   -37365.033    37370.912    672.74501    42.232359 
150752000    296.51687     616.2235    480.32337   -37371.648    37373.448    135.90013    42.257557 
150756000    301.00947    369.99756      319.433   -37391.988    37400.728    50.564556    42.255437 
150760000    224.30349    445.46504    266.54745   -37396.642    37431.536    178.91759    42.259546 
150764000    281.60149    729.31677    418.14956   -37426.604    37433.564    311.16721    42.269993 
150768000    285.12852    565.01753    403.58043   -37447.086    37460.425    161.43711    42.282443 
150772000    254.10049    481.76319    189.99231   -37450.064    37468.833    291.77088    42.274434 
150776000    252.93957    389.71691    684.19923   -37469.342    37493.272   -294.48233    42.300843 
150780000    298.53016    709.07611    346.78659   -37501.942    37515.217    362.28952    42.312046 
150784000    255.54249    457.10283     350.7087   -37501.531    37526.045    106.39413    42.281068 
150788000    296.48587    885.80668     165.2605   -37517.823    37527.907    720.54618    42.275858 
150792000    235.10424    609.22816    187.41101   -37498.609    37539.163    421.81715    42.275824 
150796000    241.89033    858.14809    336.99564   -37506.519    37529.568    521.15245    42.275686 
150800000    265.46879    364.05292    490.11682   -37523.536    37552.131    -126.0639    42.294002 
150804000    274.93263    294.52707    529.45773     -37541.4    37560.867   -234.93066    42.280867 
150808000    269.82785    420.96164    411.98575    -37543.17    37561.051    8.9758874    42.293187 
150812000    323.74769    651.78055    667.31828   -37562.905    37557.763   -15.537732    42.274254 
150816000    274.65869    534.40138    356.31697   -37562.724    37572.081    178.08441    42.299864 
150820000    234.98499    594.93612    196.79963   -37563.757    37598.368    398.13649    42.305063 
150824000    259.98093    475.94871    425.76263   -37574.979    37600.033    50.186081    42.300255 
150828000    303.85282    634.74646    460.42443   -37595.216     37596.15    174.32202    42.308111 
150832000    275.22113    624.58896    834.48535    -37584.92    37602.809   -209.89639    42.331369 
150836000    293.03795    307.60072    481.95984   -37592.307    37597.166   -174.35911    42.325971 
150840000    265.83238    206.40907    524.81853    -37594.88    37617.429   -318.40946    42.310224 
150844000    297.82602    539.51207    710.10522   -37615.626    37625.004   -170.59315    42.305909 
150848000    270.69906    220.36401    248.80019   -37601.416     37628.04   -28.436186    42.315412 
150852000    287.49553    261.66868    720.60696   -37621.999    37639.607   -458.93828    42.307319 
150856000    287.08851    426.69993    294.27404   -37648.067    37658.973    132.42589    42.316142 
150860000    310.83783    439.42733    1151.0616   -37659.022    37678.357   -711.63426    42.300298 
150864000    275.08814    325.93799    503.25613    -37666.04    37690.507   -177.31814    42.303935 
150868000    266.36098    268.11359    861.67037   -37690.249    37699.608   -593.55678    42.290743 
150872000    252.61213    182.37992    387.47797   -37692.946    37715.319   -205.09805    42.277577 
150876000    274.11675    634.72568    351.27833   -37710.497    37727.179    283.44736    42.283102 
150880000    292.10064    539.22983    870.18806   -37720.704    37736.174   -330.95823    42.268312 
150884000    285.37041    576.37346    394.24604   -37715.196    37733.546    182.12742    42.277905 
150888000    249.51297    399.84688    163.82979   -37737.697    37766.765    236.01709    42.271209 
150892000    262.71991    337.01134    205.32206   -37759.897    37778.694    131.68928    42.276333 
150896000    322.64817    452.03455     508.5975   -37772.598    37787.787   -56.562952    42.272871 
150900000    261.13566    759.41276    294.99112   -37772.315    37795.507    464.42164    42.276023 
150904000    280.08705    357.31184    537.89232   -37780.817    37793.294   -180.58048    42.291955 
150908000    313.93491    1041.9186    591.84531   -37800.276    37799.694    450.07324    42.291304 
150912000    279.54904     605.4069     1131.351   -37806.932    37822.382   -525.94414    42.299284 
150916000    252.90679    532.01859    453.67157   -37820.374    37838.892     78.34702    42.289725 
150920000    277.05062    220.35478    560.21057   -37809.552     37825.95   -339.85579    42.288755 
150924000    251.64966    161.47586    300.00218   -37809.483    37830.948   -138.52633    42.290982 
150928000    291.04667    540.75425    764.11619   -37832.953    37854.394   -223.36194    42.276711 
150932000    300.93782    576.18966    396.31813    -37856.71    37857.584    179.87152    42.260485 
150936000    328.50926    647.86187    243.93704   -37854.967    37855.727    403.92483     42.27642 
150940000    328.14534    343.11706    732.71598    -37875.85    37864.395   -389.59892    42.266413 
150944000    294.65973    306.39817    431.17144    -37882.36    37894.673   -124.77328    42.265733 
150948000    281.56854    753.96784    349.58614    -37905.97      37920.4    404.38169    42.244751 
150952000     245.0176    244.92502    168.03355   -37907.221    37941.676    76.891471     42.24487 
150956000    201.85667    352.49488    233.43992    -37907.58    37955.195    119.05497    42.237776 
150960000    302.67406    288.66252    113.36026   -37936.877    37949.366    175.30226    42.223944 
150964000    323.10118    311.80212    548.46894    -37967.08     37969.98   -236.66682    42.220263 
150968000    282.34187     426.3373    314.86759   -37962.965    37989.267    111.46971    42.203451 
150972000    299.26631    474.23837    419.96906   -37974.828    37997.021    54.269306    42.219631 
150976000    246.66212    256.91956    399.38044   -37984.363     38012.79   -142.46088    42.220961 
150980000    278.25144    470.69973    448.61685   -38006.936    38012.192    22.082882    42.237387 
150984000    265.56733    730.22715    339.07603   -38023.428    38047.115    391.15112    42.236281 
150988000     290.7428    302.81121    372.32219   -38046.573    38061.344   -69.510978    42.230416 
150992000    297.16787    299.77373    299.61667   -38045.902    38035.811   0.15705465    42.248336 
150996000    272.49929    524.80078    476.14394   -38038.306    38038.621    48.656838    42.254398 
151000000    253.43671    621.75404    305.83029   -38030.738    38049.794    315.92375    42.248891 
151004000    295.05473    404.39428    552.99254   -38050.462    38062.014   -148.59826    42.247231 
151008000    299.76085    232.93206     282.5655   -38061.385      38065.5   -49.633443    42.245363 
151012000    278.27972    424.13846    537.43497   -38056.468    38070.458   -113.29651    42.233983 
151016000    321.03007    945.83266    482.26209   -38079.977    38079.781    463.57057    42.225853 
151020000    260.74163     378.1627    658.62915   -38093.373    38112.078   -280.46645     42.23381 
151024000    279.55879    369.16785     497.0049   -38100.804    38111.328   -127.83706    42.235848 
151028000    296.43719    92.536329    346.18797   -38101.591    38120.564   -253.65164    42.218984 
151032000    267.81719    60.847914    420.67631   -38111.992    38131.534    -359.8284    42.228598 
151036000    271.77905    218.20785    485.02522   -38122.959    38135.245   -266.81737    42.206393 
151040000    237.11785    338.26035    272.95945   -38122.162    38144.471    65.300893    42.200612 
151044000    280.91853    207.02352    405.04864   -38122.817     38131.33   -198.02512      42.2104 
151048000    280.04823    368.54524    652.09052   -38136.088    38147.943   -283.54528    42.234569 
151052000    314.17601    510.63084    239.05392   -38167.976    38172.117    271.57692     42.24716 
151056000    314.77497    346.45466    306.56401   -38177.636    38184.896     39.89065    42.267511 
151060000     248.3681     504.3216    387.87165   -38191.117    38218.527    116.44995    42.261074 
151064000    256.51118     281.7136    517.89526   -38197.466    38223.304   -236.18166    42.277844 
151068000    250.97014    421.28788    557.43279   -38189.856    38214.624   -136.14491    42.281893 
151072000    247.40287    478.28261    391.99643   -38188.724    38213.519    86.286182    42.276276 
151076000    289.95109    995.72459    537.43988     -38183.8     38205.47    458.28471    42.277521 
151080000    306.82406    317.40801    152.14664   -38188.889    38201.321    165.26137    42.284214 
151084000     307.1889    562.53322    399.13001   -38202.905    38206.201     163.4032    42.282444 
151088000    264.58296    225.15278     681.4922   -38203.972    38224.946   -456.33941    42.258727 
151092000    331.55374    362.27436    384.65182    -38224.39    38219.435    -22.37746    42.252781 
151096000    265.98745    232.53737    134.46797   -38210.652    38227.225    98.069393    42.251577 
151100000    258.30431    747.30227    361.94499   -38205.308    38235.272    385.35728    42.275721 
151104000     272.7583    396.40274    112.82476   -38228.454    38254.035    283.57798    42.307231 
151108000    313.54028    307.62604    836.69069   -38257.129    38261.634   -529.06465    42.313921 
151112000    276.58699    530.84453    355.50193   -38244.233    38271.545    175.34259     42.31104 
151116000     251.9126    367.29593    371.58342    -38253.05    38280.063   -4.2874899    42.310372 
151120000    269.96614    664.91193    569.60404   -38275.811    38294.476    95.307887    42.318548 
151124000    282.16621     328.4239    902.28983   -38287.207    38304.696   -573.86593    42.309107 
151128000    250.97837    361.17404    601.20312   -38295.478    38321.448   -240.02908    42.318891 
151132000    273.81224     253.7593    475.48604   -38289.639    38309.621   -221.72675    42.332858 
151136000    242.90387    401.12699    320.45213   -38276.106    38315.381    80.674859    42.337594 
151140000       245.02    410.21947    373.67265   -38281.167    38308.576    36.546821    42.353674 
151144000    266.33221     486.1717    463.82922   -38301.025    38311.729    22.342475    42.372903 
151148000    274.13706     635.4161    345.25926   -38315.612    38328.266    290.15684    42.343919 
151152000    284.28153    320.02594    279.52645    -38336.51    38350.275    40.499486    42.330965 
151156000    318.05878    427.07475    333.56157   -38340.469    38357.982    93.513183    42.328659 
151160000    263.43699    399.28297    378.47617   -38367.498    38368.739    20.806803    42.306523 
151164000    260.55775    251.14809    431.62898   -38375.956    38406.265   -180.48089    42.297927 
151168000    284.18349    636.92299    259.52523   -38378.389    38405.965    377.39776    42.313644 
151172000    312.67607    266.98633    404.68309   -38404.287     38407.35   -137.69676    42.282154 
151176000    280.09445    137.85202    422.36205   -38412.533    38429.401   -284.51003    42.268332 
151180000    272.45181    771.67019    212.04312   -38451.862    38470.264    559.62706    42.248404 
151184000    261.15125    354.86117    400.66619   -38460.412    38478.837   -45.805022    42.213151 
151188000    277.08249     383.2742    839.20973   -38476.682     38491.67   -455.93553    42.213024 
151192000    302.33006    814.05533    521.24069   -38486.406    38497.537    292.81463     42.22295 
151196000    284.81834    397.78266    743.25261   -38490.294    38506.012   -345.46995    42.219911 
151200000    265.02854     436.7516    452.38962   -38505.414    38517.837   -15.638017    42.212501 
151204000    265.90016    369.71497    706.76038   -38518.785    38535.367   -337.04541    42.225246 
151208000    288.37773    174.11399    734.64341    -38525.29    38538.902   -560.52941    42.209084 
151212000    316.15579    632.47865    346.96743   -38522.822    38535.632    285.51121    42.207589 
151216000    315.12334    201.93464    285.37246   -38545.835    38560.113   -83.437814    42.196192 
151220000    266.80484    1117.1564    100.10297    -38548.84     38579.42    1017.0534    42.198676 
151224000    224.89262    224.34058    781.83424   -38554.969    38579.608   -557.49366    42.184477 
151228000    284.79696    820.49915    202.11784   -38578.507    38591.784     618.3813    42.191801 
151232000    291.31263    516.06545    703.07386   -38574.638    38591.467   -187.00841    42.196279 
151236000    294.08923    657.15501    497.10236   -38574.371    38592.574    160.05265    42.204972 
151240000    276.61666    219.32214    1013.0817   -38565.967    38585.547   -793.75959    42.210757 
151244000    278.90526     455.0972    311.35543   -38581.897    38593.243    143.74177    42.212169 
151248000    316.77859     549.5722    292.27596   -38597.374    38594.641    257.29625    42.224906 
151252000    285.68012    246.42685    269.88652   -38607.268    38611.967    -23.45967    42.237154 
151256000    342.22541    559.57703    496.04758   -38620.331    38618.963    63.529454    42.225205 
151260000      272.649    470.51802    112.02932    -38626.08    38644.417     358.4887    42.236708 
151264000     305.2138    323.68684    509.42175   -38635.261    38646.007   -185.73491    42.256529 
151268000     319.3908    975.36261    476.80708    -38658.88        38657    498.55553    42.252427 
151272000    272.62806    411.42077    145.95446   -38653.428    38663.663    265.46631    42.254313 
151276000    307.27093    465.01084    359.41626    -38657.14    38658.652    105.59459    42.260372 
151280000    278.05558    1017.0481    83.235209   -38677.243    38693.321    933.81289     42.27585 
151284000    284.13275    493.40317    193.23231   -38688.839    38700.087    300.17086    42.255254 
151288000    277.43834    338.19381    141.19244   -38697.136    38707.356    197.00137    42.241224 
151292000    270.14823    403.93393    483.74516   -38717.528    38728.221   -79.811228    42.253328 
151296000    278.48986     645.8012    212.34929   -38727.351    38736.697    433.45192    42.254778 
151300000    263.43221    407.17598    398.26816   -38725.429    38752.382    8.9078268    42.254301 
151304000      278.548     573.3282    180.59699   -38732.334    38757.963    392.73121    42.264496 
151308000    295.67639    466.98892    625.37589   -38742.543    38758.104   -158.38697    42.252652 
151312000    292.09371    801.79272    335.37119    -38768.78    38778.409    466.42153    42.250506 
151316000    242.86766     411.2694    268.10184   -38779.677     38801.45    143.16756    42.243872 
151320000    256.12694     271.8733    370.60247   -38790.228    38806.392   -98.729171    42.253216 
151324000    275.14348    375.97525    470.63058   -38788.556    38803.784   -94.655333    42.252712 
151328000    294.39452    361.78377    296.72491   -38790.664    38818.909    65.058856    42.241068 
151332000    291.86302    300.10638    411.39358   -38805.286    38811.861    -111.2872    42.242658 
151336000    277.47485    234.11124    309.30363   -38795.664    38813.068   -75.192394     42.20192 
151340000    327.77316    275.73319    469.97956   -38810.323    38814.808   -194.24637    42.197942 
151344000    241.52407    465.22084    455.02684   -38815.898    38831.497    10.193993    42.190817 
151348000    268.23752    267.00328     329.6435   -38823.277    38835.629    -62.64022    42.176497 
151352000    280.18671    492.78506    627.16203   -38827.535    38850.844   -134.37697    42.187834 
151356000    304.26778    392.22849    641.82164   -38858.696    38861.431   -249.59315    42.178539 
151360000    281.21577    548.95503      203.138   -38850.091     38874.87    345.81703    42.169006 
151364000    298.95147    519.02815     379.2815    -38864.67    38881.655    139.74665    42.168624 
151368000    325.20553      928.496    479.57174   -38889.608    38880.755    448.92425     42.16791 
151372000    284.96001    469.00133    415.12026   -38870.671    38899.416    53.881069    42.169062 
151376000    291.19256    310.82358    341.88131   -38893.207    38908.127   -31.057729    42.183772 
151380000    282.85656    697.81943    244.65408   -38895.164    38919.978    453.16534    42.197366 
151384000    259.83689     508.8572    736.63207   -38900.094    38924.263   -227.77486    42.192827 
151388000      316.471    265.83633     472.6851   -38914.156    38919.128   -206.84878    42.196465 
151392000    268.85849    331.16677    229.00783   -38911.857    38932.908    102.15894    42.214954 
151396000    327.30527    516.96221    735.93368    -38924.63    38904.993   -218.97147    42.225664 
151400000    345.11133    781.45959    333.60504   -38950.871    38926.226    447.85455    42.244445 
151404000     295.0424    589.34841    488.80315   -38963.528     38975.87    100.54526    42.261812 
151408000    271.15472     426.1074    383.64838   -38966.619    38989.142    42.459025    42.249338 
151412000    264.10646    235.80684     654.4562   -38970.439    38996.005   -418.64936    42.266978 
151416000    251.20819      358.557    213.59485   -38977.071    39004.807    144.96216    42.243495 
151420000    282.53096    362.06872    244.60515   -38983.214    38999.245    117.46357    42.241872 
151424000    303.82931    807.47367    547.14043   -38984.255    38997.505    260.33324    42.230144 
151428000    260.46928    647.73504    362.53119   -38994.355    39002.369    285.20385    42.245477 
151432000    295.59429      125.528    732.97921   -39006.549    39016.765    -607.4512    42.246878 
151436000    308.76265    670.67526    338.97852   -39026.784    39019.797    331.69674     42.26549 
151440000    293.74428    344.38491    303.66631    -39037.86    39043.563      40.7186     42.27453 
151444000    298.21424    264.38144    241.39877   -39047.479    39064.757    22.982665    42.291647 
151448000    280.31826    171.46265    393.00151   -39057.649     39079.55   -221.53886    42.309182 
151452000    262.46911    259.93639    881.45686   -39070.548    39092.434   -621.52047    42.319316 
151456000    274.91154    607.14376    167.58728   -39083.653    39103.854    439.55647    42.329251 
151460000    322.36242    403.38445    628.32872   -39097.595    39097.885   -224.94427    42.336012 
151464000    261.50296    374.84305    692.05647   -39090.512    39109.126   -317.21343       42.332 
151468000    302.47653    307.71769    547.46906   -39097.616    39114.373   -239.75137    42.339847 
151472000    286.41088    332.93115    349.50426   -39101.864    39115.355   -16.573117    42.369869 
151476000    319.07838    295.10285    571.63893   -39115.454    39119.624   -276.53608    42.338078 
151480000    279.16257    1098.5733    266.75719   -39115.311    39130.689    831.81614     42.35261 
151484000    263.61236    888.56031    502.27598   -39105.362    39134.473    386.28433    42.345864 
151488000    258.08735    293.81395    359.43489   -39103.582    39130.667   -65.620933      42.3533 
151492000    263.50131    347.90164    353.71989   -39093.393    39122.993   -5.8182523    42.359102 
151496000    266.24205    377.96314    396.80475   -39114.698    39120.202   -18.841608    42.372248 
151500000    260.75583    440.75864     565.9658   -39114.802    39133.566   -125.20716     42.38299 
151504000    297.74313     239.4999    176.61767    -39138.12    39150.965    62.882233    42.376385 
151508000    291.21589    143.74572    534.64381   -39149.225    39166.991   -390.89809    42.376608 
151512000    245.85823    433.69143    175.58216    -39156.41    39190.922    258.10927    42.382605 
151516000    267.06532    541.67503    391.23205   -39185.479    39203.267    150.44298    42.377878 
151520000    287.14476     105.8458    448.10425   -39196.096    39209.927   -342.25845     42.36696 
151524000    243.84252     617.8915    142.10882   -39192.534     39226.23    475.78268    42.376544 
151528000    287.81644    869.30403     582.3879   -39207.361    39219.094    286.91614     42.38424 
151532000    258.89624    517.52004    154.12906   -39200.579    39235.814    363.39098    42.387226 
151536000    282.59205    416.61735    188.29984   -39214.497    39235.329    228.31751    42.382121 
151540000    315.97206    789.21949    189.40443   -39223.279    39232.033    599.81506    42.400876 
151544000    289.63878     462.3637    355.00957   -39225.093    39225.672    107.35413    42.404544 
151548000    282.45989    427.20666    128.91549   -39232.016    39245.675    298.29117    42.402818 
151552000     318.9447     685.7788    429.80145   -39251.553    39258.102    255.97736    42.392803 
151556000    342.97258    196.27768    252.28958   -39274.411    39283.251   -56.011907    42.404851 
151560000    275.66564    334.13537    504.71501   -39273.344    39296.752   -170.57964    42.401974 
151564000    267.79312    230.64818    439.61584   -39278.608    39311.147   -208.96766    42.453118 
151568000    269.95585    225.01542    331.64344    -39289.62    39312.355   -106.62802    42.477795 
151572000    294.69384    160.83234    979.58542   -39298.382    39304.668   -818.75308    42.480949 
151576000    275.31869    257.02848    469.87295   -39302.408    39330.758   -212.84447    42.473651 
151580000    249.09554    235.60199    604.99732   -39318.323    39351.961   -369.39534    42.479468 
151584000    248.77004     300.0102    643.44833    -39311.62    39340.935   -343.43812     42.48188 
151588000     289.3739    277.29652    327.35873   -39346.517    39359.792   -50.062218    42.473246 
151592000    320.04199    576.93348     474.7964   -39353.657    39362.769    102.13708    42.474896 
151596000    289.51053    355.38411     448.8895   -39357.231    39376.725   -93.505392    42.473098 
151600000    299.40176    172.09978    282.54785   -39359.324    39373.988   -110.44806    42.488122 
151604000    296.12357    325.48767    634.75744   -39386.737    39394.812   -309.26976    42.496927 
151608000    307.31609    705.45528    882.15941   -39397.554     39408.51   -176.70414     42.50267 
151612000    296.47923    537.05615    423.43768   -39414.509    39419.854    113.61847    42.476227 
151616000    260.24499     263.6913    309.80797   -39411.629    39429.631   -46.116669    42.457491 
151620000    252.70538    246.05884    480.94434   -39438.079    39464.162   -234.88551    42.434816 
151624000    295.08403     508.2738    429.24748   -39446.942    39461.361    79.026326    42.433221 
151628000    289.00322    581.23689    653.64417   -39460.176    39464.534   -72.407287    42.430293 
151632000    298.94602    321.38612     319.0306   -39454.483    39465.948     2.355519    42.429913 
151636000    297.47887    604.93648    612.18607   -39450.237     39465.68    -7.249591     42.44485 
151640000    266.95356    643.69188     133.8831   -39464.795    39482.454    509.80878    42.455156 
151644000     252.3165    404.19527    296.67105   -39465.107    39499.645    107.52422    42.462716 
151648000    298.35181    426.97746    286.65843   -39495.829    39489.154    140.31904     42.46673 
151652000    263.24184    449.12232    264.91928    -39489.35    39510.812    184.20304    42.466776 
151656000     289.2647     565.0671    521.98784   -39491.329     39509.14    43.079262    42.467817 
151660000      279.958    52.839016     679.6002   -39496.533     39517.74   -626.76118    42.464164 
151664000    263.84629    627.03934    387.41681   -39514.383    39538.224    239.62253    42.480864 
151668000    281.51775    338.06248    265.58155   -39525.531    39537.138    72.480931    42.481378 
151672000    297.45092    407.85859    159.52049   -39541.949    39550.488     248.3381    42.487457 
151676000    289.16441     231.4221    692.15325   -39549.536    39562.204   -460.73115    42.480905 
151680000      270.505    515.70735    484.15331   -39548.007    39575.481    31.554041    42.499239 
151684000    296.82786    391.78111    911.71761   -39555.345    39576.059    -519.9365     42.49544 
151688000    281.29032    458.57349    295.85326   -39560.435    39580.569    162.72022    42.489441 
151692000    264.12721    403.69288    750.18762   -39552.646    39579.321   -346.49473    42.493921 
151696000    255.11018    262.84036     728.0534   -39563.101    39591.446   -465.21304    42.490976 
151700000    243.96301    522.29999    393.50148   -39582.809     39615.91     128.7985    42.486268 
151704000    292.89876    277.83758    822.92806   -39614.168    39635.034   -545.09049    42.513821 
151708000    286.85815    350.19995    244.21281    -39627.02    39649.975    105.98714    42.508484 
151712000    323.97408    538.20123    131.36969   -39629.642     39641.59    406.83154    42.532499 
151716000    279.39015    335.45719    219.46564   -39620.775    39646.407    115.99155    42.512458 
151720000    298.65946    418.38322    270.79414   -39645.812    39658.485    147.58908    42.535895 
151724000    302.00807    431.60139    839.27405   -39658.417    39664.272   -407.67266    42.517724 
151728000    258.82461    315.56659    896.18429   -39646.536    39664.202   -580.61771    42.515799 
151732000    331.54983    164.78617     802.1528   -39678.062    39680.708   -637.36663    42.514132 
151736000    278.25573    140.96682    304.16798   -39690.027    39709.884   -163.20116     42.46821 
151740000      268.744    298.62277    452.09394    -39690.76    39714.002   -153.47117    42.464791 
151744000    263.27738    176.25195    332.81054   -39678.248    39707.515   -156.55859    42.432183 
151748000    281.38642    200.91117    696.01598    -39706.06    39721.685   -495.10481    42.424279 
151752000    278.05777    969.94327    362.44486   -39720.544    39727.253    607.49841    42.420933 
151756000    290.33881    448.18573    750.85436   -39729.458    39740.528   -302.66863    42.419092 
151760000    274.84401    516.34034     350.3049   -39705.398    39721.722    166.03544    42.444105 
151764000    305.33242    337.35555    431.99638   -39707.664    39710.195   -94.640835    42.452961 
151768000    303.87164    808.74631    435.72594   -39710.799    39727.541    373.02038    42.470244 
151772000    265.62361    629.42492    149.73212   -39725.338    39744.594    479.69279    42.486648 
151776000    273.85819     364.6989    415.27923   -39727.888    39740.092    -50.58033    42.478644 
151780000    294.79368    332.82708    338.13625   -39743.118    39747.208   -5.3091683    42.468319 
151784000    305.60208    416.06948    670.73131   -39750.415    39759.292   -254.66182    42.460407 
151788000    280.39441    609.84745    330.50598   -39748.481    39768.752    279.34146     42.44389 
151792000    285.35758    526.63657    412.94948   -39770.478    39780.867    113.68709     42.44193 
151796000    317.88305    665.06332    527.15706   -39784.721    39788.472    137.90626    42.466461 
151800000    234.66964    513.97285    316.07245   -39769.713    39800.399    197.90039    42.488311 
151804000    256.09931    152.53301    210.76961   -39783.354    39808.289   -58.236605    42.482592 
151808000    332.44653    816.47876    703.21687   -39806.398    39820.728    113.26189    42.469872 
151812000     305.6218    252.26621    284.33671   -39804.905    39817.908   -32.070498    42.476992 
151816000    376.81386    666.80177    528.09919   -39812.678    39808.397    138.70258    42.469059 
151820000    299.48192    389.86535    440.54968   -39808.959    39818.798   -50.684323    42.480098 
151824000    283.27631    498.52492    312.73578   -39822.097    39836.485    185.78914    42.488252 
151828000    292.20996    758.79902    425.70766   -39837.827      39844.1    333.09136    42.484881 
151832000    322.55522    656.53154    462.30779   -39852.907    39855.377    194.22375    42.478544 
151836000    308.83725    250.85634    701.40066   -39871.651    39874.994   -450.54432    42.458782 
151840000    270.81875     570.5437    420.99821   -39882.415    39903.415    149.54549    42.477849 
151844000    275.69357    369.18556    306.78232   -39892.332    39913.176    62.403241    42.471109 
151848000    288.25688    355.29572    330.13252   -39906.412    39922.383    25.163195    42.491818 
151852000    280.57417    146.85276    220.44074    -39931.45    39946.993   -73.587987    42.477824 
151856000    295.41157    1246.2235    394.54336    -39923.37    39945.495    851.68018    42.503191 
151860000    275.31671    432.34698    290.35069   -39933.002    39956.734     141.9963     42.49418 
151864000    274.52671    610.91004    761.57077   -39936.013     39956.58   -150.66073    42.507836 
151868000    255.65611    479.19407    463.74932   -39932.599    39961.071    15.444747    42.475056 
151872000    284.13091    260.28199    497.32679   -39942.077    39965.847    -237.0448    42.474107 
151876000    291.42543    617.56192    876.72369   -39951.368    39960.892   -259.16176    42.483033 
151880000    260.64905    155.02867    532.85891   -39947.806     39965.51   -377.83024    42.498354 
151884000    275.99519    366.89411    231.62238   -39959.516    39983.887    135.27172    42.509085 
151888000    305.76368    352.41723     272.8954   -39988.159     39998.02    79.521831    42.518627 
151892000    296.31178    454.33801    658.52172   -39990.735    40004.577   -204.18372    42.515749 
151896000     309.0175    315.86639    492.05989   -40008.366    40012.924    -176.1935    42.510914 
151900000    296.91654    289.08332     601.9903   -40009.957    40012.261   -312.90697    42.501726 
151904000    278.30613    378.86378    251.55553   -40002.023    40021.144    127.30825     42.49235 
151908000    293.81489    693.73741    408.39796   -40020.626    40033.005    285.33945     42.47941 
151912000    292.60691    272.72807    300.83507    -40038.83    40056.432   -28.106997    42.458071 
151916000    289.44982    381.73056     855.7791   -40051.723    40073.652   -474.04854    42.458812 
151920000    292.07349     415.9986    383.91549   -40063.799    40086.322    32.083103    42.456217 
151924000    306.99287    554.46695    438.95873   -40089.213    40096.283    115.50822    42.431439 
151928000    269.75802    179.16871    301.10401   -40083.377    40108.262    -121.9353    42.446897 
151932000    317.44104    151.98239    361.24877   -40115.855    40115.097   -209.26638    42.427115 
151936000    230.29133    583.14823    292.27461   -40108.531    40132.154    290.87363    42.422675 
151940000    261.36679    210.76825    565.47625   -40113.536    40144.616     -354.708    42.418192 
151944000     300.5643    414.54618    320.95534   -40128.155    40146.504    93.590842    42.434972 
151948000    280.29355    550.94969    622.35132   -40159.622    40177.319   -71.401635    42.425303 
151952000    292.30522    354.41353    759.74476   -40169.729    40190.106   -405.33123    42.418436 
151956000    296.71568    744.99402    255.67466   -40193.773    40204.851    489.31936    42.401542 
151960000    320.16882    766.18197     280.3253   -40211.753    40224.873    485.85667    42.415586 
151964000    293.94435    808.27688     675.8868   -40211.006    40220.615    132.39007    42.422372 
151968000    284.11364    414.58392    440.94005   -40225.634    40242.163   -26.356124    42.423704 
151972000    320.50365     656.1974    259.34234   -40253.084     40251.67    396.85506    42.441365 
151976000     283.1902    424.57115    682.69152   -40249.342    40282.923   -258.12037      42.4597 
151980000    246.77442    367.46208    307.95998   -40256.688    40296.092    59.502095    42.449951 
151984000    235.02929    429.19345    138.10537   -40266.706    40309.678    291.08808      42.4434 
151988000    287.67939    112.54842    436.36061   -40284.685    40302.903   -323.81219    42.437529 
151992000    285.82022    266.19518    61.150373   -40306.632    40331.056    205.04481     42.44034 
151996000    283.05101     362.5116    458.16442   -40331.681    40348.734   -95.652822    42.443772 
152000000    272.59599    271.47054    416.11456   -40349.611    40359.104   -144.64402     42.42933 
152004000    265.73264    841.37643    477.95177   -40353.545    40373.746    363.42466    42.418169 
152008000    318.90304     338.5847    922.62522    -40357.93    40364.844   -584.04051    42.409633 
152012000    289.64787    840.78871    347.39806   -40365.976    40384.934    493.39065    42.404171 
152016000    297.48052    403.54483    489.79876   -40370.295    40376.087    -86.25393    42.404577 
152020000    298.46067    407.15433     500.7048   -40366.208    40386.163   -93.550471    42.393714 
152024000    269.36612    201.65016    333.07107   -40373.763    40397.033   -131.42092    42.410425 
152028000    321.21366    831.32018    537.84775   -40397.133    40401.847    293.47243    42.418867 
152032000     284.5008    501.09062    210.30823   -40402.541    40420.898    290.78239    42.408166 
152036000    298.43255    668.35776    289.49579   -40419.082    40440.452    378.86197    42.420353 
152040000    260.97802     585.1433    239.89108   -40426.872    40455.222    345.25221    42.432909 
152044000     311.2366    393.93736    405.90487    -40471.27     40466.16   -11.967515    42.419657 
152048000    319.78911    724.62038    273.42092   -40481.628    40495.419    451.19945    42.423896 
152052000    278.83181    302.29772    541.13964   -40498.482    40519.683   -238.84192    42.422071 
152056000    299.23798    867.79714    312.85034   -40522.747    40535.174     554.9468    42.410907 
152060000    280.13278    278.23688    601.81621   -40515.669    40534.392   -323.57933    42.411239 
152064000    291.29845    289.25612    228.02875    -40529.84    40532.439    61.227372    42.404468 
152068000    311.86904    416.88219     222.2246   -40531.634    40545.782    194.65759    42.409238 
152072000    286.80932    1353.3663    175.56299   -40532.653    40550.667    1177.8033    42.398455 
152076000    272.66109    310.21228    313.72002   -40524.178    40549.103   -3.5077391    42.390188 
152080000    303.58162    803.01551    312.61234   -40538.533    40539.438    490.40317    42.382985 
152084000    291.81918    367.09266    619.45172    -40539.48      40553.4   -252.35906    42.410655 
152088000    299.57454    554.03575    355.94948   -40548.578    40574.942    198.08627    42.419554 
152092000    270.60824    641.85405    443.99332   -40585.126    40593.071    197.86073    42.424563 
152096000    303.61178    188.46874    208.10718    -40607.05     40607.55   -19.638441    42.416863 
152100000    314.91154    438.49122    618.66821   -40605.848    40625.408   -180.17699     42.41857 
152104000    283.43599    413.29636       383.68   -40599.827    40614.015    29.616361    42.425891 
152108000    330.32863    417.57451    131.96896   -40596.463    40605.403    285.60555    42.437408 
152112000      310.823    783.68731    258.82715   -40603.979    40610.832    524.86016    42.430682 
152116000    301.74538    460.71393    628.47163   -40615.469    40621.241    -167.7577    42.439027 
152120000    275.14285     378.4223     409.4954   -40629.446    40641.008   -31.073094    42.438587 
152124000    293.84324    251.32352    382.89922   -40624.404     40647.16   -131.57569    42.439274 
152128000    292.34545    588.12032     421.7743   -40628.984    40641.052    166.34602    42.451677 
152132000    297.74208    681.70449    135.02599   -40652.103    40674.838     546.6785    42.446436 
152136000    308.74489    407.26658    217.93513   -40673.229    40672.799    189.33144    42.447578 
152140000    300.19885    136.07894    695.86712    -40688.85    40702.312   -559.78818    42.430344 
152144000    329.52232    294.47343    241.00722   -40699.808    40703.585    53.466206    42.430796 
152148000    275.27964    472.09309    462.30319   -40703.347    40720.136    9.7899082    42.439898 
152152000    285.78783    144.64253    798.94611    -40707.17    40726.754   -654.30358    42.418012 
152156000    271.86999    130.59354    220.43429   -40709.101    40735.432   -89.840749    42.413334 
152160000     323.7961    668.44908    469.32488   -40741.356    40742.795     199.1242    42.430459 
152164000    314.29005    501.57556    261.51619   -40744.701     40750.11    240.05936    42.415806 
152168000    281.65832    558.55895    263.07354   -40745.734    40755.485    295.48541    42.415062 
152172000    295.80572    114.29571    225.03498   -40750.431    40762.729   -110.73927    42.411662 
152176000    316.35228    380.77531    263.59513   -40770.569    40784.046    117.18017    42.416957 
152180000    304.17728    393.69201    316.54534   -40776.155    40797.525    77.146663    42.434547 
152184000    295.96718    671.40948    619.37878   -40798.586    40811.125    52.030702    42.427624 
152188000    274.60475    615.13498    129.31239   -40814.955    40830.588    485.82259    42.436436 
152192000    282.36341    510.27245    371.75176   -40813.211    40824.449    138.52069    42.438377 
152196000    302.76881    593.64927    404.15679    -40832.57    40841.239    189.49248     42.43469 
152200000    286.46566    231.44177    276.71799   -40832.396     40850.82   -45.276224    42.432734 
152204000    326.70913    382.02894    700.75664   -40860.388    40853.477    -318.7277    42.429002 
152208000    329.00391    216.05117    153.98115   -40867.492    40873.973    62.070023    42.429465 
152212000    295.59564    680.40034    294.21336   -40870.957    40867.854    386.18697    42.450015 
152216000    266.71597    729.92363      314.578   -40874.576    40897.181    415.34563     42.44428 
152220000    291.49006    834.47973    361.20674   -40908.443     40899.84    473.27299    42.463746 
152224000    267.25681    594.42127    64.692553   -40911.777    40920.094    529.72872    42.464358 
152228000    292.07514    1036.6784    423.12109   -40934.919    40947.802    613.55727    42.466295 
152232000    286.52645    491.67671    492.13875    -40936.71    40945.684  -0.46203971    42.456512 
152236000    248.59645     464.4602    400.96425   -40924.421    40957.227     63.49595    42.451589 
152240000    307.04779     850.8589    336.19099   -40941.329    40952.965    514.66791    42.465029 
152244000     237.1742    513.11684     473.6824   -40943.416    40971.657    39.434441    42.471777 
152248000    273.86921    299.17124    310.38602   -40941.235    40974.079    -11.21478    42.475755 
152252000    262.08275    278.43293    378.74381   -40963.535    40977.994   -100.31088    42.451431 
152256000    304.85931    655.48948    739.72472    -40977.84    40990.746   -84.235232    42.447467 
152260000    259.82737    298.16238    497.47389   -40985.167    41008.333   -199.31151    42.454808 
152264000    262.60559    231.45261    401.78721   -40998.691    41020.626    -170.3346     42.46306 
152268000    263.18789    413.03337    366.71415   -41022.072    41044.346    46.319217    42.468338 
152272000    296.94911    389.10634    390.18394   -41045.945    41060.887   -1.0776024    42.458821 
152276000    314.01084    319.28587    692.29093   -41040.725    41057.431   -373.00506     42.44711 
152280000    278.41484    630.59314    342.55488   -41072.046    41084.102    288.03825    42.441598 
152284000    321.24549    651.57082    743.20227   -41090.414    41097.257   -91.631449    42.445228 
152288000    265.49435     600.7219    464.98361   -41101.076    41119.962    135.73828    42.446308 
152292000     326.3507    657.01952    629.04595   -41113.942    41109.152    27.973569    42.449262 
152296000    267.93064    1239.1656    328.52779    -41127.35    41140.783    910.63781    42.446375 
152300000    306.73284    306.97999    495.84492   -41147.431    41142.989   -188.86493    42.438904 
152304000     283.9008    313.63341    485.79263   -41153.004    41163.409   -172.15922    42.460931 
152308000      274.073    491.07441    513.86775   -41154.633    41168.089   -22.793337    42.480722 
152312000    345.50783    483.43685     694.8752   -41173.897    41173.202   -211.43835    42.505053 
152316000     334.7072    424.92355    711.65705   -41178.681    41187.994    -286.7335    42.490412 
152320000    341.08104    244.56037    593.69246    -41194.79     41194.74   -349.13209     42.48004 
152324000    287.95191     364.1693    190.28028   -41196.028    41217.557    173.88902     42.48557 
152328000    296.97021    627.62217    217.06217   -41213.843    41218.473    410.55999    42.495599 
152332000    268.90193    546.03871    476.86628   -41202.471     41233.11    69.172435    42.476949 
152336000    267.96706    516.83746    607.09221   -41228.067     41248.27   -90.254751    42.481834 
152340000    329.68059    833.73248    455.42756   -41253.479    41260.388    378.30492    42.485891 
152344000    292.09907      461.559    311.49053    -41283.22    41276.506    150.06847    42.508437 
152348000    270.39087    406.46775    533.93388   -41256.564    41276.907   -127.46613    42.502276 
152352000    334.69074    208.08401    678.87516   -41279.462    41286.494   -470.79115    42.492365 
152356000    292.53145    485.10626    657.85894     -41280.1     41300.35   -172.75267    42.475229 
152360000    315.10868    245.23518    501.59865   -41309.177     41313.59   -256.36347    42.472083 
152364000    272.42236    930.94997     367.8279   -41305.943    41330.726    563.12206    42.462616 
152368000    301.03719    500.82411     391.6837   -41337.319    41341.625    109.14041    42.471718 
152372000    321.92262    862.22035    245.74549   -41362.311    41367.898    616.47486    42.470297 
152376000    271.62713    727.04609    361.03752   -41361.855    41384.676    366.00857    42.468542 
152380000    274.79376    213.18178    389.46672   -41365.311    41380.427   -176.28494    42.483806 
152384000    276.76733    298.20581    543.01419   -41368.343    41391.956   -244.80838    42.475349 
152388000    255.07184    559.62131    142.81535   -41386.776    41416.238    416.80596    42.478496 
152392000    310.19975     235.2012     232.2386   -41416.493    41426.311    2.9626038    42.496815 
152396000    264.45342    1107.2858    178.20969   -41412.864     41433.31    929.07609    42.490785 
152400000    265.83411    418.50403    162.52156   -41426.347    41453.014    255.98247    42.481595 
152404000    294.07039     189.2209    256.04967    -41436.93    41460.424   -66.828768     42.46908 
152408000    263.10039    414.66316    319.28852   -41425.984    41463.445    95.374636     42.48443 
152412000    231.87724     236.9322    372.17112   -41460.378    41472.702   -135.23891    42.470943 
152416000     266.2705    461.34494    740.49594     -41480.1    41503.625     -279.151    42.457447 
152420000    283.54077    558.78123    202.59273   -41489.829    41516.394     356.1885    42.449304 
152424000    298.43012    194.82596    327.17839   -41517.208    41520.951   -132.35243    42.465789 
152428000    317.01395    678.81108    347.40976   -41511.603    41505.898    331.40132    42.480826 
152432000    276.79833    481.60783    380.14152   -41510.653    41518.211    101.46631    42.493658 
152436000    313.86434    583.68508    766.03427   -41514.848    41510.957   -182.34919    42.494371 
152440000    286.15899    529.82574    551.07801   -41520.843    41531.367   -21.252262    42.471681 
152444000    318.93485    592.92128    431.54212   -41545.782    41549.578    161.37916    42.468905 
152448000    332.02689    540.80056    369.07396       -41571    41574.304    171.72661    42.457979 
152452000    268.42655    267.39122    218.96614   -41560.255    41583.349    48.425079    42.454099 
152456000    277.24127    192.20409     495.7234   -41577.158    41585.331   -303.51931    42.444832 
152460000    262.04396     371.0525    454.80679   -41564.206    41594.093   -83.754291     42.42148 
152464000    282.03234    624.06724    562.49177   -41598.924    41604.582    61.575469    42.425316 
152468000     271.4448    354.21273    271.28107   -41609.618    41625.165    82.931669    42.422346 
152472000    284.71152     553.4259    570.42622   -41619.116    41639.853   -17.000322    42.433285 
152476000    258.86906    722.80023    172.11033   -41634.089    41659.858     550.6899    42.432171 
152480000    262.85305    298.79709    722.11298   -41624.796    41654.519   -423.31589    42.442008 
152484000     272.1996    661.67321    451.79034   -41637.605    41667.377    209.88287    42.450591 
152488000    290.54808    566.72424    339.68993   -41646.329     41653.98     227.0343    42.442304 
152492000    321.05155    786.34185    406.54106   -41667.002    41679.735    379.80079    42.453828 
152496000    253.75997    385.30506    498.31109   -41664.053     41683.42   -113.00602    42.454426 
152500000    237.98983    356.77351    105.60262   -41676.075    41707.209    251.17089    42.447674 
152504000    302.67541    679.75521    259.50535    -41699.62    41718.016    420.24986    42.478164 
152508000    271.89429    517.83975    199.36924   -41677.856    41702.628    318.47051    42.468148 
152512000    264.82706    196.37259    373.19457   -41692.121    41719.001   -176.82198    42.474769 
152516000    270.28188    634.22149     466.2199   -41710.509    41731.832    168.00159    42.465817 
152520000    274.62987    687.28771    334.90948   -41711.107    41727.095    352.37823    42.454327 
152524000     227.8365    276.65672    275.81909   -41715.346    41756.681   0.83763187    42.452947 
152528000    267.47846    304.13579     316.8099   -41721.334    41740.573   -12.674109    42.463045 
152532000    303.58258    266.42235    694.26816   -41741.569    41751.358   -427.84581    42.465445 
152536000    277.00562    863.17057    298.23544    -41757.75    41780.843    564.93513    42.465593 
152540000    318.66283    336.15721    452.65535   -41775.969    41786.612   -116.49814    42.451253 
152544000    246.39347     504.5506    152.24046   -41782.716    41810.255    352.31014    42.459491 
152548000    237.80195    457.07737    320.91172   -41769.951    41803.872    136.16565    42.455109 
152552000    263.22648    305.21744    578.11872   -41781.577    41803.893   -272.90127    42.442084 
152556000     268.0088    454.89062    451.79654   -41795.742    41823.659    3.0940779    42.446086 
152560000    308.33225    569.03217    114.05897   -41822.841    41847.745     454.9732    42.446542 
152564000    263.27591    479.74303    294.78844   -41841.663    41859.849    184.95459    42.449561 
152568000    240.18419    206.42057    253.26514   -41861.954    41887.608   -46.844569    42.434102 
152572000     264.0605    254.39474    466.89509   -41876.133    41898.836   -212.50035    42.427842 
152576000    314.58606    226.77948    255.01148   -41897.102    41898.364   -28.231998     42.43399 
152580000    289.22598    456.69298    749.17804   -41878.764    41900.246   -292.48506     42.43542 
152584000    301.38672    128.74863    428.25068    -41880.14    41890.104   -299.50205     42.43566 
152588000    272.18738    626.74356    625.99971   -41885.278    41905.999   0.74384724      42.4212 
152592000    278.88907     372.8327    232.53296   -41882.559    41906.257    140.29974    42.428014 
152596000    241.50535     577.9482    339.76647   -41899.359    41934.338    238.18173    42.437289 
152600000    291.51394    686.13041    1079.8023   -41923.459    41941.467   -393.67192    42.443512 
152604000    270.06119    459.94417    1185.7339   -41944.597    41961.155    -725.7897    42.446712 
152608000     252.6926    299.24513    779.96215   -41950.577    41981.767   -480.71702    42.457483 
152612000    263.54412    357.57932    291.20377   -41959.732    41992.437    66.375555    42.442027 
152616000    316.14497    356.57733    550.44505   -41986.334    41997.333   -193.86772    42.443654 
152620000    249.87987    410.05852    115.65315   -41999.101    42013.612    294.40537    42.425682 
152624000    279.11263    318.93968    247.88331   -41994.053    42016.346    71.056368    42.429784 
152628000    290.06156    767.36755    1373.5595   -42016.391    42031.188   -606.19194    42.407403 
152632000    287.20277    375.41873    253.07197   -42010.509    42034.759    122.34676     42.40909 
152636000     287.8788    590.56222     291.5085   -42021.845    42046.495    299.05372    42.415771 
152640000    263.25703    429.38788    318.64455   -42027.746     42053.32    110.74333    42.414209 
152644000    289.62294    207.34827    499.98692   -42033.574    42055.365   -292.63865    42.399979 
152648000    259.23742    177.63849    369.53787   -42047.297    42084.545   -191.89938    42.375078 
152652000    302.60578     672.8226    619.93736   -42080.758    42088.716    52.885234    42.389341 
152656000    308.83801    624.42216    338.73283   -42098.272    42101.858    285.68933    42.374279 
152660000    287.94508    343.93056      614.505   -42097.761     42102.06   -270.57444    42.366918 
152664000    270.65494    630.56225    665.33383   -42076.375    42103.475   -34.771582    42.367102 
152668000    260.73621    547.66746    452.88807   -42072.422    42097.788    94.779389    42.380193 
152672000    343.40341    454.46603    627.19613   -42087.407    42082.808   -172.73009    42.379573 
152676000    279.93178    349.05874    569.18853   -42093.496    42104.302   -220.12979    42.392718 
152680000    299.68589    689.23745    687.48339   -42107.745    42108.536    1.7540631    42.393296 
152684000    286.42328    381.75937    288.09796   -42104.654    42123.666    93.661418    42.410879 
152688000    310.19611    827.52908    852.36702   -42126.197    42136.324   -24.837942    42.409917 
152692000    270.43753    676.16213    452.19512   -42111.767     42127.48    223.96701    42.404206 
152696000    231.72743     290.6266    344.83551   -42118.875    42148.886   -54.208906    42.400719 
152700000    254.51019    113.25667    332.74884    -42147.67    42178.378   -219.49217    42.376295 
152704000    256.18378    78.533414    245.16522    -42160.85    42184.973    -166.6318    42.381938 
152708000    231.91143    136.50554    384.67775   -42178.866    42195.538   -248.17221    42.390081 
152712000     307.0923     469.0938    481.86566   -42181.592    42178.621   -12.771863     42.40313 
152716000    383.96175    1007.1561    405.44129   -42222.166    42208.285    601.71486    42.398919 
152720000    282.96652    291.67189    205.96357   -42218.581    42234.908    85.708322    42.383457 
152724000    296.71895    855.39945    280.53485   -42238.509    42266.555    574.86461    42.371283 
152728000    304.82821    504.75036    407.88492   -42259.005     42269.71    96.865444      42.3676 
152732000     303.7563    887.08629    696.47998   -42264.939    42278.174    190.60631    42.370051 
152736000    270.61664    353.06102    866.10245   -42264.838    42284.111   -513.04143    42.351919 
152740000    245.30139    344.46553     601.5475   -42256.456    42283.814   -257.08197    42.349596 
152744000    270.69849    266.41337    558.21946   -42270.063    42290.268   -291.80609    42.336652 
152748000    302.91852    788.20528    562.52143   -42292.454    42310.779    225.68385     42.33352 
152752000    244.15541    315.64831    752.94506   -42281.095    42325.181   -437.29676    42.306231 
152756000    262.73318    808.82131    522.18043   -42294.744    42330.097    286.64089    42.299902 
152760000    247.65715    813.76026    252.80546   -42325.253    42342.482     560.9548    42.286731 
152764000    256.49441    675.93758     220.1602   -42314.286    42358.785    455.77738    42.301938 
152768000    251.41735    811.97663    855.49088   -42331.519    42349.557   -43.514255    42.299651 
152772000    260.26371    1012.5249    408.94991   -42329.037    42351.551    603.57501    42.301261 
152776000    221.67777    294.76585    303.88287   -42317.381    42346.289   -9.1170207    42.280928 
152780000    282.72957    156.96861    286.71039   -42317.344    42341.857   -129.74177    42.280241 
152784000    263.06989    556.75178    488.33211   -42323.159    42354.285    68.419669     42.27883 
152788000    254.02268    405.90922    346.66918   -42337.635    42359.242     59.24004    42.271064 
152792000     357.8621    1445.7562    733.87886    -42352.83    42361.538    711.87736    42.272453 
152796000     249.1469     390.9534    801.74527   -42352.553    42370.326   -410.79187    42.260681 
152800000    271.72888    261.37547    418.12916   -42357.806    42382.303   -156.75369    42.245542 
152804000    300.76089    466.31107    346.01361   -42359.532    42380.249    120.29746    42.243791 
152808000    268.45817    1030.8529    489.45193     -42390.3    42416.966    541.40095    42.244679 
152812000    276.69696    485.00853    525.21776   -42418.344    42427.409   -40.209229    42.250012 
152816000    309.24455    626.36474    154.44904   -42425.216    42433.312     471.9157    42.250142 
152820000    287.99708    211.95149    313.33414   -42435.231    42441.299   -101.38265    42.242596 
152824000    274.09996    395.60251    328.31318   -42447.214    42468.936    67.289335    42.245069 
152828000    259.24091     473.1898    388.08938   -42441.529    42463.807    85.100423    42.273777 
152832000    280.69336    332.39526    230.31568   -42437.011    42463.902    102.07958    42.247784 
152836000    321.48791    709.66424    598.13329   -42476.283    42476.068    111.53095    42.234737 
152840000    303.47907    357.77901    492.87903   -42497.812    42510.645   -135.10002    42.247564 
152844000     245.9899    640.86073    304.85832   -42503.591    42535.208    336.00241    42.251512 
152848000    267.15276    482.28052    430.08209   -42523.508    42541.833    52.198437    42.240708 
152852000    280.04004     230.7078    818.88351    -42542.76     42564.56   -588.17572    42.224405 
152856000    284.68021    338.30221    334.22072   -42565.271     42567.08    4.0814846    42.221237 
152860000    293.70899    585.51988    305.80434     -42565.1    42570.255    279.71554    42.224756 
152864000    291.96588    366.68678    383.86317   -42566.613     42562.09   -17.176387    42.218501 
152868000    266.19228    260.28708    528.51989   -42574.382    42595.134   -268.23281     42.24089 
152872000      275.226    313.12135    492.19786   -42585.745    42606.515   -179.07652     42.22657 
152876000     261.0669    393.03906    224.96658   -42591.013    42615.797    168.07248    42.234598 
152880000    278.18754    456.41654    549.72126    -42617.35    42634.013   -93.304717     42.23043 
152884000    271.64139    262.95358    310.63133   -42639.976    42647.931   -47.677745    42.237079 
152888000    273.37762    445.88557    530.93595   -42647.585    42667.621   -85.050382    42.234125 
152892000    318.47664    707.14479    434.42581   -42643.517    42651.788    272.71898    42.244287 
152896000    281.88533    431.76069    490.26295   -42647.071    42667.585   -58.502259    42.250895 
152900000    312.47676    615.77141    733.99652   -42659.798    42661.774   -118.22512    42.256554 
152904000    272.24091    274.35732    523.98421   -42671.442    42685.282   -249.62689    42.255936 
152908000    287.95202    332.50068    356.15971   -42679.969     42699.07   -23.659033    42.233987 
152912000    288.79937    756.28884    249.78651   -42715.731    42722.948    506.50233    42.240577 
152916000    262.23248    615.02464    749.52887   -42710.545    42727.892   -134.50423    42.247416 
152920000    272.73541    105.76319     503.8937   -42736.138    42754.657   -398.13051    42.260471 
152924000    324.79999    1351.7006    512.97454   -42758.858    42764.847     838.7261    42.243659 
152928000    298.87005    653.38319     912.4268   -42765.058    42782.693   -259.04361    42.244294 
152932000    310.82328    522.63671    456.07763   -42783.946    42798.829    66.559082    42.224569 
152936000     316.6354    735.02369    307.70561   -42803.355    42817.953    427.31808    42.229203 
152940000     320.7109    1073.7675    164.92623   -42834.715    42831.765     908.8413    42.243904 
152944000    320.89046     234.9201    436.88259   -42841.809     42848.56   -201.96249    42.236241 
152948000    257.64333    362.38724    286.25103   -42833.536    42855.824    76.136211    42.256587 
152952000    260.11248    293.31027    782.81526   -42836.959    42863.597   -489.50499    42.253368 
152956000    280.58927    132.33617    572.60406   -42856.546    42879.718   -440.26789    42.260441 
152960000    235.61982    255.83408    441.80941    -42881.88    42910.667   -185.97533     42.25364 
152964000    266.67654      520.831    341.70478   -42893.898    42907.468    179.12622    42.233132 
152968000    251.98278    380.21267    477.56025   -42907.499    42923.113   -97.347574    42.233869 
152972000    297.39362    600.65577    428.12884   -42919.285    42936.865    172.52693    42.232912 
152976000    247.97946    866.64872    719.92517   -42928.353    42952.804    146.72355    42.234679 
152980000    243.18134    426.38252     279.3232   -42916.978    42954.267    147.05932    42.224258 
152984000    291.99579    806.17184    460.69559   -42929.398    42946.431    345.47625    42.226601 
152988000    294.14584    510.62463    467.11065    -42938.29    42959.782    43.513974    42.224279 
152992000    277.92303    375.94285    472.70847   -42978.688    42971.567   -96.765627    42.225477 
152996000    277.42712      408.956     130.9399   -42987.478    43001.574    278.01611    42.229416 
153000000    274.23901    257.98718    202.62284   -43002.744    43012.488    55.364339    42.233852 
153004000    292.76008    340.24395    145.05727   -43002.746    43020.683    195.18668    42.240359 
153008000    288.89163    317.68148    370.63022    -43019.91    43026.861   -52.948732    42.233387 
153012000    263.85819    107.15478     1330.657   -43016.358    43035.409   -1223.5022    42.224443 
153016000     289.2787    185.57954     209.2958   -43016.436     43043.95   -23.716259    42.210401 
153020000    274.08317    331.17203     301.1037   -43024.536     43055.67    30.068325    42.201525 
153024000    279.02267    205.20174    605.19967   -43054.763    43082.641   -399.99793    42.201667 
153028000    303.61113    738.64962    329.18872   -43073.545    43091.296     409.4609    42.210548 
153032000    297.33322    213.09705    328.22721   -43089.776    43099.747   -115.13016    42.205215 
153036000    308.38387    537.91844    716.82778   -43113.779    43113.007   -178.90934    42.198393 
153040000    249.16738    191.44916    462.37535   -43104.156    43145.482   -270.92619    42.211647 
153044000    271.47904    450.59691    375.61939   -43114.313    43121.709    74.977517    42.202787 
153048000    296.51722    488.59129    511.24367   -43142.951    43147.719   -22.652382     42.20364 
153052000    289.98674    670.54492    382.22502   -43163.814    43174.655     288.3199    42.215667 
153056000    249.44181    138.73765    397.15691   -43167.502    43202.039   -258.41926    42.221927 
153060000    296.65925    248.54752    591.37428   -43194.815      43194.3   -342.82677    42.247431 
153064000    279.69821    347.81686    573.35642   -43194.163    43212.731   -225.53956    42.239382 
153068000    256.96756    528.43153    469.50217   -43200.072    43213.529    58.929363    42.239442 
153072000    276.06053    811.77114    831.09484   -43194.968    43225.848   -19.323697     42.24999 
153076000    252.23237    366.88934    606.13453   -43196.949    43226.597   -239.24519    42.225329 
153080000     258.4176    579.68569    361.36324   -43199.582    43232.144    218.32245    42.239517 
153084000    280.49206    281.51066    230.90084   -43213.224    43231.883    50.609818    42.246767 
153088000     307.8378    604.31267    200.77553   -43239.496    43241.414    403.53714    42.229855 
153092000    237.43871      669.207    460.64385   -43243.999     43264.63    208.56315    42.218162 
153096000    266.10055    286.44545    585.07593   -43241.534    43263.642   -298.63047    42.241854 
153100000    260.73965    381.86765    371.79166   -43242.764    43266.475    10.075996    42.249433 
153104000    288.60258    501.01283    747.13978   -43258.992     43277.03   -246.12695    42.268095 
153108000    278.91308    201.50902    698.15666    -43266.73    43280.359   -496.64764    42.267661 
153112000    297.37158    369.68035    325.64801   -43268.483    43282.194    44.032341    42.279295 
153116000    275.86251    340.34396    368.60771    -43242.47    43266.187   -28.263757    42.300663 
153120000    339.00505    354.71579    360.01833   -43269.633    43282.303   -5.3025377    42.298343 
153124000    310.69079    601.12345    324.07685   -43278.729    43288.703    277.04661    42.294445 
153128000    293.64561     824.4126    739.33096   -43280.752    43288.753    85.081636    42.287216 
153132000    272.11841    243.04042    442.32796   -43282.553    43306.799   -199.28754    42.299333 
153136000    259.17837    525.13748    183.10735   -43297.063    43324.439    342.03013    42.287619 
153140000    283.82405    1254.1464    520.34806   -43316.063    43329.037    733.79835    42.280731 
153144000    285.27059    205.83353    372.02333   -43331.241     43362.92    -166.1898    42.258753 
153148000    280.29725    741.25841    175.18085   -43335.422    43359.313    566.07757    42.249587 
153152000    271.40164     634.4731    366.08491   -43349.144    43373.936    268.38819    42.246273 
153156000    354.32996     756.5464    358.30274   -43389.931    43389.309    398.24366    42.232184 
153160000    281.13824    293.80555    723.70397    -43397.99    43414.351   -429.89842    42.229892 
153164000     274.5895    758.32618    289.14779   -43411.541    43421.286    469.17839    42.248553 
153168000    260.14375    636.11771    335.88669   -43415.164    43440.669    300.23103    42.261462 
153172000     270.6513    549.07369    558.91372   -43424.345    43443.337    -9.840021      42.2697 
153176000    282.82058    1153.7425    532.91735   -43444.617    43464.094    620.82519    42.276628 
153180000    247.31641    576.03812    328.65968   -43438.641    43481.384    247.37844    42.278917 
153184000    302.21129    828.22531    885.99648   -43462.452    43474.086   -57.771163    42.277871 
153188000    296.35697    907.35628    880.52653   -43477.363    43475.988    26.829751     42.26225 
153192000    242.42896    252.00667    378.54701   -43487.469    43510.259   -126.54035    42.263996 
153196000     249.0572    201.31608    456.35595   -43497.919    43513.838   -255.03987    42.253937 
153200000    276.98934    229.28885    888.42535   -43498.377    43512.476   -659.13649     42.23625 
153204000    286.64607    417.19987    435.23006   -43501.369    43511.568   -18.030197    42.205522 
153208000    284.06262    448.24503    283.44204    -43500.42    43530.719      164.803    42.214384 
153212000    330.29218    318.89175    302.95583   -43528.511    43546.988    15.935914    42.209972 
153216000    315.91406     194.7317    310.27624   -43542.477    43551.489   -115.54455    42.192673 
153220000    290.32393    246.01926    552.48778   -43554.645    43581.101   -306.46851    42.183044 
153224000    266.12811    558.89369    796.62119   -43568.997    43592.039   -237.72749    42.180446 
153228000    298.85871    589.22088    537.08541   -43600.361    43602.582    52.135465    42.191603 
153232000    364.43884    755.79133    366.16734   -43645.371    43641.297    389.62398    42.192033 
153236000    264.77001    414.04603    534.34407   -43640.544    43662.675   -120.29804    42.208863 
153240000    278.52422    301.48641    359.91768    -43671.49    43685.738   -58.431265    42.210868 
153244000    323.28802    103.87492    678.53265   -43687.472    43695.506   -574.65773    42.203807 
153248000    274.48894    355.91318    283.76366   -43687.258    43716.309    72.149525    42.213831 
153252000    290.01362    127.50377    760.70742   -43704.773    43713.344   -633.20366    42.206333 
153256000    290.77084    777.14398    418.09771   -43713.789    43724.261    359.04627    42.194117 
153260000    275.66156    492.07454    357.92698   -43711.087    43722.887    134.14756    42.197951 
153264000    289.60517    533.31102     367.7967   -43710.039    43721.859    165.51432    42.192441 
153268000    304.76444    445.87323    298.22031   -43724.968    43744.481    147.65291    42.187058 
153272000    273.65784    475.83524    123.98615    -43724.53    43741.366    351.84908    42.200122 
153276000    297.61341     395.7235    465.22202   -43719.425    43728.458   -69.498519    42.176544 
153280000    300.07364    149.60446    596.45669   -43728.313    43740.861   -446.85223    42.173641 
153284000    315.48059    676.39753    551.31025   -43734.823    43743.603    125.08729    42.172488 
153288000    269.73233     358.0505    432.33607   -43733.308    43754.485   -74.285573    42.168759 
153292000    292.76857     330.4555    288.10723    -43743.15    43754.961     42.34827    42.156611 
153296000    248.78191    173.42816    411.66914   -43737.283    43775.065   -238.24098    42.148311 
153300000    278.99832    898.68385    423.24128   -43759.453    43771.196    475.44257    42.148089 
153304000    279.60153    639.78737    207.56306   -43754.949    43780.314    432.22431    42.140992 
153308000    249.48388    326.51087    437.19971   -43756.401    43789.851   -110.68883    42.160627 
153312000    274.76944     451.8632    1077.9968   -43762.069    43760.658   -626.13362    42.145611 
153316000    268.18393    295.40788    371.20466   -43760.368    43777.135   -75.796784    42.154425 
153320000    274.82661    282.27939    517.24015    -43775.12    43794.961   -234.96075    42.144181 
153324000    285.98029    678.07267    529.50921    -43783.49    43801.101    148.56346    42.150807 
153328000     304.4541     364.2439     628.2092   -43788.342      43804.4   -263.96529    42.146373 
153332000    312.82365    533.56418    319.44862   -43819.428     43830.21    214.11556    42.157664 
153336000    317.31675    289.79119    678.68781   -43840.407    43848.727   -388.89662    42.153628 
153340000    263.91229    378.15427     612.0497   -43846.963    43873.447   -233.89544    42.141976 
153344000    293.59291    605.84536    470.00759   -43866.253    43888.461    135.83778    42.138719 
153348000    273.67697    938.08308    359.23461   -43880.039    43891.471    578.84847    42.149888 
153352000    320.52416    899.88508     186.4761   -43886.886    43898.011    713.40898     42.16262 
153356000    318.55855    528.30086    427.67097   -43899.698    43901.687     100.6299    42.175139 
153360000    275.18854    130.63557    401.68854   -43886.918    43910.742   -271.05297    42.186556 
153364000    325.94782    910.78102    263.85784   -43890.453    43898.625    646.92317    42.187687 
153368000    343.58278    463.16756    544.02824   -43907.788    43901.989    -80.86068     42.17891 
153372000    294.59349    424.02312    265.85003   -43901.374     43914.57    158.17308    42.173831 
153376000    285.10506    471.97324    156.30055    -43908.52    43933.716    315.67269    42.193678 
153380000    307.90531    488.26414    167.97254   -43951.551    43957.794     320.2916    42.206547 
153384000    294.25464    368.94904    118.13809   -43967.648    43984.354    250.81094    42.202063 
153388000      285.789    519.13979    555.87087   -43995.656    44005.273   -36.731086    42.206092 
153392000     323.7895    748.98769    492.04871   -44012.569    44015.459    256.93898     42.19399 
153396000    308.98879    570.32852    311.16408   -44011.065    44017.186    259.16443    42.181054 
153400000     294.8464    1005.8742    163.55551   -44016.277    44020.785    842.31869    42.174875 
153404000    285.07938    1029.5101    278.77941   -44017.855    44030.476    750.73067    42.180348 
153408000    326.57448    360.63638    520.52684   -44022.646     44033.49   -159.89046    42.190373 
153412000    259.44243    302.05343    218.90125   -44028.854    44058.758    83.152179    42.192084 
153416000    228.65995    279.76605    467.59853   -44030.242    44078.312   -187.83249    42.197712 
153420000    258.16163    651.31703    628.80169   -44038.453    44063.527    22.515339    42.217367 
153424000    306.99405     540.9601    877.89322    -44049.55    44070.268   -336.93312     42.21332 
153428000    250.38302    249.27041    758.19049    -44046.51    44065.553   -508.92008    42.190607 
153432000    266.05503    727.54853    362.97882   -44058.396    44075.583    364.56971    42.187562 
153436000    333.00919    896.87371    227.55476   -44069.122    44076.227    669.31895    42.179742 
153440000    300.86459    737.95859     392.8195   -44082.041    44092.136    345.13909    42.198006 
153444000    236.68364    399.89004    337.18329   -44070.449    44112.392    62.706753    42.189044 
153448000    266.07855    581.83705    291.90087   -44092.654    44107.677    289.93618      42.1974 
153452000     260.3067    203.09018    269.36175   -44092.618    44115.015    -66.27157      42.1896 
153456000    244.60665    512.64534    168.19423   -44118.699    44138.505    344.45111    42.196907 
153460000    247.90894    344.67381    591.88461   -44114.927     44157.67    -247.2108     42.18989 
153464000    272.68915    442.07071    265.96028   -44130.533    44152.392    176.11043    42.199895 
153468000    298.97085    863.26003    385.85221   -44142.885    44148.153    477.40781    42.209757 
153472000    272.04499     342.0763    331.70929   -44156.269    44169.419    10.367013    42.212871 
153476000    256.57017    813.57018    743.49443   -44150.855    44174.308    70.075757    42.216476 
153480000    294.36734    623.68995    216.19725   -44157.953    44170.885    407.49271     42.23696 
153484000    291.02761    486.72522    402.10964   -44173.624    44190.669    84.615572    42.236703 
153488000    276.59885    359.13426    464.60808   -44192.345    44209.144   -105.47381    42.244392 
153492000    301.74949    358.41567    248.07911    -44202.95    44212.958    110.33656    42.258181 
153496000     260.5894    839.77773    373.90975   -44227.558    44244.376    465.86798    42.259256 
153500000    352.25939    259.32196    363.59983   -44236.763    44241.496   -104.27787    42.242301 
153504000    273.25596    429.39679    407.92532   -44239.496    44262.886    21.471469    42.257185 
153508000    305.26253    516.55357    356.83667   -44282.674    44291.859     159.7169    42.267506 
153512000    317.13412    294.06705    575.60909   -44295.887    44304.174   -281.54204    42.246897 
153516000    269.07478    123.55581     551.2872    -44290.12    44306.488   -427.73139    42.231863 
153520000    320.78855     491.7954    250.84081   -44298.924    44294.466    240.95459    42.238426 
153524000    314.28586    898.46066    730.93722   -44302.228    44312.289    167.52344    42.231491 
153528000    292.07575    416.75911    290.21102   -44310.618    44337.681    126.54809    42.209277 
153532000    312.42653    207.67004    161.84473   -44327.249    44339.741    45.825316    42.225656 
153536000    277.59503    249.71973    498.53035   -44347.206    44359.337   -248.81061    42.223323 
153540000    279.82292     1158.935    204.59748     -44359.6    44379.337    954.33756    42.229603 
153544000    265.94525    929.39132    405.39628   -44362.807    44380.514    523.99504    42.214422 
153548000    285.07946    181.95986    264.89428   -44377.074     44396.42   -82.934421    42.205517 
153552000    291.30862    307.56734    910.12797   -44371.814    44390.716   -602.56062    42.216929 
153556000    313.02682    590.72009    379.98809   -44396.187    44398.085      210.732    42.242841 
153560000    313.37208    798.87985    235.60687   -44416.653    44411.849    563.27298    42.253853 
153564000    302.87637    274.02002    516.41539   -44410.411    44433.809   -242.39536    42.260332 
153568000    278.48314    543.11214    340.31938   -44410.185    44425.199    202.79276    42.280462 
153572000    259.72967    117.71699    452.94456   -44410.637    44440.875   -335.22757    42.277972 
153576000    277.14335    261.94588    370.81519   -44432.408     44455.34   -108.86931    42.269608 
153580000    309.86352     729.4404    682.67314   -44460.203    44460.055    46.767255    42.269618 
153584000    269.50527    730.72594    282.88751   -44465.764    44482.914    447.83842     42.27743 
153588000    309.62851    228.23624    306.17207   -44463.029    44484.386   -77.935834    42.284187 
153592000    273.32097     444.1925    428.73927   -44467.094    44497.307    15.453234    42.270436 
153596000    285.24579     342.7754    349.40001   -44482.358     44502.12   -6.6246071    42.264767 
153600000    270.19371    443.33573     344.0613   -44495.319    44517.952    99.274429    42.249158 
153604000    276.58622    217.95447    786.68827   -44505.748    44532.776    -568.7338    42.238501 
153608000     266.7754    394.06881    514.45215   -44514.792    44539.544   -120.38334    42.240909 
153612000    296.65794    300.02771    1077.3267   -44536.457    44546.644   -777.29897    42.228969 
153616000    262.39945    347.07081    111.95072   -44527.908    44552.096    235.12009    42.210855 
153620000    317.45125    555.23435    242.14394   -44544.221    44556.488    313.09042    42.211037 
153624000    266.44566    357.05758    627.18616   -44554.036    44565.886   -270.12858    42.228331 
153628000    300.27785    234.99602    320.31636   -44561.361    44583.002   -85.320345    42.232326 
153632000    309.03548    193.62974    771.65187   -44581.908    44589.346   -578.02213    42.236883 
153636000     291.0356    428.14281    271.12733   -44601.638    44599.433    157.01549    42.248103 
153640000    310.38865    588.22705    492.27194   -44609.708    44622.817    95.955105    42.262333 
153644000    256.44367    288.69746    596.67972   -44619.986    44650.883   -307.98226    42.241862 
153648000    241.61388    247.73188    110.58923   -44619.794    44655.642    137.14265    42.240047 
153652000    244.38839    423.71133    215.33193   -44631.845    44657.633     208.3794    42.248806 
153656000    279.40735    419.60033    413.52555   -44648.613     44667.72    6.0747795    42.252508 
153660000    269.69831    362.04955    608.94755   -44666.064     44680.13   -246.89799    42.232704 
153664000    288.15929    866.04504    555.86733   -44663.719    44675.455    310.17771    42.243539 
153668000    297.48319    682.31089    233.66788   -44672.989    44688.379    448.64301    42.257874 
153672000     283.9248    449.71763     313.7215   -44684.785    44692.803    135.99613    42.262183 
153676000     301.6844     222.3207    763.52794   -44671.385    44686.974   -541.20724    42.252994 
153680000     253.5204    469.46231    509.60512   -44681.263    44705.257   -40.142807    42.252905 
153684000    278.85956    396.88405    466.84741   -44702.743    44714.397   -69.963362    42.244064 
153688000    270.94234    400.08134    900.73965   -44710.894    44725.189   -500.65831    42.239487 
153692000    279.58582    483.55072    223.71662   -44727.781    44738.428     259.8341    42.237347 
153696000    297.60789    609.97836    865.89919   -44724.897    44746.015   -255.92083    42.244818 
153700000    320.84131    458.95324    386.65988   -44734.141    44741.814    72.293356    42.253925 
153704000    255.63143    383.19027    454.21586   -44719.915    44756.739    -71.02559     42.25876 
153708000    283.14112    795.29959    291.80114   -44737.755    44757.577    503.49845    42.270138 
153712000    276.04992    566.25984    481.97479   -44746.184     44773.88     84.28505    42.268147 
153716000    256.83379    808.57846    788.49689   -44756.165    44771.165    20.081562    42.254899 
153720000    283.96201    491.86607    166.63146    -44762.85    44778.149    325.23461    42.257982 
153724000    288.62357    223.40038    356.37688   -44772.127    44785.708    -132.9765    42.237155 
153728000    282.60476    561.93851    1367.4041   -44770.487    44804.146   -805.46563    42.255354 
153732000    299.55093    489.58224    299.86431   -44801.056    44800.443    189.71793    42.263053 
153736000    347.04807    833.52839    213.56107   -44825.599     44823.79    619.96732    42.275231 
153740000    305.22961     456.2825    371.40823    -44839.37    44842.594    84.874268    42.264669 
153744000    263.26183    296.61343    588.33391   -44822.793    44848.996   -291.72047    42.279509 
153748000    243.77527    320.18751    694.65074   -44832.599    44868.915   -374.46323    42.284833 
153752000     293.8506    754.80333    308.21055   -44854.935    44866.496    446.59278    42.292536 
153756000    288.85201    265.11767    535.76613   -44863.079    44870.618   -270.64845    42.297805 
153760000    271.21398    514.05442    591.39316   -44855.612    44880.176   -77.338742    42.293457 
153764000     322.6125    829.78547    260.44154   -44893.789    44887.649    569.34393    42.305304 
153768000    328.34507    423.26908    423.25505   -44898.874    44908.147  0.014030935     42.31686 
153772000    239.95161    541.03515    307.60649   -44903.102    44944.996    233.42866    42.307162 
153776000    297.40285    309.74316    493.11218   -44948.133    44960.588   -183.36902    42.320186 
153780000    273.31115    352.59024    493.93114    -44940.47     44960.65    -141.3409    42.312899 
153784000    307.54273    366.70078    522.74773   -44968.878     44970.69   -156.04695    42.320265 
153788000    287.15857    164.21163     417.9351   -44966.021    44976.345   -253.72347    42.311257 
153792000    230.94289    567.54867     528.7077   -44972.746    44988.281    38.840965    42.315792 
153796000    276.29154    306.44762    146.59687   -44989.245    45006.029    159.85075    42.343392 
153800000    284.23145     271.6259    721.06437    -44988.85    45007.342   -449.43847    42.348117 
153804000    268.26679    793.84144    393.77407   -44978.802    45009.654    400.06736    42.340559 
153808000      312.891    565.78197    429.49404     -45002.1    45010.955    136.28794    42.326906 
153812000    243.11165    413.03415    815.52493   -44991.623    45024.882   -402.49077    42.314893 
153816000    258.90518    182.88183    403.86192   -45007.473    45031.345   -220.98009    42.298643 
153820000    294.42064    139.29862     376.3955   -45013.485    45034.948   -237.09689    42.295679 
153824000    254.70732     254.9804      421.931   -45018.821    45045.755    -166.9506    42.306567 
153828000    294.45189    321.31076    327.71332    -45050.94    45062.067   -6.4025569    42.323894 
153832000    259.83931    1176.6511     205.3788   -45062.656     45085.45    971.27226    42.344653 
153836000    280.30386    537.33053     474.4571   -45063.093     45093.61    62.873422    42.350956 
153840000    269.20279    349.34986    574.83092   -45073.159     45103.74   -225.48106    42.352179 
153844000    263.08978    359.63665    493.50622    -45088.07    45096.482   -133.86957    42.361208 
153848000    306.03454     394.6808    264.88355   -45104.766    45113.492    129.79725    42.355809 
153852000    293.19648    220.00094    1092.7559   -45102.357    45123.194   -872.75494    42.353306 
153856000    308.22989    840.16994    1146.6956   -45113.907    45127.992   -306.52562    42.360611 
153860000    281.07622    477.79481    621.46948   -45124.579    45136.007   -143.67468    42.356028 
153864000      325.482    564.71956    459.39713    -45139.97    45145.232    105.32243    42.357142 
153868000    321.09257    478.26034    232.26677   -45151.827     45156.65    245.99358    42.367977 
153872000    298.88471    518.70472    149.26826   -45171.982    45191.203    369.43646    42.359743 
153876000    328.85497    821.32501    654.63678    -45172.97    45174.986    166.68823    42.378058 
153880000    273.27771    468.51018    855.68586   -45172.332    45185.424   -387.17568    42.376121 
153884000    294.37609    245.15513    671.48128   -45184.808    45195.279   -426.32616    42.375781 
153888000    259.08007    358.27729    329.45319   -45204.354    45225.064    28.824091    42.378786 
153892000    265.40129    484.61444    723.86142   -45223.991    45240.074   -239.24698    42.393283 
153896000    291.16278    436.03985    556.98642   -45243.373    45263.005   -120.94657    42.387709 
153900000     291.1116    176.96606    358.67626   -45244.633    45262.429    -181.7102    42.380384 
153904000     320.6942    454.24099    220.08657   -45266.042    45272.118    234.15443    42.373288 
153908000    274.80856    423.59181    178.52701   -45254.091    45286.714     245.0648    42.357681 
153912000    230.31896    328.95818      292.966   -45265.133    45292.526    35.992185    42.367811 
153916000    317.70505     641.6379    493.38271   -45293.012    45307.636    148.25518    42.361588 
153920000    291.36821    617.83803    570.12884   -45286.674      45306.1     47.70919    42.350429 
153924000    283.39006    406.74776    255.76731   -45292.576    45299.986    150.98045    42.354546 
153928000    251.75663    544.03464    55.601828   -45298.986    45335.144    488.43281    42.355679 
153932000    268.35265    845.42351    593.21927   -45308.076    45335.254    252.20424    42.352344 
153936000    288.52523    461.46922    259.71319   -45325.423    45343.624    201.75603    42.344836 
153940000    284.23712    484.78734    589.83366   -45324.524    45354.237   -105.04632    42.341688 
153944000    299.67583    234.92414    579.45792   -45343.838    45363.739   -344.53378     42.34426 
153948000    249.58333    648.27516    174.79317   -45337.489    45363.105      473.482       42.357 
153952000     325.8772    325.00252    390.37033   -45342.209     45360.13   -65.367805     42.34691 
153956000    264.64932    165.23273    325.31849   -45353.299    45368.161   -160.08575     42.34876 
153960000    305.66429    591.06888    192.32687   -45379.608    45380.636    398.74201    42.354066 
153964000    237.81381    167.29835    546.46255   -45370.628    45408.737   -379.16421    42.333339 
153968000     278.6064    570.88749    474.90526   -45384.514    45397.889     95.98223    42.313086 
153972000    292.50547    518.62087    274.92359   -45385.693    45407.805    243.69728    42.297554 
153976000    288.24526     364.8247    313.68218   -45399.505    45411.923    51.142512    42.294482 
153980000    277.09336    384.24583    164.35698   -45391.167    45415.124    219.88885    42.318156 
153984000    286.76558     1005.208    693.25071   -45411.842    45420.918    311.95729    42.302853 
153988000    297.37869     627.8415    273.13242   -45408.515     45427.02    354.70908    42.292132 
153992000    322.28482    150.23026    327.01847   -45436.344    45445.801   -176.78821    42.283827 
153996000    286.99888    975.27995    480.44219   -45440.859     45452.61    494.83775    42.292497 
154000000     302.7642    385.50651    446.47937   -45439.831    45455.823    -60.97286    42.297308 
154004000    270.16486    155.14893    320.09621   -45429.535    45450.846   -164.94728      42.3004 
154008000    307.37573    273.35612    244.88666   -45427.898    45438.793    28.469462    42.303703 
154012000    282.22676    994.92101    484.62496   -45427.372    45457.994    510.29605    42.313949 
154016000    312.62635    310.99337    287.25928   -45454.698     45463.38    23.734094    42.318782 
154020000     332.0491    561.49728    530.75396   -45470.021    45459.021    30.743324    42.321336 
154024000    291.81928    733.72508    227.31572   -45483.641     45496.06    506.40936    42.331481 
154028000    280.22347    847.78851    436.17163   -45480.882    45506.042    411.61688    42.320242 
154032000    231.40756    320.40335    348.84165   -45483.601    45518.093     -28.4383    42.327433 
154036000    275.45599    77.891216    769.00566   -45508.495    45532.568   -691.11444    42.322505 
154040000    305.64342    166.67139    237.07397   -45546.073     45563.76   -70.402576    42.330875 
154044000     266.7173    545.81525    260.40344   -45561.217    45577.175    285.41181    42.323705 
154048000    286.56915    284.75946    525.65418   -45583.594    45600.038   -240.89473    42.318497 
154052000    296.70471     791.0708    467.42798   -45594.391    45601.474    323.64282     42.32761 
154056000    302.48259    914.62493    546.69171   -45608.757    45617.555    367.93322    42.334577 
154060000    267.40615    497.32842     337.1978   -45619.279    45642.845    160.13062    42.322803 
154064000    291.98021    502.56251      653.164   -45624.064    45636.305   -150.60149    42.317335 
154068000    271.05064    327.43363    561.76604   -45620.295    45645.591   -234.33242    42.319582 
154072000    293.43151    977.95922    359.88767   -45660.021    45655.873    618.07154    42.320041 
154076000     316.5047    398.94424    346.62471   -45665.383    45670.608    52.319522    42.322348 
154080000    316.62515    539.73628    909.63466   -45681.349    45687.138   -369.89838     42.31985 
154084000    287.20737    433.86269    176.28217   -45679.998    45706.386    257.58052    42.318469 
154088000    327.30246    608.15588    250.05041   -45706.351    45716.556    358.10547    42.326317 
154092000    279.86955    448.12334    543.64725    -45692.69    45712.624   -95.523911    42.335293 
154096000    297.35354    706.21978    510.47614   -45702.197    45716.657    195.74364    42.352884 
154100000    292.69477    684.47397    278.80503   -45714.384    45733.644    405.66894    42.363991 
154104000    258.74949    605.54133    547.11697   -45715.308    45744.061    58.424363    42.359967 
154108000    234.38915    292.28866    246.83164   -45728.878    45766.667    45.457022    42.347163 
154112000    247.17299    509.03781    193.32855    -45722.45     45759.97    315.70926    42.349082 
154116000    277.19979    409.05366    888.64436   -45743.063    45768.288    -479.5907    42.333827 
154120000    293.66683    339.71793    447.06838   -45762.957    45782.298   -107.35045    42.348689 
154124000    282.91661    848.35141    362.36406   -45770.085    45790.861    485.98735     42.35438 
154128000    277.31819    425.85734    353.90806   -45777.108    45800.841    71.949275    42.368959 
154132000    255.28238    657.46561    325.63214   -45784.432    45812.434    331.83347    42.355622 
154136000    277.49027     632.6333    583.92884   -45793.175    45816.733     48.70446      42.3563 
154140000    296.71338    139.19303    292.46092   -45803.739    45824.504   -153.26788    42.344372 
154144000    275.78715    216.85209      359.577   -45819.723    45849.934   -142.72491    42.332408 
154148000    314.27274    819.50498    366.32184   -45845.556    45862.652    453.18314    42.328418 
154152000    294.23529    598.38098    337.62006   -45859.215    45866.023    260.76093    42.353739 
154156000    285.95656    345.35211     313.5497   -45876.644    45890.621    31.802414    42.353792 
154160000    259.45283    264.77901    188.58642   -45882.239    45896.085    76.192591    42.369086 
154164000    258.91273    445.95045    344.65684   -45880.122    45904.216     101.2936    42.390716 
154168000    339.60773     481.6626    241.42917   -45893.637    45897.208    240.23343    42.398024 
154172000    245.84071    276.48765    288.63835   -45869.108    45903.231   -12.150705    42.405993 
154176000       304.17    708.57546     236.6284   -45885.856     45898.65    471.94706     42.39896 
154180000    288.90584    353.09082    286.63238   -45879.448    45912.104    66.458439    42.393312 
154184000    296.94939    288.06917    333.74131   -45899.683    45903.956   -45.672141    42.392094 
154188000    316.65409    669.59995    631.50461   -45908.766     45917.11    38.095336     42.38481 
154192000    283.90634     787.1846    578.90375   -45924.663    45940.844    208.28085    42.390802 
154196000    294.61862    585.63325    120.17771   -45925.357    45936.801    465.45554    42.395205 
154200000    288.11946    329.27927    756.36421   -45911.912    45941.628   -427.08495    42.391237 
154204000     321.1001    591.02554    1023.7198   -45923.713    45945.547   -432.69428    42.400139 
154208000    283.90548    207.19368     708.3502   -45941.257    45960.362   -501.15652    42.394688 
154212000    279.36604    460.06171    252.20789    -45964.58    45986.653    207.85382    42.404901 
154216000    286.84554    550.98908    385.08154    -45976.19    45995.982    165.90753    42.420367 
154220000    273.77361    382.61742    135.35835   -45999.417     46019.58    247.25907    42.408931 
154224000    273.19009    684.38265    380.60179   -46006.585    46029.222    303.78086    42.410321 
154228000    267.09861    480.41994    357.23017    -46002.43    46032.735    123.18976    42.399387 
154232000    260.75825    440.54043    476.00342   -46003.997    46034.356   -35.462993      42.4126 
154236000    303.79174    668.67314    601.44562   -46022.652    46032.149    67.227519    42.413378 
154240000    243.74087    423.59742    276.11012   -46013.077    46046.502     147.4873    42.427345 
154244000    299.77346    655.07195    488.39819   -46032.406    46038.939    166.67376    42.430008 
154248000    268.61085    579.90015    267.41326   -46031.189     46036.15    312.48689    42.437259 
154252000    299.75904    528.48641    296.66272   -46046.029    46045.445    231.82369    42.431109 
154256000    257.56545    415.90308    372.71528   -46044.574    46067.103    43.187803    42.448561 
154260000    237.64248     432.2972    361.31283   -46048.669    46076.736     70.98437    42.453217 
154264000    320.66477    446.33037    146.51517   -46058.345    46064.098     299.8152    42.457268 
154268000    275.96004    668.80257    252.69497   -46045.943    46073.901    416.10761    42.467457 
154272000    262.97178    312.20825    323.17507   -46060.064    46091.141   -10.966817    42.471984 
154276000    311.82198    869.15905    145.02504   -46077.074    46091.925      724.134    42.462989 
154280000    248.45824    544.33425    310.96383   -46077.453    46103.394    233.37041    42.478583 
154284000    284.73289    509.56554    317.56393   -46098.001    46125.879    192.00162    42.467947 
154288000    271.85525    605.44084    339.67273   -46106.972    46126.491    265.76811    42.476729 
154292000    304.69967    213.81502    433.45765   -46117.877    46140.721   -219.64263    42.480296 
154296000    212.84644    474.54857    253.27333   -46123.568    46162.456    221.27525    42.484557 
154300000    295.12937    389.58773     478.7522   -46140.929    46154.552   -89.164464    42.511169 
154304000    314.97072    546.08812    877.87093   -46144.985    46159.255   -331.78281    42.524735 
154308000    279.75231    195.19281    356.86723    -46151.49    46172.828   -161.67441    42.530179 
154312000     291.6038    793.74466    333.25034   -46180.124    46191.417    460.49432    42.530816 
154316000    295.62743    227.71625    492.14432       -46177    46204.167   -264.42807    42.538813 
154320000    256.24662     211.3574    520.53921   -46206.296    46224.354   -309.18181    42.551822 
154324000     270.6243    401.64746    164.31864   -46222.028    46248.263    237.32882    42.550626 
154328000    298.88496    296.39707    484.83047   -46237.981    46256.395    -188.4334     42.54887 
154332000    287.27455    630.81871    321.31791   -46245.674    46264.954     309.5008    42.557202 
154336000    285.22491    922.30075    392.54522   -46267.671    46278.548    529.75553    42.568009 
154340000    280.38981    722.71866    445.75252    -46269.85      46284.5    276.96615    42.578327 
154344000    265.86403    443.92286    206.51644   -46269.337    46295.849    237.40643    42.571722 
154348000    248.53619    397.09904    265.72576   -46284.645    46313.004    131.37328    42.563091 
154352000    286.14143    890.81082    191.74639   -46298.145    46315.517    699.06443    42.556357 
154356000    254.48604    91.374539    594.09097    -46304.08    46333.567   -502.71643    42.554094 
154360000     276.0882    557.98868    291.90238   -46311.083    46321.356     266.0863    42.575687 
154364000    309.05418    560.14768    506.71494     -46312.8    46323.306    53.432741    42.578613 
154368000    295.12786    1138.3324    531.29321   -46319.105    46339.183    607.03915    42.583726 
154372000    273.68555    473.12566    418.47963   -46326.022    46355.132     54.64603    42.604205 
154376000     308.0098    765.79103    645.70864   -46334.445    46357.601    120.08239    42.629807 
154380000    312.31977    508.87097    680.03463   -46346.539    46361.233   -171.16366    42.639406 
154384000    281.23225    566.96671     243.6827   -46351.704    46366.288    323.28401    42.648483 
154388000    304.67546    891.50897    822.60695   -46362.081    46382.565    68.902021    42.637044 
154392000    322.50609    395.09643    647.94449   -46397.069    46388.789   -252.84806    42.628825 
154396000    298.74289    642.69759     482.9593    -46395.48    46407.457    159.73829    42.614083 
154400000    320.87801    540.42124    509.13083   -46390.835    46402.187    31.290405    42.610629 
154404000    337.26386    644.53563    733.08393   -46386.691    46384.173   -88.548304    42.593954 
154408000    270.02088    538.73099    836.33824    -46369.17    46397.917   -297.60725     42.58157 
154412000    256.77575     484.9241     250.4708    -46375.07    46406.372     234.4533    42.580016 
154416000    278.79963    514.65809    401.97229   -46375.043    46400.206     112.6858    42.585588 
154420000    269.47513    320.74436     359.6694   -46407.466    46420.827   -38.925039    42.589484 
154424000     277.8213    325.90923    333.89563   -46436.026    46449.755   -7.9863986    42.593064 
154428000    287.63032    622.55668    100.14221   -46457.514    46462.768    522.41447    42.585721 
154432000     269.8529    432.64189     287.5843   -46459.117     46471.13    145.05759    42.594679 
154436000     305.0381    281.51421    553.90628    -46477.65    46479.131   -272.39207    42.602389 
154440000    316.25262    575.52779    414.51889   -46495.811    46510.279     161.0089    42.595162 
154444000    262.20038    413.15718     1349.028   -46503.672    46515.432   -935.87078    42.575949 
154448000    273.38472    243.17207    777.53766   -46520.951    46529.717   -534.36559    42.569807 
154452000    288.41502    479.02208    548.94296   -46520.164    46543.451   -69.920882    42.554674 
154456000    319.62079    636.70949    399.31918    -46527.81    46544.434    237.39031     42.56862 
154460000    281.24102    583.22717     535.3377   -46535.337    46545.037    47.889469    42.573035 
154464000    230.82174    251.32767    320.59457    -46529.94    46560.518   -69.266904     42.58687 
154468000    275.16127    691.85192    349.97917    -46552.86    46563.696    341.87275     42.57165 
154472000    273.40724    433.11589     585.6565   -46546.901    46563.703   -152.54061    42.579714 
154476000    273.86749    623.19905     635.2222   -46542.327    46562.953   -12.023142    42.571387 
154480000    265.09451    609.75748    472.42046   -46560.605     46585.97    137.33702    42.538635 
154484000    291.17434    322.55216    203.21398   -46592.758    46604.862    119.33818    42.544274 
154488000     270.8679    581.27258    209.99024   -46585.623    46615.687    371.28234    42.549332 
154492000     235.6343      554.688    462.11245   -46586.804    46624.672     92.57555    42.540793 
154496000    298.90806    1697.2114     405.8269   -46597.611    46620.092    1291.3845    42.554561 
154500000    303.70326    353.78701    786.77175   -46606.842    46624.939   -432.98474    42.575934 
154504000    271.58153    560.96787    205.79965   -46618.632    46642.499    355.16823    42.571672 
154508000     255.3481    633.60801    485.64697   -46630.088    46664.214    147.96104    42.583174 
154512000    243.80897    365.28329    255.12623   -46648.454    46671.191    110.15706     42.58944 
154516000     332.1941    68.135683    464.98217   -46661.885    46677.114   -396.84648    42.592044 
154520000    283.63643    355.30394    487.07629   -46676.767    46696.906   -131.77235    42.584531 
154524000    283.48902     406.1873    482.02737   -46691.483    46704.933    -75.84007    42.586575 
154528000    300.97111    695.82935    401.93339   -46712.752    46732.455    293.89596     42.59847 
154532000    303.79675    729.48635    122.59441    -46750.33    46759.347    606.89194    42.608798 
154536000    284.01091    700.38102    354.41163   -46747.504    46770.902    345.96938    42.612749 
154540000    286.64647    615.02812    214.65919   -46779.124    46789.081    400.36893    42.618941 
154544000    281.64066    860.16083    365.57503   -46794.175    46810.136     494.5858    42.627054 
154548000    316.47983    462.58455     304.5656   -46800.931    46803.681    158.01894    42.622302 
154552000    280.40649    560.82688    332.54659   -46810.065    46832.805    228.28028    42.629021 
154556000    306.94865    891.27452    416.55068   -46834.326    46840.679    474.72385    42.626717 
154560000    243.65653    250.79458     177.1344   -46827.549     46862.79     73.66018    42.623837 
154564000    268.68761    305.68084     139.3035   -46828.293    46849.909    166.37734     42.62128 
154568000    271.47871    257.53417    514.31354   -46835.772    46856.467   -256.77937    42.604241 
154572000    294.32118    448.29761     392.7301   -46851.988    46851.516     55.56751    42.606555 
154576000    303.40368    294.60945    276.68366   -46845.987    46848.096    17.925792    42.624068 
154580000    345.21777    343.64915    420.00141   -46871.171    46875.806   -76.352264     42.62922 
154584000    320.76893    515.71842    1118.7705     -46878.4     46899.29   -603.05207      42.6224 
154588000    279.31942    320.65843    334.46516   -46911.413    46926.021   -13.806737    42.633385 
154592000    290.93135    317.59316    544.47102   -46907.084    46924.001   -226.87786     42.63037 
154596000    310.15526    246.15711    615.99998   -46905.422    46919.043   -369.84287    42.637133 
154600000    313.82951    773.33554     279.7411   -46920.684    46927.052    493.59444    42.627414 
154604000    326.12241    569.72382    454.70567   -46940.223    46938.096    115.01815    42.623465 
154608000    310.37179    573.66514     836.2839   -46927.419    46949.324   -262.61876    42.629187 
154612000    301.17385    417.83222    448.40039   -46945.177    46957.911   -30.568169    42.625182 
154616000    313.49502    825.76464    828.17755   -46952.019    46962.638   -2.4129097    42.626087 
154620000    312.74777    341.37685    196.79205   -46954.426    46977.841     144.5848    42.631271 
154624000    271.78818    167.28656    461.38202   -46958.327    46980.167   -294.09546    42.625906 
154628000    296.91314    315.53612    298.13966   -46965.045    46985.204     17.39646    42.629209 
154632000    325.30937     881.7304    1087.4876   -46968.051    46971.355   -205.75725     42.64109 
154636000    347.17158     691.8357    525.03685   -47000.226    46990.645    166.79884    42.631587 
154640000       287.41    732.52264    98.406935   -47020.726    47028.064     634.1157    42.639819 
154644000      302.475    743.58596    61.248272   -47022.155    47034.197    682.33769    42.650378 
154648000    277.27085    621.53116    426.68303    -47022.13    47039.251    194.84813    42.653987 
154652000    325.33515    389.96523    855.76862    -47040.45    47040.819   -465.80339    42.643532 
154656000    300.12109    549.75252    775.83194   -47048.296     47056.92   -226.07942    42.666618 
154660000    308.36446    321.21784    730.94308   -47065.471    47070.695   -409.72525    42.657132 
154664000    287.88642    501.63468    940.59813   -47065.358    47089.545   -438.96345    42.656722 
154668000    311.98191    928.50148    463.26518   -47092.187    47098.549    465.23629    42.633002 
154672000    265.92049     276.1663    298.10483   -47090.037    47121.173   -21.938524    42.618776 
154676000    297.23583    598.91111     828.9891   -47114.456    47131.389   -230.07798    42.604677 
154680000    286.70252    533.03902    518.28301   -47123.863    47137.445    14.756014    42.603921 
154684000    270.88076    438.79479    794.15401   -47126.127    47156.306   -355.35922    42.602885 
154688000    265.73441    281.98386    548.21488   -47149.595    47168.287   -266.23101    42.604042 
154692000    283.46994    560.59103    262.24455   -47171.827    47190.388    298.34647    42.605289 
154696000    284.73058    183.36333    464.92907   -47201.478    47205.387   -281.56574    42.619113 
154700000    239.95841     409.1366    642.77978   -47188.685    47226.223   -233.64317    42.621898 
154704000    278.45161    469.74693    406.00692   -47203.319    47224.468     63.74001    42.605172 
154708000    323.84479    463.49872    417.22286   -47214.878     47225.75    46.275865     42.59087 
154712000    264.60831    408.93835    677.14063    -47212.28     47234.42   -268.20227    42.585727 
154716000    284.37635    604.88416    693.20633   -47230.949    47242.536   -88.322169    42.586412 
154720000     296.4397    539.87714    453.22268   -47237.103    47253.765     86.65446    42.591469 
154724000    263.10335    505.44366    306.59411   -47258.514      47283.3    198.84955     42.58931 
154728000    285.03571    596.50786    476.74354   -47268.018    47283.581    119.76432    42.588296 
154732000    343.47431    939.16891    422.51762   -47285.597    47277.848    516.65129    42.577001 
154736000    292.92644     326.1597    285.08168   -47273.088     47289.62    41.078028    42.576453 
154740000    275.97818    401.90176     165.0984   -47266.817     47289.82    236.80336    42.575835 
154744000    261.47897    129.71852    274.03051   -47267.143    47285.661   -144.31199    42.572985 
154748000    252.06488    358.15459    636.74749   -47272.535    47302.307    -278.5929    42.567387 
154752000    289.97428     370.1458    884.94174   -47303.699     47324.52   -514.79593     42.54778 
154756000    294.74296     561.6583    268.04071   -47316.812     47334.58    293.61759    42.561779 
154760000    232.95795    357.57386    397.56358   -47318.528    47342.621   -39.989723    42.569684 
154764000     279.0147     219.6561    428.47056   -47329.908    47354.376   -208.81447    42.574763 
154768000    247.55111    336.25986    490.69052   -47319.669    47356.621   -154.43067    42.568403 
154772000    266.05539    279.53114    194.46882   -47340.862     47363.81    85.062319    42.556145 
154776000    269.38774    437.39791    152.18359   -47355.504    47381.767    285.21432     42.54583 
154780000    290.28696    573.56602    241.56706   -47374.504    47393.555    331.99896    42.554321 
154784000    271.12182    348.98463    496.62709   -47394.686    47413.698   -147.64245    42.539645 
154788000    306.39139     625.0951    452.50131   -47410.673    47424.975    172.59379    42.545005 
154792000    294.39184    357.17864    376.57711   -47425.639    47428.666   -19.398471    42.544783 
154796000      276.698    226.86787    250.84258   -47432.925    47445.626   -23.974711    42.541335 
154800000    292.66568    205.04645    199.72908   -47456.219    47474.683    5.3173751    42.547433 
154804000    285.12146      487.162    391.62771   -47467.783    47496.071    95.534287    42.535854 
154808000    276.44268    411.70064    384.60361   -47470.259      47498.6    27.097029     42.53794 
154812000    296.77112    503.31721     246.0989   -47498.082    47512.193     257.2183    42.535126 
154816000    265.86238    539.83821    322.83794   -47503.327    47533.638    217.00028    42.550781 
154820000    263.45886    952.38694    472.09358    -47509.78    47537.686    480.29336    42.539025 
154824000    298.43864    446.83085    457.46681   -47526.484    47540.734   -10.635954    42.553339 
154828000    268.38129    498.74165    212.47571   -47513.285    47547.171    286.26593    42.545903 
154832000    269.64715    346.73099    236.11898   -47513.891    47531.058    110.61201    42.540188 
154836000    272.65247    425.56478    211.13966   -47532.101    47559.043    214.42512    42.517159 
154840000    315.31254     474.7004    526.01725   -47552.814    47550.782   -51.316843    42.521319 
154844000    304.09886    338.76936    157.28522   -47557.272    47571.031    181.48414    42.506213 
154848000    279.93216    258.39065    229.08307   -47563.463     47589.37     29.30758    42.501316 
154852000    263.54007    372.45965    297.75569   -47591.989    47601.876     74.70396    42.490529 
154856000    282.03134    231.18707    484.02477   -47606.859    47611.691    -252.8377    42.495549 
154860000    273.75629    1008.0821    503.32697   -47603.966     47633.38    504.75517    42.506123 
154864000    277.45437    477.83731    384.76628    -47595.01     47619.32    93.071032    42.502523 
154868000    321.11463     624.2518    620.66038   -47611.856    47605.661    3.5914141    42.504188 
154872000    269.35135    412.51111    351.93346    -47616.78    47636.816    60.577648    42.522176 
154876000    293.13429    578.56084    312.50571   -47635.954    47650.804    266.05513    42.527125 
154880000    294.21128    197.96861    273.04413    -47654.64    47659.496   -75.075519    42.522006 
154884000    319.97697    456.85233    159.02818   -47663.519    47669.427    297.82415    42.517348 
154888000    305.03413    327.85941    232.49127   -47669.321    47687.599    95.368142    42.515505 
154892000    318.70959    780.97612    217.77063   -47691.125     47692.92    563.20548    42.506127 
154896000    286.23748    392.83626    345.72693   -47703.745    47705.281    47.109332     42.50345 
154900000    273.88563    772.25675    216.54628   -47717.403    47728.609    555.71047    42.486932 
154904000    312.16973    570.45162    437.05078   -47744.914    47737.261    133.40085    42.497488 
154908000    269.11806    575.87458    425.81975   -47749.288    47771.876    150.05483    42.495182 
154912000    274.60025    343.17423    182.67968   -47773.112     47784.68    160.49455    42.498682 
154916000     271.8424    509.36943    373.50504   -47768.555    47789.844    135.86439    42.507743 
154920000    286.54492    1411.6712    104.74294   -47774.053    47792.867    1306.9283    42.521191 
154924000    266.25492     327.5517    849.16344   -47789.636     47810.82   -521.61174    42.532239 
154928000    229.71103    553.90381    193.43047   -47790.286     47817.72    360.47334    42.517727 
154932000    287.06195    445.79351     129.6871   -47795.939    47819.568    316.10641    42.520321 
154936000    288.25511    404.71917    629.78031   -47806.304    47825.367   -225.06114    42.515888 
154940000    264.44826    683.01001    146.62096   -47828.331     47847.53    536.38905     42.53482 
154944000    271.50216    687.76361    524.01713   -47836.599    47850.897    163.74648    42.543576 
154948000    309.58166    932.23212    358.07202   -47850.109    47852.499     574.1601    42.560264 
154952000    228.36868    707.96405    377.41517    -47844.54    47876.541    330.54888    42.565247 
154956000    248.55791    457.94899    327.75967   -47863.951    47895.512    130.18932    42.560382 
154960000    284.63981    642.90735     319.7263   -47880.368    47903.285    323.18105     42.56005 
154964000    244.85458    221.48436    505.15154   -47885.843    47924.553   -283.66718    42.561367 
154968000    236.93052     215.1975    665.54385    -47900.37     47935.93   -450.34635    42.549461 
154972000    309.78382    929.51125    433.97483   -47923.779    47939.795    495.53642    42.551707 
154976000    275.26411    197.23991    820.08928   -47943.184    47961.853   -622.84936    42.553377 
154980000    283.73976    499.23913    338.13986   -47955.064    47984.765    161.09927    42.544703 
154984000    257.51472    821.94546    473.63703   -47956.843    47972.239    348.30843    42.559315 
154988000    260.94819    273.99055    236.50478   -47958.092    47977.111    37.485769    42.557833 
154992000    307.83869    689.30094    351.83636   -47966.601    47986.526    337.46458    42.560323 
154996000    277.86088    582.98811    504.84945   -47966.194      47986.9    78.138656    42.562854 
155000000    262.79742    308.00951    136.21631   -47977.852    48003.585     171.7932    42.568442 
155004000    296.89163    398.05779    84.589757   -47993.246    48009.962    313.46803    42.569337 
155008000    229.07003    234.07974    233.21646   -47994.004    48025.576   0.86328609    42.563316 
155012000    277.09709    433.90394     763.5359    -48011.95    48036.052   -329.63196     42.56604 
155016000    300.14489    820.67639    244.06106   -48022.582    48037.921    576.61534     42.57695 
155020000    252.72428     281.9397     301.0221   -48026.066    48058.012     -19.0824    42.577599 
155024000    301.43229    653.29036    228.93599   -48038.762    48052.832    424.35437    42.574087 
155028000    316.83729    672.88014    520.22756   -48061.392    48066.533    152.65259    42.572362 
155032000    332.85258    1079.5603    426.64597    -48081.08    48085.189    652.91433    42.579353 
155036000    283.55951    272.82127      398.211   -48061.122    48084.323   -125.38974    42.564362 
155040000    244.38075    993.13731    170.83947   -48080.209    48106.851    822.29784    42.550105 
155044000     265.3949    454.67873    1166.2733   -48101.149    48121.226   -711.59452    42.554402 
155048000    274.70721    380.22167    279.49834   -48119.122    48140.488    100.72333    42.548362 
155052000    280.96147    224.84543    590.98923   -48116.425    48132.129   -366.14381    42.528109 
155056000    315.56914    493.52227    117.37039   -48152.756    48171.412    376.15188    42.517833 
155060000    292.77971    317.20608    615.05339   -48157.524     48179.54   -297.84731    42.524679 
155064000    289.65621    337.08579    256.33595   -48162.224    48177.025    80.749839    42.539007 
155068000    280.61224    378.39816    725.35878   -48184.644    48196.399   -346.96062    42.545032 
155072000    302.36276    839.20214    462.00366   -48198.231    48212.137    377.19848    42.540899 
155076000    326.63663    180.95485    165.76971   -48193.051    48208.464    15.185139    42.531827 
155080000    319.95546    820.70293    918.85559   -48202.725    48212.682   -98.152665    42.527746 
155084000    257.14903     425.1532    658.64805    -48186.16    48222.994   -233.49484    42.532116 
155088000    282.96277    586.57639    155.97828   -48211.158    48224.632    430.59811    42.521046 
155092000    296.72689     356.1313    451.76707    -48223.14    48234.003   -95.635778    42.520481 
155096000     317.9555    308.77578    576.06471   -48225.906    48229.119   -267.28893    42.529296 
155100000    346.52249    352.17297    841.65347   -48244.424    48249.765    -489.4805    42.524145 
155104000    309.22737    267.93624    716.01792   -48243.554    48246.334   -448.08168    42.519201 
155108000     318.7561    300.54047    887.96364   -48250.423    48269.617   -587.42317    42.500731 
155112000    287.07184    1148.4491    333.53014   -48266.306    48278.594    814.91897    42.517507 
155116000    269.07839    850.68782    292.01801   -48275.051    48300.755    558.66981    42.522986 
155120000    279.13103    565.35624    487.63036   -48297.968    48320.601    77.725882    42.527522 
155124000    290.78213    642.03007    321.40573   -48315.229    48330.681    320.62435    42.529866 
155128000    320.98828     616.9573    319.25436   -48318.001     48325.86    297.70295    42.517456 
155132000    288.38077    302.30357    131.95936   -48319.969    48338.525    170.34421    42.507566 
155136000    265.62061    327.34912    139.91662   -48338.923     48360.71     187.4325    42.497775 
155140000    257.96988    544.98422    325.88103   -48341.037    48368.964    219.10319    42.479545 
155144000    261.44255    714.87341     353.9342   -48344.892    48381.901    360.93922    42.499063 
155148000    286.62613      702.328    374.42375   -48355.087    48382.563    327.90425    42.500872 
155152000    258.43063    599.73505    231.78398   -48351.811    48387.418    367.95107    42.492869 
155156000    272.30962    531.72361    481.90017   -48366.766    48395.357    49.823437    42.496815 
155160000     299.9671    631.18156    675.04872   -48374.966    48392.226   -43.867158    42.494218 
155164000    259.85077     467.6151    479.62035   -48395.937    48420.667   -12.005254    42.480098 
155168000    283.96725    733.22145    318.69027   -48415.773    48427.844    414.53118    42.472806 
155172000    315.87366     548.4795    366.70136   -48417.607    48437.277    181.77813    42.482783 
155176000     281.3117    98.104864     325.2576   -48420.933    48450.748   -227.15273    42.467414 
155180000    289.99546     354.0618    180.85662   -48434.715    48449.494    173.20518    42.459197 
155184000    280.15243    847.85679    354.42808   -48436.342    48456.575    493.42871    42.466737 
155188000    322.11188    826.58021    634.84774   -48445.318    48455.924    191.73247    42.469624 
155192000    317.39607    931.84297    684.21565   -48448.594    48454.943    247.62732    42.460691 
155196000    343.05463    592.12068     502.8668   -48470.339    48469.583    89.253881     42.45853 
155200000    243.87572    453.11276    176.82883   -48454.788    48479.906    276.28393    42.470018 
155204000    226.81242    413.59388    630.14947   -48452.435    48484.864   -216.55559    42.469557 
155208000    303.94525    707.55248    411.38697   -48463.438    48481.861    296.16552     42.47942 
155212000    275.24879    982.82143    143.96062   -48471.682    48506.999    838.86081    42.476075 
155216000    304.75005      520.131    362.71256   -48491.433    48501.747    157.41844    42.480309 
155220000    308.74364    320.04664    777.19701   -48492.262    48503.362   -457.15037    42.463785 
155224000     287.2318    745.49845    633.53518   -48485.156    48519.791    111.96327    42.451892 
155228000    306.83967    469.28755     287.4057   -48497.375    48512.058    181.88185    42.446337 
155232000    264.42415    504.05007    322.82751   -48510.856    48522.283    181.22256    42.451687 
155236000    241.04741    77.493101    593.93844   -48517.606    48543.889   -516.44534    42.450103 
155240000    252.66907    495.27658    204.21808   -48528.555    48561.482     291.0585    42.447532 
155244000    287.95324    509.60826      150.658   -48561.223    48574.795    358.95026    42.467557 
155248000    245.45425    401.03705    180.38828   -48570.323    48613.251    220.64878    42.458781 
155252000    286.46569    652.69518    542.41954   -48571.102    48596.161    110.27564    42.466816 
155256000    246.84454    498.95785    293.37892   -48569.816    48609.769    205.57893     42.46294 
155260000    253.95421    606.04486    387.04317   -48585.043    48620.927     219.0017    42.478717 
155264000    278.97578    753.65755     322.0002   -48594.087    48612.496    431.65735    42.471152 
155268000    269.14641    227.67073    225.32947   -48591.647    48625.682    2.3412583    42.480841 
155272000    263.78838    548.64704    314.41218   -48617.112    48640.718    234.23486    42.467548 
155276000    309.71706    639.17766    404.51253   -48615.125     48625.53    234.66512    42.455656 
155280000    324.76532    965.55085    360.95859   -48632.346    48644.061    604.59227    42.476362 
155284000    280.95551    532.10484    927.13068   -48616.795    48632.699   -395.02584    42.479735 
155288000    289.77228    416.02113    593.56345   -48618.772    48631.888   -177.54232    42.485525 
155292000    274.82542    212.61535    590.67498   -48613.754    48647.985   -378.05963    42.478716 
155296000    274.56709    415.14478    552.40655    -48613.42    48639.271   -137.26177    42.460491 
155300000    299.13375     435.0334    634.01964    -48623.44    48635.809   -198.98624    42.456694 
155304000     282.1636    207.66991    369.74366   -48625.221    48643.884   -162.07376    42.442005 
155308000    261.58807    377.69181    340.80082   -48633.827    48664.284    36.890985    42.428431 
155312000    311.77476    445.97394    635.36796   -48670.979    48674.052   -189.39401    42.424303 
155316000    305.16023    527.08049    726.51708   -48677.895    48693.102    -199.4366      42.4307 
155320000    312.46963    382.10528    219.52504   -48706.908    48718.261    162.58024    42.443024 
155324000    326.39782    216.78742    374.33012   -48718.223    48723.706   -157.54269    42.464756 
155328000    282.13385    525.49424    175.98787   -48715.445    48729.658    349.50637    42.463188 
155332000    266.61402     418.3598    496.96464   -48712.031     48740.52   -78.604841    42.473171 
155336000     290.9025    676.38522    416.33124    -48725.29    48750.653    260.05399    42.479435 
155340000    260.25075    500.06118    138.38506   -48733.948    48776.359    361.67612    42.479763 
155344000    263.20333    331.42361    116.23551   -48747.134    48780.202     215.1881    42.467814 
155348000    288.35004    1061.6105    300.11501   -48758.826    48786.163    761.49544    42.471377 
155352000     279.1922     497.7008    228.00775    -48767.42    48778.798    269.69305    42.483372 
155356000    339.98837     568.8846    463.59995   -48773.322    48774.038    105.28465    42.480498 
155360000    320.97837    706.76613    390.63629   -48789.107    48788.307    316.12984    42.494255 
155364000     285.4255    440.52381    497.16177   -48810.179    48807.485   -56.637962    42.489388 
155368000    292.23561    317.17282    610.34777   -48814.901    48832.466   -293.17495    42.503516 
155372000    289.91764    764.31926    348.17622   -48830.334    48836.153    416.14305    42.509053 
155376000    269.89712    313.34683    425.44819   -48831.975    48850.144   -112.10136    42.507596 
155380000    280.77996    135.61698    958.29064   -48828.881    48857.163   -822.67366    42.507936 
155384000     304.6687    380.46983    402.81586   -48837.351     48860.99   -22.346035    42.504336 
155388000    254.24187    392.32899    389.38751   -48855.382    48885.661    2.9414822    42.513996 
155392000    299.04012    319.02088    387.72688   -48872.304    48879.314   -68.705992    42.495269 
155396000    272.43675    393.45331    179.41257   -48865.767    48900.693    214.04075    42.494889 
155400000    253.76637    301.52374    243.05829   -48889.119    48908.269    58.465443    42.504083 
155404000    284.89144    429.46914    314.04155   -48904.815    48916.788    115.42759    42.488843 
155408000    330.30261    386.86239    474.05709   -48921.415    48917.698     -87.1947    42.479489 
155412000    259.98139     149.6361    640.30946   -48909.491    48935.635   -490.67336    42.470136 
155416000    353.74016    221.48642    218.82908   -48942.748    48932.382    2.6573333    42.478948 
155420000    322.73008    631.39895    478.19963   -48955.733     48964.69    153.19933     42.47183 
155424000    303.84271    398.03248    348.17688   -48968.692    48979.693    49.855604    42.476642 
155428000    300.60624     760.2853    305.05912   -48975.823    48979.091    455.22618    42.477955 
155432000    283.66423    815.24248    379.65325    -48982.64    48996.197    435.58923    42.487529 
155436000    309.37291    174.46095    436.70928   -49009.903    49021.541   -262.24834    42.484869 
155440000    287.02348    46.165197     446.6324   -49031.752    49047.915    -400.4672    42.472884 
155444000    311.27582    575.80369    873.42109   -49042.519    49063.532    -297.6174     42.46788 
155448000    307.83094    942.69645    623.19624   -49054.625    49062.898     319.5002    42.464552 
155452000    241.76403    563.16682     239.5364   -49039.669    49075.316    323.63042    42.462539 
155456000    299.51923    332.33461    517.77881   -49063.521    49080.544    -185.4442    42.477314 
155460000    274.08386    313.57618    623.79839   -49065.116    49084.091   -310.22221    42.465099 
155464000    293.38387    386.88808    417.36397    -49071.14    49100.535   -30.475898    42.451654 
155468000    293.90833    461.63384    442.46959   -49076.722    49097.375    19.164251    42.450672 
155472000    300.89522    190.52571    346.02542   -49093.725    49104.309   -155.49971      42.4486 
155476000    315.97097    1299.5392    697.22855   -49112.465    49116.806    602.31067    42.441771 
155480000    298.98276    184.15186    290.34792   -49128.313    49140.608   -106.19606    42.454026 
155484000      336.587    982.00906    438.88025   -49135.999    49144.425    543.12881    42.460244 
155488000    304.63772    711.92706     564.9872   -49152.888      49166.3    146.93985    42.453605 
155492000    258.03937    401.17521    251.35881   -49166.222    49188.505     149.8164    42.457716 
155496000    302.82233     510.4398    508.78704   -49183.012    49196.829    1.6527593    42.473487 
155500000    285.53107    658.78873    866.35846    -49201.77    49219.653   -207.56974    42.466747 
155504000    252.25985     734.9667    323.82922   -49209.446    49232.673    411.13748    42.479848 
155508000    292.09667     757.4115    315.52203   -49203.069    49225.829    441.88947    42.464728 
155512000    260.79601    416.26117    427.22311   -49199.793    49236.326   -10.961942    42.461023 
155516000    252.00633    373.03852    136.80537   -49231.564     49258.42    236.23316    42.457251 
155520000    308.17735    105.15236    318.78594    -49253.54    49254.619   -213.63359    42.442388 
155524000    331.25114    856.54218    421.07011     -49240.1    49257.625    435.47207    42.447144 
155528000    272.73367    339.12688     126.1798     -49240.4    49245.914    212.94708    42.434455 
155532000    267.24151    710.07061     211.9132   -49243.034    49274.943    498.15741    42.425495 
155536000    269.92602    359.60523    349.19792   -49262.982    49286.454    10.407308    42.412916 
155540000    283.08968    343.87052    280.15469    -49276.87    49284.356    63.715831     42.40541 
155544000    278.90792    494.52305    321.63583   -49278.423    49303.527    172.88722    42.408131 
155548000    261.91364    347.90892    246.17065   -49288.207    49308.429    101.73828    42.399019 
155552000    305.95195    237.18944    538.18902   -49278.627    49305.644   -300.99958    42.393171 
155556000    269.95346    301.83307    326.21724   -49286.135    49309.523   -24.384169    42.408008 
155560000    268.63805    236.46155    245.22229   -49291.893    49313.794   -8.7607384    42.397031 
155564000    260.91168    397.96483    229.30775   -49303.118    49326.534    168.65708    42.391253 
155568000    274.59153    290.43676    280.88578   -49322.436    49345.255    9.5509795    42.400831 
155572000    326.42549    1083.1527    840.33563   -49342.062     49346.48    242.81708    42.402104 
155576000    286.07256    285.17494    214.21086   -49324.652    49356.637    70.964087    42.411391 
155580000    263.14062    504.29474     226.1456   -49334.225    49361.502    278.14914    42.410214 
155584000    251.85496    408.14759    448.64294   -49335.605    49371.318   -40.495359    42.411459 
155588000    326.56819    428.81842    382.81643   -49362.363    49367.003    46.001987    42.420318 
155592000     286.3059    450.51287    695.23186    -49365.04    49379.658   -244.71898    42.411229 
155596000     289.8237    958.17949    293.64609   -49384.234    49408.288     664.5334    42.409327 
155600000    240.39998    339.52894     400.5248   -49389.765    49427.348   -60.995868    42.400645 
155604000    301.45363    530.73121    300.84921   -49418.296    49432.489      229.882    42.388424 
155608000    287.00124    150.06329    328.16411    -49444.42    49456.355   -178.10082    42.391089 
155612000    328.79076    589.26082    218.93932   -49446.471    49460.727     370.3215    42.405428 
155616000    341.76168    1063.2746    506.48321   -49446.464    49457.788    556.79135    42.398765 
155620000    324.12051    446.18378    479.07581    -49470.98    49470.806   -32.892039    42.414014 
155624000    330.99996    1438.6448    191.51735   -49490.346    49500.415    1247.1275    42.421438 
155628000    276.20884    208.62373    168.44211   -49495.109    49510.288    40.181628    42.435961 
155632000    324.06883    857.14694    425.64459   -49505.899    49517.984    431.50235    42.430094 
155636000    328.31127     172.4941    482.27995   -49513.628    49530.123   -309.78584    42.424711 
155640000    301.81588    676.41204     310.6477   -49521.875    49539.885    365.76434    42.424479 
155644000    278.51213    424.15458    543.65079   -49554.171    49566.624   -119.49621    42.428674 
155648000    272.85425    561.62053    138.24725   -49560.641    49585.318    423.37328    42.438043 
155652000    283.08994    576.32454    270.13532   -49568.914    49595.131    306.18922    42.433521 
155656000    277.93065    503.61756     448.0401   -49584.234    49599.547     55.57746    42.440473 
155660000    266.62843    704.46136    424.56688   -49604.187    49629.721    279.89447    42.445638 
155664000    295.80104    335.95467    954.41508   -49617.042    49629.198   -618.46041    42.431371 
155668000    290.98662    456.09836    642.68642   -49621.888    49631.143   -186.58806    42.441339 
155672000    265.78118    642.95685    269.80587   -49619.933    49634.996    373.15098    42.443104 
155676000    251.57126    112.77542    977.24765   -49620.718    49650.442   -864.47223    42.423837 
155680000    295.30318    129.55236    755.58162   -49633.237    49657.385   -626.02926    42.407833 
155684000    247.36499    495.13911    283.24751    -49639.93    49665.803    211.89159    42.399554 
155688000    278.80135    359.25941    211.89988   -49640.023    49663.307    147.35953    42.395354 
155692000    290.52806    326.50127     389.4931   -49645.907    49665.948   -62.991828    42.384488 
155696000    302.42049    278.24988    319.39936   -49655.458    49676.352   -41.149482    42.383953 
155700000    310.00305     562.3395    364.12829   -49688.532     49700.03    198.21122    42.384631 
155704000    277.26825    345.21147    927.42756   -49696.282     49716.08   -582.21608    42.388668 
155708000     278.8981     202.1657    432.00481   -49705.838    49724.921   -229.83911    42.378074 
155712000    273.83046    359.70458    234.09233   -49725.833    49751.155    125.61225    42.388594 
155716000    254.28769    318.82881    227.71837    -49732.46    49754.649    91.110447    42.394774 
155720000     253.2282    532.34554    308.19269   -49734.317    49753.976    224.15285    42.372521 
155724000    287.94676    704.18907    201.75853   -49753.574    49768.402    502.43054     42.37681 
155728000    286.75165    448.84269    981.75888   -49762.745    49786.337   -532.91619    42.365532 
155732000    275.94379    648.76835    340.65929   -49778.162     49797.14    308.10906     42.36937 
155736000    258.84651    270.43466    161.56854    -49766.59    49802.767    108.86612    42.360915 
155740000    283.53768    558.80915    328.01419   -49775.003     49808.89    230.79496    42.359397 
155744000    280.22029    157.05417    311.23185    -49798.14    49824.149   -154.17769     42.36323 
155748000    286.46493    836.93602    187.22236     -49810.4    49833.854    649.71366    42.373788 
155752000    333.40913    685.00566    479.66328   -49824.899    49834.553    205.34238    42.386436 
155756000    336.42739    605.72995    698.82334   -49825.937     49833.14    -93.09339    42.378208 
155760000    250.62861    187.42199    534.03058   -49828.072    49849.828   -346.60859    42.371546 
155764000    324.18329    819.67383    362.41893   -49836.417     49843.67    457.25491    42.369958 
155768000    256.59013    260.51186    169.55367   -49806.325    49841.954    90.958186    42.390362 
155772000    230.47434    329.22959    249.88198    -49813.41    49851.194    79.347608    42.398581 
155776000    325.62674    506.95217     132.9122   -49840.284    49850.095    374.03997    42.411925 
155780000    282.94918    361.26356    140.87779   -49842.551    49863.313    220.38576    42.398929 
155784000     310.7649    904.96779    265.10091   -49858.205    49874.242    639.86687    42.401461 
155788000    266.29509     250.2139    407.48394    -49862.53    49883.778   -157.27005    42.384207 
155792000    271.63764    305.06544    57.232211   -49877.936     49893.23    247.83323    42.384662 
155796000    275.74575    439.64642    186.94248   -49886.839    49903.306    252.70394    42.388521 
155800000    277.73403    493.57245    331.28747   -49898.006    49925.233    162.28498    42.378715 
155804000    252.28717    264.60991    496.30076     -49901.6    49935.369   -231.69085    42.373496 
155808000    281.90541    326.58472     660.4532   -49933.922    49949.841   -333.86848    42.360325 
155812000    256.60007    254.94137    389.44807   -49941.617    49973.103    -134.5067    42.375052 
155816000     277.8516    612.85021     1138.211   -49958.987    49977.318   -525.36081    42.379517 
155820000    306.82373    865.42514    821.10987   -49985.956    49983.435    44.315272     42.38512 
155824000    292.16175    791.34754    70.480169   -49989.125    50007.972    720.86738     42.40271 
155828000    285.26849    543.90529    446.60622   -50016.457    50021.237    97.299066    42.390826 
155832000    290.97415    813.46886    312.68409   -50008.412    50021.419    500.78477    42.404899 
155836000    283.29466    350.49476    859.70815   -50021.911    50051.173   -509.21339    42.406286 
155840000    272.56836     204.6532      1030.18   -50055.611     50087.64   -825.52675     42.40429 
155844000    251.78654    467.90174    291.14507   -50081.496    50105.403    176.75666    42.419536 
155848000    242.56745    559.98729    116.09982   -50087.615     50102.74    443.88748    42.426603 
155852000    250.06546    185.55761    676.75296   -50088.299    50117.854   -491.19535    42.411339 
155856000    318.20526    436.67949    584.16803   -50113.211    50121.224   -147.48854    42.416574 
155860000     320.9653    99.728055    652.39418   -50132.531    50139.326   -552.66612    42.400932 
155864000     311.2972    251.53059    681.11066   -50129.536    50138.784   -429.58007    42.396324 
155868000    277.42943    327.44644    549.06835   -50141.956     50152.58   -221.62192    42.399079 
155872000    288.69512    508.42296    271.91789   -50157.006    50173.808    236.50507    42.414731 
155876000    274.85374    1002.2056    375.78241   -50168.298    50191.236     626.4232    42.408217 
155880000    264.52269    226.70464    278.91978   -50164.919    50176.022    -52.21514    42.403395 
155884000    294.61489    162.67765    426.08463   -50172.062    50189.179   -263.40699    42.388751 
155888000    332.55251    318.67612    535.24506   -50196.319    50210.978   -216.56893    42.402182 
155892000    312.97919    1277.8645    469.28022   -50211.315    50221.247    808.58431    42.397764 
155896000    286.69308    559.54066    314.67108   -50207.119    50238.752    244.86958    42.394221 
155900000    319.37968    239.53756    193.36583   -50230.058    50233.322     46.17173    42.409883 
155904000    274.56388     937.3546    445.95532   -50242.175    50262.245    491.39928    42.418867 
155908000    292.24773    356.57768    177.52977   -50252.101    50275.392    179.04791    42.407985 
155912000    344.71226    855.10504     448.9848   -50273.431    50275.381    406.12024    42.406517 
155916000     327.6094    500.54545    937.70898   -50269.293    50274.127   -437.16352    42.412015 
155920000    268.73073    416.15541    379.39537   -50264.598    50287.105    36.760043    42.416423 
155924000    279.03676     393.3053    518.14567   -50291.978    50310.974   -124.84037    42.402506 
155928000    318.42241    430.86093    959.59168   -50298.331     50295.62   -528.73075    42.410345 
155932000     239.9192    232.66471    252.12232   -50303.355    50331.161   -19.457613    42.391758 
155936000    298.27583    401.24792    773.27987   -50311.431    50323.321   -372.03194     42.38804 
155940000    264.91355    501.13742    499.32323   -50295.978    50325.155    1.8141937    42.388716 
155944000    276.61651    251.73354    368.59241   -50311.242    50326.252   -116.85887    42.383244 
155948000    261.18465    289.26065    237.51052   -50315.277    50334.716    51.750126    42.372555 
155952000    285.03178    385.64605    280.71394   -50331.796    50346.513     104.9321    42.385933 
155956000    287.17266    280.74307    668.82841   -50348.517    50360.537   -388.08535    42.376018 
155960000    245.12842    629.20109    718.41476   -50336.507    50370.019   -89.213679    42.388202 
155964000    286.60789    1027.6412    141.39789     -50334.8    50363.504    886.24328    42.408984 
155968000    297.44144    201.50955    398.75764   -50360.955    50365.506   -197.24809    42.399086 
155972000    279.28133    91.658866     921.0845    -50384.19    50396.289   -829.42564    42.395601 
155976000    306.85741    155.49193    263.13486   -50407.768    50408.568   -107.64292    42.394598 
155980000    311.46155    253.06047    656.71092    -50396.83    50402.477   -403.65045     42.39132 
155984000    284.18915    486.04607    392.86033   -50392.072    50414.975     93.18574    42.388054 
155988000    290.44594    932.11987    512.14322   -50410.146    50426.685    419.97666    42.401644 
155992000    289.75064    415.18942    379.80484   -50413.563    50427.488    35.384581    42.407334 
155996000    346.31091    754.96812     178.1109   -50443.789    50450.254    576.85722    42.416977 
156000000    259.96105    461.10933    349.22582   -50455.365    50482.887    111.88351    42.409318 
156004000    286.23713    274.68123    436.57655   -50473.519    50494.801   -161.89532    42.409343 
156008000    299.63497       562.44    240.05891   -50495.594    50509.175    322.38109    42.400323 
156012000    284.63154    580.55587    401.95866   -50501.206    50530.948    178.59721    42.410295 
156016000    317.84352     268.6228    506.28106   -50517.034    50519.921   -237.65826    42.401938 
156020000    299.67677    362.27763    413.98726   -50508.748    50518.869   -51.709635    42.412916 
156024000     269.8031     824.6539     238.8708    -50537.82    50561.706     585.7831    42.424373 
156028000    296.99616    175.32396    188.91612   -50564.145    50575.634   -13.592164    42.413849 
156032000    286.36038    704.15947    181.51475   -50590.025    50614.789    522.64471    42.419941 
156036000    312.10643    305.88683    691.11865   -50598.651    50605.719   -385.23182    42.419602 
156040000    303.72712    605.07051    132.21329   -50614.007    50631.175    472.85723    42.413248 
156044000    289.68418    581.93948    466.50727   -50616.151    50632.072    115.43221    42.429071 
156048000     273.7387    614.57048    597.87011   -50621.473    50640.906    16.700376     42.41413 
156052000    280.58158     1281.759    200.18856   -50636.794     50648.54    1081.5705    42.420816 
156056000    268.12712    433.44359     155.2508   -50636.421    50668.774     278.1928    42.446597 
156060000     282.9103    368.32001    267.32496   -50641.337    50649.623    100.99505    42.450567 
156064000    300.94804    639.44648    512.81363   -50655.561    50669.323    126.63285    42.443478 
156068000    344.63229    289.78113    378.14499    -50657.62    50665.227   -88.363858    42.461826 
156072000    290.87261    738.18313    376.47612    -50678.74    50698.721    361.70701    42.463669 
156076000    259.53709    481.21939    49.310761   -50686.629     50711.76    431.90862    42.470033 
156080000    245.85202    524.52118    77.733212   -50687.467     50725.22    446.78797    42.459102 
156084000    296.20865    373.80657    559.04622   -50715.985     50729.49   -185.23964    42.460704 
156088000    295.37222    357.38932    633.92686   -50718.132    50741.471   -276.53754    42.446316 
156092000    280.44881    392.19473    358.02089   -50716.398     50727.49    34.173844    42.450653 
156096000    295.68181    651.23453    467.08236   -50720.133    50730.742    184.15217    42.449594 
156100000    281.45264    439.43828    421.26429   -50718.005    50748.773    18.173987    42.441457 
156104000    283.16495    389.18687    344.74868   -50735.181    50769.377    44.438192    42.445861 
156108000    273.95853     540.9972    380.28158   -50741.249    50769.206    160.71562    42.432431 
156112000    298.87954    1098.5402    286.30259   -50733.148     50746.84    812.23763    42.439674 
156116000    281.47756    560.59935    558.47183   -50754.973      50771.3    2.1275157    42.430991 
156120000    262.96478    821.19956    328.99899   -50769.801     50778.14    492.20057    42.442628 
156124000    287.23337    603.31757    420.06178   -50773.546    50788.524     183.2558    42.449251 
156128000     325.8288    796.86248    476.86367   -50812.932    50805.641    319.99881    42.451567 
156132000    253.54347    286.52109    501.66342   -50803.075    50808.531   -215.14232    42.470808 
156136000    323.30273    113.85835     415.4532   -50807.077    50808.515   -301.59485    42.477687 
156140000    264.78362    201.55672     318.7635   -50816.258    50829.033   -117.20678    42.472234 
156144000    319.13257     406.9099    358.03123   -50808.188    50823.355    48.878666    42.480062 
156148000    291.42115    925.82416    340.52364   -50810.353    50825.291    585.30052    42.474917 
156152000    254.76325    383.12665    548.82756    -50808.74    50843.807   -165.70091    42.473524 
156156000    260.63937    518.00166    277.04658   -50816.007    50841.928    240.95508    42.478905 
156160000    336.13585    479.73417    688.98731    -50826.88    50818.109   -209.25313    42.489097 
156164000    269.74744    271.20539    357.91735    -50833.06     50860.27   -86.711956    42.494074 
156168000    251.51678      104.573    353.46082   -50838.773    50870.238   -248.88782    42.486741 
156172000    266.45729    634.78531     369.6882   -50849.327     50875.68    265.09711    42.484957 
156176000    271.16463    354.15221    400.19376   -50875.085    50896.514   -46.041551    42.461934 
156180000    286.36226    203.27422    340.67333   -50900.341    50909.916   -137.39911    42.448877 
156184000    291.57727    318.02194    242.05877   -50913.618     50925.93    75.963167    42.446277 
156188000    275.81569    183.70386    234.49365   -50911.345    50943.928   -50.789788    42.424046 
156192000    223.29658    157.97819    470.24074   -50935.786    50969.984   -312.26256    42.400272 
156196000    300.78632    904.51681    397.27065   -50949.823    50964.262    507.24616    42.413409 
156200000    301.12321    498.36027    595.39374   -50951.419    50978.219   -97.033471    42.413815 
156204000    276.87969    262.01118     576.2095   -50981.346    50991.444   -314.19832     42.41227 
156208000     277.5209    497.83867    275.50998   -51001.761    51014.214    222.32869    42.410706 
156212000    296.76214    399.45955    176.25065   -50999.327    51019.715    223.20891    42.429554 
156216000    292.51353    719.09414    216.09907   -51005.922    51018.993    502.99507    42.432403 
156220000    342.76237    720.20954    613.64368   -51026.508    51028.877    106.56586    42.416033 
156224000    286.80702     173.1091      200.117    -51037.09    51060.577   -27.007902    42.402884 
156228000    298.92986    316.52093    496.43533   -51039.088    51049.702    -179.9144    42.395134 
156232000    302.55316    672.44126    228.99821   -51054.738    51064.552    443.44305    42.392154 
156236000    243.43265     193.5956    257.56895   -51065.517    51079.546   -63.973353    42.393309 
156240000    274.76841    262.80103    358.32924   -51086.016    51101.115   -95.528216    42.384501 
156244000    297.03387    584.97696    185.53277   -51091.579    51107.869    399.44419    42.381063 
156248000    288.73176    434.34417    293.02762   -51093.604    51107.925    141.31655    42.386306 
156252000    303.63474     1108.809    416.43837    -51095.79     51106.19    692.37061    42.398534 
156256000    260.45367     197.7143    132.03126   -51101.486    51119.965    65.683037    42.398661 
156260000    260.83049    136.30525    216.75489   -51103.929    51129.963   -80.449638     42.40782 
156264000    322.06722    434.13079    422.52794   -51115.073    51115.402    11.602845    42.400778 
156268000    253.71126     304.6081    270.98658   -51105.615    51127.629    33.621524    42.404394 
156272000    304.06939    459.66156    647.66286   -51128.514    51140.455    -188.0013    42.389153 
156276000    305.10543     848.2577    361.27073   -51149.073    51154.315    486.98697    42.394701 
156280000     246.7753    402.38349    257.43202   -51136.544    51159.786    144.95147    42.393161 
156284000    269.31096    124.79657    831.04142   -51160.101    51175.054   -706.24485    42.389586 
156288000    299.19425    952.34476    230.04665   -51179.928    51196.737    722.29811    42.386765 
156292000    258.69521    464.07513    574.09744   -51188.181    51210.627    -110.0223    42.397287 
156296000    274.11426    281.11957    291.18597   -51211.007    51223.904   -10.066404    42.405231 
156300000    262.00944    345.76991    593.13731   -51218.992    51242.926    -247.3674    42.406423 
156304000    251.67687    263.55452    662.69356   -51228.795     51268.51   -399.13904    42.403884 
156308000    279.80294    704.64059    358.82808   -51255.217    51279.923    345.81251    42.397094 
156312000    277.92722    293.51151      551.437   -51262.607    51274.965   -257.92549    42.403073 
156316000    295.73284    712.88677    166.01316   -51255.249    51274.357    546.87361     42.41254 
156320000    266.90348    258.31948    156.43222   -51264.846    51294.673    101.88726     42.41391 
156324000    280.95818    359.39232    747.65457   -51272.861    51292.366   -388.26225    42.405358 
156328000    257.02017    476.05263    179.55981   -51267.628    51286.536    296.49282    42.409649 
156332000    271.54469    409.72415    596.74801   -51268.659    51293.455   -187.02387     42.39884 
156336000    279.46106     656.0207    597.74953   -51278.318    51283.932    58.271176    42.396153 
156340000    318.97454    343.98043    255.37998   -51284.176    51291.187    88.600455    42.385333 
156344000    291.92107    639.97359    490.88536   -51288.906    51308.584    149.08823     42.39944 
156348000     250.8327    545.11306    323.18423   -51294.211    51320.558    221.92883    42.388207 
156352000    310.65359    756.19323    236.65152   -51289.809    51304.679    519.54171    42.376444 
156356000    290.45905    129.65739    431.64341   -51296.954    51308.147   -301.98603     42.36957 
156360000    308.83518    487.13771    587.85808   -51316.474    51326.088   -100.72037    42.373167 
156364000    314.73032    411.18743    301.08975    -51307.16    51334.292    110.09768    42.383116 
156368000    326.33045    491.35565    524.87034   -51326.342    51334.011   -33.514689    42.385534 
156372000    291.02988    448.49981    428.71575   -51327.277    51351.485    19.784069    42.393547 
156376000    294.75137    748.18147    227.00434   -51341.554    51365.517    521.17713    42.401263 
156380000    241.77532    108.61662    335.06411   -51364.001    51393.709    -226.4475    42.391595 
156384000    276.33152    659.39461    544.20407   -51386.909    51403.077    115.19054    42.381795 
156388000    279.41457    402.64105    184.10813   -51382.317    51410.708    218.53291     42.36269 
156392000     290.8988    391.77111    388.75192   -51386.372    51405.851    3.0191901    42.372217 
156396000    281.75983     476.6915    501.15076   -51405.237    51430.546   -24.459259    42.389974 
156400000    228.42568     159.8466    389.72081    -51387.65    51426.617   -229.87421    42.387279 
156404000    291.60487    785.16932     491.0229   -51403.729    51412.485    294.14641    42.402951 
156408000    318.14483    532.29308    776.66449   -51413.719    51425.813   -244.37141    42.413198 
156412000    261.95947    458.98959    378.51094   -51416.915    51447.344    80.478643    42.410732 
156416000    266.12261    440.48129    543.10303    -51428.32    51456.439   -102.62174    42.407656 
156420000    251.44636    687.33233    313.73246   -51456.148    51483.289    373.59988    42.412381 
156424000    276.45174    280.85014    716.40307   -51462.053    51484.446   -435.55293    42.394231 
156428000    298.22882    194.88891    318.52469   -51467.439    51490.239   -123.63578    42.388252 
156432000    319.94213    437.25088    792.18303   -51477.502    51479.516   -354.93215    42.379085 
156436000    280.39075    1107.6465    439.95756   -51490.999    51510.061    667.68894    42.392369 
156440000    294.00558    334.93327    519.24344   -51504.616    51533.496   -184.31017    42.384267 
156444000    275.42456    543.38683    435.56254   -51517.932    51537.339    107.82428    42.405388 
156448000    291.85736    185.79289    476.22139   -51521.409    51544.785    -290.4285    42.391008 
156452000    251.34441    278.85088    340.05173   -51538.259    51562.642   -61.200848    42.401291 
156456000    294.65476    324.81516     689.9245    -51549.04    51574.072   -365.10934    42.390104 
156460000    276.68135    487.75928    620.44295   -51552.519    51579.067   -132.68367    42.399329 
156464000    286.12505    816.41285    747.68307   -51567.097    51588.295    68.729775    42.392686 
156468000    271.97553    277.54118    629.49395   -51575.486    51593.521   -351.95278    42.380327 
156472000     253.1047    448.15513    381.93584   -51570.496    51610.219    66.219291    42.386257 
156476000    281.00724    729.66703    437.15194   -51581.469    51608.619     292.5151     42.40315 
156480000    325.28068    400.94179    426.71994   -51594.962    51606.236   -25.778153    42.376916 
156484000    300.34416    408.15764    398.51348   -51619.416    51630.876     9.644156    42.380241 
156488000    312.10283    694.71294    365.47594    -51631.58    51644.893    329.23701    42.388628 
156492000    286.67227    570.97353    273.42052   -51614.637    51633.678    297.55302    42.388515 
156496000    264.02087    865.98029    254.77604    -51625.45    51648.915    611.20425    42.370228 
156500000    254.28881    368.32796    157.41228   -51619.493    51633.965    210.91567    42.361734 
156504000    311.58558    367.58666    611.16398    -51642.57    51648.067   -243.57732    42.358523 
156508000    288.40592    623.60735    592.83204   -51632.804    51661.895    30.775312    42.365812 
156512000    258.06757     666.5624    98.609413   -51641.937     51669.94    567.95298    42.366241 
156516000    272.10275    712.81709    381.86443     -51687.7    51706.987    330.95266    42.367181 
156520000    239.22309    474.03092    358.50988   -51702.861    51734.054    115.52105    42.364104 
156524000    285.13528    444.03996    684.93534   -51705.453    51724.739   -240.89539    42.365044 
156528000    283.30869    435.81625    553.29673    -51694.37    51723.017   -117.48048    42.372958 
156532000    297.18943    569.97565    350.30553   -51698.914    51722.723    219.67012    42.373467 
156536000    266.82462    583.63184    169.17541   -51723.344    51742.018    414.45644     42.36461 
156540000    268.03935     262.3512    404.80232   -51731.764    51751.451   -142.45112     42.38133 
156544000    256.60866    376.31484    481.91809   -51739.397    51768.786   -105.60325    42.382511 
156548000    293.71729    847.67099    428.89699   -51747.789    51774.924    418.77399    42.396806 
156552000    314.23647    526.23263    596.90446    -51771.79    51782.595   -70.671825    42.402533 
156556000    261.73982    705.58202    877.56254   -51765.967    51796.848   -171.98051    42.414695 
156560000    318.86269    587.04044    476.73872   -51795.042    51794.552    110.30172    42.417767 
156564000    274.71797    511.74215    432.41239   -51784.741    51797.726    79.329753    42.435379 
156568000    341.69112    229.76713    773.92319   -51806.421    51810.807   -544.15606     42.42063 
156572000     267.1681    291.36692    337.11496   -51795.542    51822.781    -45.74804    42.409114 
156576000    264.83614    457.26528    529.87667     -51826.4    51844.316   -72.611383    42.413792 
156580000    260.47007    336.80766    328.79898   -51828.171    51851.437     8.008679    42.411164 
156584000    264.63689    474.84875    303.93987   -51833.982    51851.313    170.90887    42.408965 
156588000    262.26615    249.93636    688.32067   -51841.783    51866.844    -438.3843    42.404316 
156592000    294.52687    560.77591    192.74486    -51855.95    51867.067    368.03105    42.392605 
156596000    288.39563    350.98379     710.0402   -51865.642    51884.106   -359.05641    42.383904 
156600000    286.64132    256.47849    503.54995   -51883.193    51900.218   -247.07145    42.382072 
156604000    280.31541    503.04383    516.73753   -51892.588    51912.074   -13.693699    42.380064 
156608000    294.79724    574.06011    332.35939   -51906.532    51930.613    241.70071    42.392511 
156612000    280.16795    453.58899     432.0455   -51931.698    51945.034    21.543493    42.395252 
156616000    272.03474    647.90777    435.63371   -51935.565    51965.702    212.27406    42.394907 
156620000    273.92591    579.36508    363.33515   -51952.104    51973.317    216.02992    42.396851 
156624000    217.14701    306.98369    71.531955   -51944.484    51981.746    235.45174    42.403836 
156628000    279.61218    259.54363    567.23099    -51960.62    51962.071   -307.68737     42.40589 
156632000    304.01263    594.54908    556.74501   -51976.746    51992.523    37.804069    42.393479 
156636000     350.7782    742.04767    501.59018   -51987.529    51989.258    240.45749    42.399569 
156640000    281.18129    373.87914    225.33728   -51995.911    52006.804    148.54187     42.40611 
156644000    286.91456    315.45115    511.86525   -52010.973     52031.86    -196.4141     42.41661 
156648000    237.37673     239.5446    268.98791   -52013.986    52042.004   -29.443309     42.41876 
156652000    322.39614    1019.6065    315.63351   -52049.542     52063.49    703.97296    42.428673 
156656000     269.6227    377.83723    356.76715   -52060.691    52083.939    21.070078     42.42409 
156660000    294.36288    615.78417    368.75242   -52074.961    52091.368    247.03176    42.419321 
156664000    286.26591     392.2168    575.50538     -52076.9    52093.114   -183.28858    42.420307 
156668000    255.96911    766.29041    492.68014   -52094.889    52114.119    273.61027    42.419273 
156672000    280.47429    168.88054    875.11085   -52087.713    52114.435   -706.23031    42.418023 
156676000    277.57277    191.31147    519.03502   -52100.528    52124.816   -327.72355    42.404965 
156680000    268.50227    637.11122    443.75832   -52105.334    52133.065    193.35291    42.391092 
156684000    280.65896    648.16582    647.11429   -52121.045    52124.969    1.0515292    42.406162 
156688000    251.26829    564.42271    326.49677   -52109.289    52136.779    237.92594    42.394293 
156692000    296.75934    374.47493    710.06283   -52119.514    52135.498   -335.58789    42.394196 
156696000     304.9867    731.70978    319.97841   -52149.431    52145.203    411.73137    42.417515 
156700000    310.68447    511.37041    485.56457   -52146.568    52162.014    25.805843    42.419515 
156704000    280.60958    696.70479    552.46892   -52153.758     52177.65    144.23587    42.423436 
156708000    281.60368    464.36896    413.76415   -52158.931    52174.625    50.604811    42.418959 
156712000     301.6516    674.01727    724.90797   -52166.573    52177.257   -50.890701    42.419601 
156716000     306.3728    669.55549    399.95883   -52178.246     52193.87    269.59666    42.420848 
156720000    309.13514    653.59218    466.93099   -52185.323    52193.077     186.6612    42.422376 
156724000    273.15049    745.90977    370.59783   -52192.681    52216.006    375.31194    42.422586 
156728000    287.61654    205.97251     244.8075   -52218.229    52224.451   -38.834994    42.429976 
156732000    244.29529    329.61609    392.79265   -52207.542    52246.795   -63.176559    42.428509 
156736000    280.25154    849.50301    681.26405   -52219.158    52236.736    168.23896     42.42169 
156740000    320.72378     1353.485    820.07651   -52248.672    52245.099    533.40844    42.435541 
156744000    291.13528    504.18494    205.60234   -52239.563     52247.67     298.5826    42.445381 
156748000    285.65113    378.00851    359.71156    -52253.13    52259.783    18.296949    42.440742 
156752000     273.9364    459.60864    254.61214   -52256.683    52283.471     204.9965    42.439919 
156756000    330.21626    1259.0826    463.81374   -52279.463    52287.444    795.26881    42.439244 
156760000    267.08639    566.48405    388.42159   -52286.989    52318.805    178.06246    42.425769 
156764000    310.75736    599.29288    639.00933   -52322.831    52329.484   -39.716456    42.434738 
156768000    276.99155    511.58608    571.39343   -52310.842    52335.884   -59.807343    42.434725 
156772000    265.11966     621.1989    271.31141   -52322.845     52358.83    349.88748    42.443216 
156776000    257.27791    265.29054    476.25783   -52331.855    52351.744   -210.96728    42.437755 
156780000    271.70954    276.08622    752.92035   -52328.313     52363.52   -476.83412    42.421348 
156784000    306.36154    568.85582    626.38808   -52340.806    52343.231   -57.532257    42.427855 
156788000    253.96422    289.83086    428.58883    -52347.78    52366.415   -138.75797    42.414482 
156792000    277.90562      629.659    681.51755   -52343.596    52363.171    -51.85855    42.410525 
156796000    274.23024    492.93376    790.94074   -52333.683    52370.596   -298.00697    42.403326 
156800000    265.14678    252.28091    274.03786   -52362.718    52383.957   -21.756945    42.395164 
156804000    285.17939     480.1845    273.53169   -52374.022    52399.913    206.65281    42.373712 
156808000    280.44189    298.03432    460.17265   -52404.144    52424.646   -162.13833    42.377338 
156812000    271.11909    410.75439    577.09233   -52407.361    52439.808   -166.33794    42.380982 
156816000    315.66554    502.12391     388.6643   -52441.189     52453.36    113.45961    42.390117 
156820000     269.0658    163.39331    411.40907    -52441.32    52462.708   -248.01576    42.387387 
156824000    292.46293    553.32579    614.95232   -52448.194    52462.258   -61.626531    42.383149 
156828000    302.49172    415.59409    492.69421   -52450.621    52462.092   -77.100121    42.354308 
156832000     318.0052    844.41452    528.27461   -52450.927    52458.491    316.13991    42.357123 
156836000    277.67383    556.52904    462.05528   -52469.995    52486.591    94.473761    42.352189 
156840000    276.63166    206.55788    401.26731   -52471.766    52484.704   -194.70943     42.35563 
156844000    317.44158    331.28106    216.90062   -52487.531    52488.338    114.38043    42.363676 
156848000    288.86998    407.24821    586.01847   -52509.504    52520.293   -178.77025    42.348576 
156852000    235.41605    203.14052    379.52995   -52508.786    52542.682   -176.38943    42.336751 
156856000    297.64236    518.18404    542.65724   -52525.329    52527.021     -24.4732    42.345437 
156860000    326.00657    820.85444    529.82262   -52526.579    52536.004    291.03182    42.356447 
156864000    243.00004     230.5372    466.18096   -52520.848    52558.632   -235.64376     42.35715 
156868000    303.88054    438.52869    331.80069   -52536.343    52558.963    106.72799    42.372576 
156872000    269.21484    267.92617    417.03959   -52532.986    52559.095   -149.11342    42.399063 
156876000    318.37645     785.3564    117.80653   -52579.326    52592.476    667.54988    42.403671 
156880000     291.8794    343.46118    274.05346   -52589.507    52602.773    69.407719    42.403608 
156884000    279.98094    555.79724    250.11633   -52607.229    52624.765    305.68091    42.400573 
156888000    247.56198    407.72918    278.54533   -52599.144    52628.601    129.18385    42.387243 
156892000    330.38946     191.0247    699.93998   -52620.437     52619.92   -508.91528     42.38952 
156896000    279.45568    738.09185    287.77929   -52630.071    52647.564    450.31256    42.392075 
156900000    268.35489     340.3539    895.07509   -52623.771    52646.909   -554.72119    42.382187 
156904000     280.9927     354.7645    430.17566    -52622.82    52639.811   -75.411164    42.357572 
156908000    296.30189    516.59102    601.82198   -52620.545    52642.633   -85.230954    42.359517 
156912000    357.14621     665.3983    570.58292   -52655.327    52652.421    94.815387    42.362393 
156916000    290.71993    324.32242    686.07556   -52668.985    52687.947   -361.75314    42.356879 
156920000    251.98764    288.10998    238.27092   -52691.953    52722.269    49.839059    42.351926 
156924000    300.66354    345.68397     814.3614   -52701.686     52718.31   -468.67742    42.330606 
156928000    257.88254    592.61681    180.01539   -52714.253     52747.42    412.60143    42.334304 
156932000    252.08786     494.2572    364.34821   -52719.151      52745.5    129.90899    42.337452 
156936000    234.12961     330.7834    253.18942   -52730.347    52767.403    77.593977    42.342166 
156940000    289.65446    230.27003    549.89987   -52763.206    52776.384   -319.62983    42.348395 
156944000    284.27031    376.23981    466.91983   -52802.038    52809.377   -90.680018     42.34454 
156948000    317.59693    520.28529    582.64073   -52812.079    52822.411   -62.355441    42.340863 
156952000     277.6282    549.53032    289.40689    -52813.34    52835.086    260.12343    42.347438 
156956000    285.73361    214.87298    381.02343   -52822.347    52844.454   -166.15046    42.350239 
156960000    273.39626     445.2186    203.93618    -52836.45    52852.965    241.28242    42.355799 
156964000    281.05785     766.9427    339.08099   -52847.354    52846.281    427.86171    42.358981 
156968000    334.56554     319.5981    446.25869   -52866.769    52870.209   -126.66059    42.357255 
156972000    293.23419    335.57131    295.36955   -52879.854    52888.102    40.201768    42.371945 
156976000    316.57361    401.27615    365.04159     -52888.2    52902.746     36.23456    42.370877 
156980000    299.63278    276.57108    365.47881   -52900.184    52917.145   -88.907735    42.364107 
156984000    251.54508    587.48805    128.69473   -52914.466    52947.019    458.79332    42.360572 
156988000    318.01284    180.89233    954.30603   -52936.185    52943.425    -773.4137    42.350773 
156992000    253.14426    200.28304    451.12388   -52919.756    52949.825   -250.84084    42.353943 
156996000    287.19133    648.76362    874.46688   -52935.809    52945.617   -225.70326     42.35784 
157000000    281.47278    683.44117    260.27371   -52949.504    52978.234    423.16746    42.367766 
157004000    290.64465    439.88827    481.11297   -52957.569    52986.838   -41.224702    42.359782 
157008000     284.8838    360.63877    309.65445   -52962.505    52986.078    50.984326    42.370995 
157012000    273.02219    121.40417    435.10008   -52962.503    52992.496   -313.69591    42.392292 
157016000    291.71024    365.29789    714.37507   -52997.095    53005.012   -349.07718    42.378277 
157020000    235.49814    545.21214    493.52656   -52986.414    53023.945    51.685586    42.396475 
157024000    294.21336    316.59549    608.51393     -53017.5    53021.295   -291.91844    42.391509 
157028000    291.98677    389.14625    501.44254    -53028.93    53036.342   -112.29629    42.381461 
157032000    307.80752    299.28337    625.28079   -53043.391    53056.041   -325.99742    42.383342 
157036000    285.76949    444.41466    461.85046   -53053.366     53071.42   -17.435806    42.395075 
157040000    328.72046    359.51125    247.05388   -53079.172    53080.937    112.45736    42.396974 
157044000    275.47131    780.90931    456.52703   -53094.445    53113.511    324.38228    42.406048 
157048000    300.03712    514.40989    368.66126   -53087.917    53108.297    145.74863    42.400074 
157052000    263.11814    347.02126    386.98325   -53102.827    53119.998   -39.961991    42.388347 
157056000    290.71446    428.25828     368.2141   -53111.446    53123.539    60.044189    42.390051 
157060000    302.66387    837.37863    208.44167   -53127.305     53145.77    628.93696    42.391376 
157064000    308.39516    340.19954    228.62517   -53139.203    53140.906    111.57437    42.379808 
157068000    262.14825    385.50009    114.00739   -53141.427    53166.055     271.4927    42.388208 
157072000    257.19146    480.11491    364.04008   -53141.247    53167.303    116.07483    42.386106 
157076000    313.63274    257.84872    909.45232   -53148.044    53164.245    -651.6036    42.372395 
157080000    304.64676    846.11563    657.68238   -53158.479    53179.778    188.43325    42.358836 
157084000    287.53037     652.2013    319.28191   -53163.748    53183.284     332.9194    42.371524 
157088000    236.73505    271.09579    419.78879   -53165.029    53197.272     -148.693    42.369473 
157092000     310.6674    487.45244    269.76609   -53183.754    53193.863    217.68635    42.373612 
157096000    277.41504    581.57037    555.67687   -53177.627    53200.614    25.893498     42.36251 
157100000    225.38106    204.75841    166.62978   -53194.165    53238.855     38.12863    42.364444 
157104000    285.71571    520.84591    337.74461   -53218.013    53247.492     183.1013      42.3415 
157108000    273.23595    475.94028    404.77272   -53226.551    53246.349    71.167553    42.331666 
157112000    279.76385    391.50051    565.58207   -53234.002    53257.028   -174.08156    42.332757 
157116000     314.3227    723.19303    659.11347   -53265.713    53272.241    64.079566    42.326969 
157120000    316.63319    464.61252    505.65301   -53276.409    53285.607   -41.040487    42.318892 
157124000    294.37397    464.57481    459.10823   -53288.901    53310.321     5.466576    42.333561 
157128000    288.11206    219.80595    287.81448    -53304.79    53318.751   -68.008533    42.325053 
157132000    323.00967    338.85604    239.85016    -53304.27    53321.491    99.005881     42.32089 
157136000    271.98176    585.59553    416.27182   -53319.996    53343.692    169.32371    42.318223 
157140000    256.01166    366.30939    626.09105   -53321.145    53359.407   -259.78166     42.32624 
157144000    309.58043    605.22877    320.89236   -53349.303    53365.233    284.33641    42.327289 
157148000    270.02249    1025.8104    388.02086    -53360.24    53390.797    637.78952    42.333661 
157152000     278.1355    348.17951    522.09666   -53351.498    53384.025   -173.91716     42.32158 
157156000    304.17356    879.57602    371.80791   -53361.114    53385.274    507.76811    42.346244 
157160000      290.486    1233.7753    163.69747   -53369.884    53399.515    1070.0779    42.355594 
157164000     305.0766    323.78652     456.8088   -53380.492    53397.749   -133.02228    42.364003 
157168000    279.54178    512.01181    366.59076   -53374.875    53402.133    145.42105    42.363823 
157172000    273.10147    562.04967    603.92459   -53384.295    53402.791   -41.874926    42.350131 
157176000    338.38831    880.52992    484.28846   -53408.993    53414.434    396.24146    42.352823 
157180000    295.36847     324.0129     836.5075   -53419.691    53437.297    -512.4946    42.348158 
157184000    277.72408    1005.4409    302.88124   -53449.306    53461.654     702.5597    42.344814 
157188000    304.58429     532.4534    581.17583   -53462.572     53472.88   -48.722435    42.338849 
157192000    244.48265    831.34772    231.28086   -53458.641    53485.772    600.06686    42.347175 
157196000    257.05877    408.50473    603.12544   -53462.316    53502.034   -194.62071    42.334363 
157200000       315.94    490.81724    473.16432   -53494.549    53498.925     17.65292     42.34546 
157204000    281.68943    338.69493    187.40447   -53494.489    53512.064    151.29046     42.33414 
157208000    295.13977     526.8084    325.95639   -53511.128    53519.886    200.85201    42.324824 
157212000    252.87786    355.07699    355.55847   -53515.026    53541.703  -0.48148238    42.342596 
157216000    271.95788    440.26528      257.874   -53524.572    53545.005    182.39128    42.338921 
157220000    313.90615    204.67701    272.83226   -53555.669     53565.99   -68.155252    42.334742 
157224000    281.32393    329.83961    464.77771   -53569.632    53590.048   -134.93811     42.32835 
157228000    292.65387    214.95911    649.71175   -53582.661     53601.28   -434.75264    42.342489 
157232000     243.9539    215.82466    315.39011   -53588.128    53623.213   -99.565457     42.34286 
157236000    278.12356    507.97543     588.7362     -53601.4    53622.498   -80.760777    42.360216 
157240000    244.66636    553.63991    222.06101   -53608.153    53639.224     331.5789    42.351728 
157244000    267.68639    183.38857    214.19377   -53614.674    53632.552     -30.8052    42.341501 
157248000    323.58341    320.60593    167.10973   -53626.648    53636.354     153.4962    42.332805 
157252000    298.84566     495.2331     511.0005   -53629.551    53647.983   -15.767395    42.332552 
157256000     307.9142    249.75715    459.65718   -53650.596     53662.47   -209.90003    42.335546 
157260000    293.63931    408.78421    264.26866   -53662.001     53676.19    144.51554    42.333109 
157264000    293.83163     646.3888    660.54431   -53664.573    53682.912   -14.155509    42.346055 
157268000    308.07784    162.80946    379.28906   -53676.155    53695.234    -216.4796    42.338431 
157272000    259.18916    489.02956    159.95066   -53691.867    53715.472     329.0789    42.342158 
157276000    300.66598    379.97696    289.54217    -53695.11    53713.766    90.434788    42.335507 
157280000    287.87483    766.74878    191.02792   -53717.577    53723.815    575.72086    42.343801 
157284000    276.83842    337.62075    283.64165   -53703.973    53731.466      53.9791    42.338808 
157288000    250.16262    541.38627    286.42713   -53710.397    53756.443    254.95913    42.346841 
157292000    295.17439    452.88632     1091.164   -53727.198    53748.864   -638.27766    42.346012 
157296000    288.93771    840.35994    237.92956   -53745.513     53767.76    602.43038    42.343174 
157300000    311.18875      553.756    516.27194   -53767.278    53782.577    37.484058    42.345376 
157304000    253.21238     466.8797     753.9719   -53759.128    53786.405   -287.09221    42.328776 
157308000    282.54846    305.99118    343.33707   -53775.138    53801.958   -37.345891    42.330665 
157312000    297.67644    500.90395    320.20613     -53799.7    53825.646    180.69783    42.324062 
157316000    253.02784    82.128688    264.60184    -53794.24    53826.232   -182.47315    42.331085 
157320000    292.15541    205.29399    472.28011   -53824.036    53836.141   -266.98612     42.32736 
157324000     309.4721    377.82532    452.99989   -53829.341    53841.315   -75.174571    42.335726 
157328000    298.91838    165.41761    464.45157   -53857.079    53863.571   -299.03396    42.326971 
157332000    295.48954    549.19666    412.16274   -53870.305    53886.534    137.03392    42.334663 
157336000    333.95447    566.53445     350.4312   -53886.281    53898.508    216.10325    42.335895 
157340000    276.33307     317.6488    521.09586    -53890.38    53914.408   -203.44706     42.33912 
157344000    295.85365    438.25121    276.71256    -53880.58    53899.684    161.53865    42.339483 
157348000    278.74443     195.8036    349.60887   -53882.383    53912.188   -153.80527    42.345022 
157352000    276.27991    306.59522    188.88142   -53901.554    53918.092    117.71381    42.334193 
157356000    260.26564    460.59398    245.97051    -53892.09    53910.611    214.62347    42.323088 
157360000    264.39032    698.87017     358.8747   -53898.279    53923.988    339.99546    42.321248 
157364000    273.45576    183.37018    357.94753   -53911.997    53940.892   -174.57735    42.326056 
157368000    297.44694    391.53983    329.79922   -53930.902    53946.247    61.740607     42.33495 
157372000    316.13402    393.47237    730.58452   -53959.321    53974.625   -337.11215    42.330026 
157376000    322.55982    446.10198    452.26039   -53972.967    53986.581   -6.1584132     42.33721 
157380000    303.11972     451.0195    479.46787   -53990.733    53996.829   -28.448375    42.335109 
157384000     266.7244    331.50831    651.68368   -54004.647     54016.83   -320.17537    42.339003 
157388000    282.05918    502.48638     128.4384   -54011.309    54027.154    374.04798    42.329577 
157392000     302.0335    406.15525    216.80743   -54021.265    54031.582    189.34782    42.342666 
157396000    292.08981    567.62262     1049.555   -54036.755    54047.318   -481.93234    42.341229 
157400000    311.17941    431.45382    704.21223   -54048.511    54066.042   -272.75841    42.342841 
157404000    282.20508     690.3882    291.32518   -54048.021    54070.593    399.06302    42.340068 
157408000    257.55567    221.49348    526.47581   -54067.452    54079.892   -304.98233    42.343637 
157412000    292.29378    491.58745    425.37244   -54080.413    54098.218    66.215002     42.35311 
157416000     259.4133    1023.9575    490.16391   -54077.706    54106.369    533.79356    42.345583 
157420000    299.89835    273.34238    474.18808    -54106.72    54109.234   -200.84571    42.345828 
157424000    335.49021    433.86033    628.40939   -54131.811    54120.946   -194.54906    42.345471 
157428000    311.35972     1026.716    694.32643   -54129.864    54138.781    332.38955    42.350579 
157432000    282.71328    309.52631    546.12916   -54122.894    54154.489   -236.60285      42.3585 
157436000    273.39638    343.91854    304.82707   -54148.114    54170.762    39.091472    42.349202 
157440000    263.22884    310.32529    589.37257   -54156.423    54177.471   -279.04728    42.340651 
157444000    293.13167    1128.1927      512.885   -54185.461    54211.278     615.3077    42.344707 
157448000      261.739    574.67939    388.70632   -54192.278    54225.728    185.97307    42.340453 
157452000    273.59078    536.37531     191.9281   -54208.571    54232.547    344.44721    42.336155 
157456000    260.54364    132.80399    614.74685   -54224.002    54248.738   -481.94287    42.330526 
157460000    273.77493    535.16807    512.81212   -54255.324    54274.819     22.35595    42.334873 
157464000    280.17194    422.33816     357.9361   -54253.788    54271.911    64.402061     42.32248 
157468000    258.84041    345.45201    85.121765   -54261.833    54278.139    260.33025    42.324004 
157472000    272.64381    501.99383    292.64922    -54274.25    54295.873     209.3446    42.326272 
157476000    289.16128    396.22137    1196.8034   -54304.237    54308.359   -800.58206    42.321937 
157480000    286.65297    393.88298     476.4202   -54306.386    54326.722   -82.537227    42.325584 
157484000    243.10941    534.13169    479.06251   -54307.017    54342.586     55.06918    42.325137 
157488000    310.87074    808.09657    478.97285    -54331.68    54350.299    329.12372    42.336075 
157492000    266.70288    388.56261    534.53423   -54345.637    54373.674   -145.97162    42.332325 
157496000    291.30075    376.70655    481.65619   -54370.485    54383.952   -104.94965    42.346305 
157500000    275.30006    540.49513    207.21633   -54388.408    54404.761     333.2788    42.354388 
157504000    283.33923    465.24907    525.50305   -54393.999    54410.268   -60.253984    42.360052 
157508000    291.09346    233.96766    335.52973   -54413.999    54433.512   -101.56207    42.354838 
157512000    337.85472    414.93425    195.42429   -54435.807    54437.757    219.50996    42.350449 
157516000    319.24926    318.22635    321.85174   -54421.757    54438.137   -3.6253861    42.363481 
157520000    268.58741     720.2074    410.01822   -54439.026    54463.445    310.18919    42.367446 
157524000    298.00432    622.03768    342.17061   -54463.995    54469.575    279.86707    42.364093 
157528000    279.82106    518.58344    514.70369   -54456.376    54467.964    3.8797555     42.36402 
157532000    293.42697    260.66762    304.90058   -54453.172    54470.214   -44.232961    42.352397 
157536000     289.2756    686.65638    415.45778   -54471.211    54480.781     271.1986    42.334249 
157540000    282.81838    550.15833    910.90633   -54476.778    54500.578   -360.74801     42.34067 
157544000    238.03114     289.3927    337.14928   -54483.328    54522.609   -47.756574    42.338377 
157548000    268.99689    645.28929    536.47025    -54519.57    54537.278    108.81904    42.333383 
157552000    290.01712    532.82384    227.49882   -54535.919    54553.826    305.32502    42.344844 
157556000    261.77092    467.98741    202.43241   -54534.862    54566.395      265.555    42.343337 
157560000     267.8908    600.59897    500.48755   -54544.471     54559.31    100.11142    42.350634 
157564000    286.81111    361.48121     447.7106   -54560.381    54581.059   -86.229389    42.350878 
157568000    310.70022    182.91448    352.40117   -54581.419    54590.331    -169.4867    42.355353 
157572000     280.4643    324.79684    714.62015   -54580.285    54590.341   -389.82331    42.336925 
157576000    286.63939    580.35862     377.4366   -54588.061    54606.309    202.92201    42.302529 
157580000    315.52037     420.5553    712.21437   -54601.689    54609.815   -291.65907    42.299194 
157584000    301.65502    453.06082    316.17906   -54597.209    54611.242    136.88176     42.30957 
157588000    324.96191      165.847    515.45509   -54600.343    54611.426   -349.60809    42.308565 
157592000      296.935    910.06731    505.95521   -54622.645    54637.463     404.1121    42.319632 
157596000    301.77157    392.91691    929.63457   -54617.664    54644.623   -536.71766    42.308265 
157600000    308.91127    1110.4135    241.58562   -54627.911     54639.93    868.82787    42.309075 
157604000    307.75833    1224.2804    744.90862   -54618.718    54634.025    479.37182    42.314705 
157608000    296.80911    413.78832    249.52124   -54625.442     54637.79    164.26708    42.314997 
157612000    294.34114    406.86633    308.99229   -54629.445    54652.491    97.874048     42.30652 
157616000    308.07849    1082.6012    274.52425   -54646.703    54667.158    808.07694    42.299388 
157620000    244.13176    696.40788    521.96997   -54657.628    54689.395     174.4379    42.288756 
157624000    279.82716    276.14799    347.89757   -54681.078    54689.656   -71.749578    42.299014 
157628000    287.99999    729.01189    214.53438   -54688.658    54703.107    514.47751    42.305468 
157632000    266.53229    361.51561      125.864    -54692.45    54709.653    235.65161     42.30424 
157636000      292.449    551.12909    293.78821   -54702.742    54711.437    257.34088    42.295406 
157640000    291.53185    575.17426    320.83948   -54723.267    54724.766    254.33478    42.284237 
157644000    292.64059    466.25933    496.13774   -54724.357    54732.928   -29.878412    42.289228 
157648000    316.25831     232.0293    420.30723   -54744.171    54748.702   -188.27792    42.270659 
157652000    306.69551    427.53701    677.01552   -54763.926    54766.865   -249.47851    42.265917 
157656000    312.67619    625.75847    484.93617   -54782.058    54785.365     140.8223    42.266703 
157660000    273.57002    197.65116    409.49565   -54791.253    54807.604   -211.84449    42.260578 
157664000      240.759    321.84974     496.7557   -54798.605    54826.015   -174.90596    42.251137 
157668000    252.58494    461.67907    204.88193   -54817.832    54837.263    256.79714    42.252718 
157672000    273.64441     273.7426    408.10646    -54803.27    54845.768   -134.36386     42.23897 
157676000     259.7525    435.80632    213.55028   -54829.686    54864.851    222.25604    42.253184 
157680000    305.08738     451.9377    284.32397   -54865.295    54877.401    167.61374    42.252156 
157684000    290.28666    449.97927    293.53113   -54875.314    54897.891    156.44815    42.233637 
157688000    312.38752    503.38614     371.2404   -54902.116    54910.316    132.14574    42.233689 
157692000    340.33121    609.52613    1114.7527   -54914.096    54918.507   -505.22661    42.234558 
157696000    305.07827    754.48484    359.73492   -54917.646     54931.09    394.74991    42.244623 
157700000    268.81152    354.45629    637.19739   -54922.564    54944.068   -282.74111    42.246519 
157704000    249.74129    300.74199    287.70764   -54938.447    54968.159    13.034346    42.241673 
157708000    270.86195    242.12422    293.20247   -54955.349    54980.543   -51.078248    42.248231 
157712000    275.50015    347.51717    834.81331   -54978.129    54987.509   -487.29614    42.229541 
157716000    267.59866    271.34816    338.53058   -54989.905    55001.276    -67.18242    42.229707 
157720000     276.2038    363.10074    400.93121   -54987.931    55015.011   -37.830465    42.241797 
157724000    311.09428    617.18813    826.05648   -54996.641    55012.258   -208.86836    42.227554 
157728000    271.54464    768.03175    241.29742   -55008.531    55030.355    526.73433     42.21685 
157732000    295.46902    986.35035    1101.3576   -55023.256    55044.687   -115.00725    42.209693 
157736000    304.94138    197.77712    915.78372   -55034.663    55039.573   -718.00661    42.192775 
157740000    289.49194    581.27773    236.95104   -55021.229    55040.704    344.32669     42.19075 
157744000    328.74494    835.49096    335.22513   -55040.946    55041.479    500.26583    42.185422 
157748000    291.02452    498.62281    253.68495   -55051.967    55071.652    244.93786     42.19172 
157752000    308.26053    491.47568    428.43992   -55067.541    55074.031    63.035759    42.171224 
157756000    299.17487    646.73211     250.6388   -55078.789    55092.087    396.09331    42.170329 
157760000    283.74738    129.13924    648.01457   -55083.246    55094.981   -518.87533     42.16375 
157764000    312.11527    538.60643    387.24387   -55103.578    55112.777    151.36256    42.150785 
157768000    308.08688    411.50689    188.79258    -55102.06    55115.072    222.71431    42.151692 
157772000    305.18099    810.06456    280.33329   -55120.846    55132.124    529.73127     42.14168 
157776000    286.83349    300.55743    504.51367   -55137.317    55160.611   -203.95624    42.133378 
157780000     232.3317    446.07321    412.46749   -55152.197    55187.614    33.605724     42.12992 
157784000    273.18951    704.16811    723.28355   -55158.964    55178.708   -19.115442    42.124988 
157788000    261.30257    196.30408    600.21755   -55153.957    55177.491   -403.91347    42.119684 
157792000    284.38663    552.69455    206.00882   -55159.455    55188.423    346.68573    42.112845 
157796000     238.0425    372.41862    634.08636   -55161.513    55191.718   -261.66774    42.120934 
157800000    282.92935    428.24635    296.52038   -55186.415     55194.88    131.72597    42.121549 
157804000    304.25607    471.25164     449.6855   -55195.699    55206.257    21.566134    42.125244 
157808000    269.30179    393.02198     476.6856   -55200.643    55224.878   -83.663614    42.112629 
157812000     360.1385    782.50076    272.59336   -55223.658    55206.732     509.9074    42.127909 
157816000    274.99651     512.2076    467.84852   -55206.835    55236.053    44.359085    42.128913 
157820000    282.88583    300.33721    244.46976   -55208.485    55234.325    55.867451    42.135164 
157824000     264.1895    554.60499      221.609   -55205.449    55233.831    332.99599    42.135489 
157828000    291.29552    485.22917    502.48651   -55226.927    55240.289   -17.257343    42.144156 
157832000    308.54154    608.10372    121.06616   -55254.672    55264.273    487.03756    42.150416 
157836000    294.96598    630.53968    285.48734   -55258.615    55277.959    345.05234    42.170576 
157840000    290.23976    547.22813    329.63112   -55268.056    55290.098    217.59701    42.185334 
157844000    292.28212    596.80435    222.40903   -55281.517    55301.498    374.39532    42.187688 
157848000    273.60556     689.8916    1041.3542   -55293.315     55324.71   -351.46258    42.181316 
157852000    301.18007    439.74416    463.04582   -55319.553    55342.756   -23.301658    42.169362 
157856000    267.30074     383.6273    356.35652   -55320.689    55349.016    27.270773    42.171743 
157860000    300.11586    357.56397    215.60082   -55340.982    55355.577    141.96315    42.169734 
157864000    258.58321     449.1546    190.55994   -55352.992    55360.499    258.59466    42.170616 
157868000    295.01561    775.11877    136.17562   -55358.487    55375.293    638.94315     42.16619 
157872000    313.17759    461.46889    242.28369   -55386.618      55388.6     219.1852     42.16132 
157876000    289.93143    232.86845    987.98601   -55389.284    55402.634   -755.11756    42.160813 
157880000    255.11835    700.49864    483.47277   -55399.456    55427.449    217.02587    42.163085 
157884000    261.62804    386.34232    462.10309    -55403.51    55434.177   -75.760766    42.160478 
157888000    332.58539    571.34145    320.16813   -55418.741    55432.291    251.17331    42.172198 
157892000     254.1465    527.73565    451.16429   -55416.175     55445.31    76.571358    42.170141 
157896000     320.7948    372.71744    497.49564    -55430.35    55442.742    -124.7782    42.172896 
157900000    266.75213    907.09604    996.47723   -55439.331    55466.336   -89.381191    42.177334 
157904000    300.11298    725.85627    461.39328   -55455.719    55473.803    264.46298    42.173775 
157908000    281.74583    481.16949    262.15147    -55465.98    55485.594    219.01802     42.17375 
157912000    261.93182    482.62273    122.98313   -55459.285    55480.696     359.6396    42.192306 
157916000    296.51485    468.85094    408.89706    -55476.63    55493.919    59.953883    42.192135 
157920000    241.14251    302.68603    380.29461   -55477.383    55517.816   -77.608588    42.200317 
157924000    286.43819    560.01124    351.54592   -55510.232    55526.243    208.46532    42.202557 
157928000    259.88102    185.92393    442.95698   -55504.208    55539.577   -257.03305    42.207179 
157932000    287.49607    372.39377    391.50507   -55505.806    55530.292   -19.111305    42.218518 
157936000    275.35024    335.01351    513.73321   -55503.742    55534.244    -178.7197    42.205014 
157940000    266.41029    273.07978     503.2281   -55522.102    55559.683   -230.14832    42.186157 
157944000    270.51133    292.98878    407.38239   -55546.164     55571.08   -114.39361    42.179894 
157948000    310.08167    496.51772    309.99934   -55554.419    55577.613    186.51838    42.192186 
157952000    282.31037    428.15213    1219.9741   -55568.511    55581.858   -791.82197    42.197494 
157956000    319.78198    415.82167    930.41168   -55583.493    55593.329   -514.59001    42.197654 
157960000     236.5681    366.67761     1019.182   -55564.759    55594.767   -652.50436    42.199019 
157964000    274.51933    319.26164     477.5839   -55566.059    55594.628   -158.32226    42.213704 
157968000    304.03275    721.64531    313.40523   -55558.017    55575.085    408.24009    42.222745 
157972000    317.81422    395.62092    994.03991   -55574.878     55586.67   -598.41898     42.23448 
157976000    309.50391    402.51844    547.03903   -55582.419    55587.538   -144.52059    42.233815 
157980000    231.33442     298.7017    411.67316   -55575.323     55605.27   -112.97146    42.228515 
157984000    283.68857    232.84582    339.24754   -55590.302     55614.94   -106.40172    42.232781 
157988000    299.93643    786.52652    481.48284   -55626.538    55630.568    305.04369    42.241594 
157992000    317.66428    815.04841    350.37819   -55626.863    55627.334    464.67021    42.239418 
157996000    256.88775    220.50342    410.01884   -55624.102    55655.392   -189.51542    42.252735 
158000000    301.39682    500.59287    397.90087   -55650.616    55661.089      102.692    42.242824 
158004000    282.86962    764.51149    282.40959   -55655.159    55671.228     482.1019    42.264788 
158008000    270.83866    768.17951    413.81146   -55663.045    55690.872    354.36805    42.250141 
158012000    260.90434    376.37794      819.632   -55672.334    55698.828   -443.25405    42.254807 
158016000    286.73661    719.63973      810.855    -55691.16    55708.698   -91.215266    42.242968 
158020000    254.75134     210.6926    757.18314   -55684.542    55721.888   -546.49055      42.2442 
158024000    251.05008    269.11614    211.07072   -55706.856     55738.49    58.045425    42.245101 
158028000     267.4224    461.83372    250.89528    -55706.48    55735.351    210.93844    42.249905 
158032000    255.65351    415.52862    344.40315   -55712.977    55745.802     71.12547    42.244603 
158036000    272.01152    711.83819    324.48767   -55723.794    55752.668    387.35051    42.248402 
158040000    261.80636    174.19069    251.90991   -55734.807    55764.161    -77.71922    42.246462 
158044000    262.83774    242.79528    244.14293   -55753.966    55776.907   -1.3476477    42.225311 
158048000    261.77218    382.25958     208.9367   -55767.636    55796.944    173.32287    42.220697 
158052000    259.16725     397.3313    322.74277   -55785.132    55802.345    74.588532     42.22715 
158056000    318.74297    476.10225    368.71645   -55794.548    55815.271     107.3858    42.229727 
158060000    249.93783    565.36123    410.16735   -55808.031    55832.566    155.19387    42.230677 
158064000    244.25453    295.91061    607.43841    -55811.75     55850.53   -311.52779    42.235041 
158068000    256.81265    587.01306    393.67937   -55838.333    55870.104    193.33369    42.245858 
158072000    235.26068    249.53385    446.21826   -55827.357    55878.707   -196.68441    42.245371 
158076000    285.92937    868.42202    1098.8798   -55857.321    55865.303   -230.45778    42.243782 
158080000    277.99423    607.19868    373.75618   -55861.356    55880.236     233.4425    42.237613 
158084000     298.0816    754.68916    496.26134   -55895.727     55911.61    258.42782    42.237865 
158088000     264.1889    482.33869    326.56544   -55899.815     55926.13    155.77325    42.243482 
158092000    260.95808    450.77162    329.37106   -55900.878    55938.705    121.40056    42.251159 
158096000    256.04707    639.30665    622.18559   -55928.162    55955.969    17.121067    42.244766 
158100000    267.89906    462.50737    344.73878   -55935.629    55958.634    117.76859    42.236781 
158104000    278.61566    497.38033    352.32155   -55947.203    55968.238    145.05878    42.230149 
158108000    265.76158    215.92482    207.32057   -55953.405    55978.632    8.6042456    42.221291 
158112000    307.54354    398.72562     445.9307   -55969.863    55980.131   -47.205083    42.232742 
158116000    288.70336    410.98091    363.06376    -55988.33    56003.587    47.917149    42.233208 
158120000     268.5212    283.42165    241.62973   -55999.642    56023.202    41.791915    42.238186 
158124000    293.42633    499.28604    321.58779   -56012.196    56037.925    177.69826    42.251301 
158128000    279.36808    669.75448    768.02791   -56014.099    56039.167   -98.273433    42.265033 
158132000    284.91983    438.77074    542.96847   -56002.299    56024.247   -104.19773    42.253388 
158136000    294.69871    511.18957    541.47621   -56022.297    56031.516    -30.28664    42.245526 
158140000    302.04098    849.51987    619.83361   -56049.599    56058.531    229.68627    42.246218 
158144000    292.19007    430.70477     154.1595   -56035.875    56067.532    276.54527    42.233656 
158148000    294.30412    588.24579    322.58525   -56053.306    56070.075    265.66054    42.234107 
158152000    279.46664    385.77199    327.63661   -56092.742     56102.15    58.135374    42.249353 
158156000    303.79895    409.37411    1047.9503   -56124.373    56121.229   -638.57619    42.267936 
158160000    293.12057    581.02824    441.39441   -56104.993    56116.743    139.63383    42.278804 
158164000    297.86556    798.89142    173.38606   -56116.185    56132.425    625.50536     42.28915 
158168000    290.97336     717.6717    667.33831   -56136.847    56144.078    50.333389    42.281581 
158172000    251.56187    96.784835    224.59027   -56127.862     56161.96   -127.80544    42.276007 
158176000    297.23615    603.93587    525.09507   -56133.378    56147.908    78.840803     42.27781 
158180000    329.19681    204.43805    340.31614   -56144.334     56158.29   -135.87809    42.293135 
158184000    293.53381    351.57425    309.69034   -56158.432    56170.785    41.883911    42.289574 
158188000    236.84412    286.77999    277.17568   -56166.166    56194.723    9.6043058    42.293198 
158192000    283.23538    338.12105    475.30486   -56173.663     56200.36    -137.1838    42.285203 
158196000     271.4122    596.39963    665.25574   -56176.112     56205.58   -68.856111    42.295134 
158200000    297.71808    882.31143    540.99847   -56183.685    56211.938    341.31296    42.298634 
158204000    230.99084    333.36101    231.35972   -56201.578    56232.752    102.00129    42.288548 
158208000    301.22994    780.14862    203.11306   -56216.113    56228.425    577.03557    42.287671 
158212000    298.16748     322.7106    943.51344   -56217.149     56238.02   -620.80283    42.289542 
158216000    261.53108    188.25929    128.68162   -56231.813    56256.237    59.577668    42.289975 
158220000    285.97682    623.18694    551.11065   -56240.169    56258.253    72.076286    42.288867 
158224000    310.81534    556.51967    475.46795   -56265.642    56268.722    81.051722    42.292895 
158228000    284.55794    573.32487    159.69476   -56261.091    56275.216    413.63011    42.289727 
158232000    272.41647    352.79556    624.22215   -56254.062     56281.18   -271.42659    42.284338 
158236000    282.65021    462.39903    298.19093    -56275.94    56287.396     164.2081    42.279095 
158240000    254.79746    625.68517    221.10049   -56271.987    56293.201    404.58468    42.281649 
158244000    280.74832     230.8802    467.61478    -56288.98    56295.668   -236.73458    42.275722 
158248000    293.25842    451.13191     463.1787   -56278.612    56299.816    -12.04679    42.281478 
158252000    281.19307    79.552231    638.58015   -56287.322    56307.779   -559.02792     42.29093 
158256000    276.21248    429.06304     410.1156   -56297.197    56324.712    18.947436    42.281621 
158260000    285.03497    358.78342    209.07363   -56316.313    56332.911    149.70979    42.276173 
158264000    312.61507     579.4036    818.58664   -56306.187    56329.391   -239.18304    42.269031 
158268000    284.64351    531.39967    404.00935   -56327.354    56350.338    127.39032    42.275818 
158272000    273.93217    355.33745    183.82543   -56326.014    56360.704    171.51203    42.266405 
158276000    276.04772     392.7954    631.87038   -56343.474     56368.09   -239.07498    42.249996 
158280000    307.75367     469.7853    307.76363   -56365.398    56365.968    162.02167    42.250553 
158284000    284.11643    608.64079     399.6424   -56362.095    56376.859    208.99839    42.240638 
158288000     335.1693    299.45809    687.22605   -56367.782    56376.287   -387.76796    42.249202 
158292000    256.79034    384.01877    242.98041   -56368.575    56395.378    141.03836     42.24963 
158296000     285.2074     971.4436    279.99784   -56388.138    56414.217    691.44576    42.258103 
158300000    278.59274    370.34772    847.96111   -56399.618    56429.815   -477.61339    42.255025 
158304000    288.11123    734.64803     255.9408   -56425.205    56439.386    478.70724    42.259866 
158308000    373.71991    1083.2588    614.77101   -56438.545    56437.013    468.48779    42.256237 
158312000    251.59485    290.64212    338.52168   -56444.826    56475.482   -47.879563     42.25236 
158316000     261.3534    796.12055    703.56097    -56459.91    56478.737    92.559587    42.258225 
158320000    244.22411    444.66589    133.24226   -56470.936    56503.626    311.42362    42.263938 
158324000    282.66007    461.76138    396.81716   -56479.403    56495.631    64.944218    42.263207 
158328000    336.35823    153.31129     321.1907   -56481.014    56490.406   -167.87941    42.257988 
158332000    311.41897    1147.6953    379.75992    -56484.16     56491.68    767.93533    42.260848 
158336000    280.40316    324.50652    585.85824   -56481.225    56499.168   -261.35172    42.266567 
158340000    316.92569    507.80195    250.66166   -56496.886    56489.218    257.14028    42.279428 
158344000     283.9978       499.97    181.21156   -56473.823    56501.755    318.75844     42.27171 
158348000     320.4237    692.19728    612.87318   -56481.742    56488.313    79.324099    42.265282 
158352000    274.93663    623.23384    777.71818   -56494.112     56521.23   -154.48434    42.253561 
158356000    338.61963    305.26812     560.6849   -56502.046    56500.385   -255.41678    42.251601 
158360000     293.7107    413.18637     249.5289   -56506.028    56524.192    163.65746    42.241811 
158364000    296.94788    319.75391    363.47296    -56536.79    56557.328   -43.719049    42.229892 
158368000    259.80083    271.39402    361.02887   -56532.428    56558.372   -89.634855    42.226997 
158372000     285.0488    490.38011    208.54453   -56548.009    56564.398    281.83558    42.221927 
158376000     290.5333    407.41264    197.12305   -56553.095    56564.377    210.28959    42.225065 
158380000    271.83891    332.81854    747.21103   -56564.147    56584.339   -414.39249    42.223117 
158384000    283.26808    659.97513    607.75916   -56582.373    56589.267    52.215964    42.220935 
158388000    301.65873    556.57053    613.58998   -56584.273     56607.65   -57.019446    42.215497 
158392000    269.77911    519.43228    174.46639   -56586.849    56609.242    344.96589    42.211055 
158396000    283.07049    648.16847    487.10226   -56586.158    56601.516    161.06621    42.235932 
158400000    268.36676    631.66266    431.56978   -56597.898    56627.971    200.09288    42.232118 
158404000    316.83435     552.5403    216.51066   -56609.095    56626.321    336.02964    42.235246 
158408000    286.69607     229.4786    520.45043   -56612.128     56631.32   -290.97183    42.236285 
158412000    276.81209    255.89612     470.6218   -56614.989    56631.722   -214.72568    42.232288 
158416000    304.75512      847.009    445.21322   -56623.195    56638.525    401.79578    42.233337 
158420000    283.91222     482.3982    301.27012   -56625.401    56657.181    181.12808    42.232635 
158424000    250.45072      180.427    248.56922   -56629.269    56660.575   -68.142214    42.225905 
158428000    267.39266    235.57416    395.70074   -56647.082    56678.819   -160.12657     42.22669 
158432000    296.85121    385.74682    1134.4635   -56673.374    56693.103   -748.71672    42.219359 
158436000    276.39334    216.76867    329.97837   -56691.111    56704.692    -113.2097    42.225737 
158440000    300.57518    312.30727    647.11187   -56714.012    56716.239    -334.8046    42.220658 
158444000    310.65168    686.35935    318.81315   -56722.986    56730.935     367.5462    42.216352 
158448000    261.88707    615.97559    757.39506   -56739.619    56760.703   -141.41946    42.216124 
158452000    227.54637     247.2796     736.4751   -56741.313    56775.682    -489.1955    42.201653 
158456000    295.70672    1015.6694    360.99604   -56775.166    56786.535    654.67332     42.21241 
158460000     279.4467    216.51067    1062.9313   -56784.433    56800.145   -846.42068    42.213347 
158464000    324.61535    833.69948     507.8204   -56807.562    56808.319    325.87908     42.19885 
158468000    287.03418    490.21377    414.19825   -56810.763    56827.802    76.015519    42.202061 
158472000    272.21989    364.45359    500.98594   -56830.732    56839.817   -136.53235    42.202407 
158476000    264.29864     437.1846    208.64397   -56833.008    56854.409    228.54063    42.204957 
158480000    323.24464    667.90711    1251.8379   -56838.539    56859.769   -583.93083    42.193006 
158484000    260.03911    551.21979    446.35814   -56852.435     56886.24    104.86165     42.19617 
158488000    309.38599    561.45815    323.86067   -56862.977    56879.711    237.59748    42.213749 
158492000    284.04722    306.43265    566.48877   -56881.948    56898.101   -260.05612    42.206272 
158496000    315.58004    541.91949     579.2113   -56895.177      56903.1   -37.291811    42.217916 
158500000     319.5326    312.54686    499.27105   -56913.246    56904.911   -186.72419    42.226984 
158504000    277.32569    422.66608    368.81879   -56912.818    56929.822     53.84729    42.229802 
158508000    265.13844    299.84668    252.81526   -56907.303    56925.159    47.031422     42.23628 
158512000    324.59301    1213.3774    281.52353   -56943.237    56941.685    931.85382    42.234488 
158516000    301.68058    532.80798    677.49193    -56968.26    56978.092   -144.68395    42.234837 
158520000    310.74835    420.74836    447.44035   -56983.267    56997.542   -26.691992    42.243769 
158524000    309.82995    185.02153    270.16114   -57002.168    57018.021   -85.139605    42.237524 
158528000    242.88522    494.20139     328.2785   -56999.357    57025.649    165.92288    42.241724 
158532000    243.67295     266.2371    335.60965   -57003.979    57041.713   -69.372555    42.243805 
158536000     283.1683     199.8924    393.80073   -57026.514    57045.041   -193.90832    42.250435 
158540000    307.70745    291.33095    460.12774   -57041.088    57049.933   -168.79678    42.250599 
158544000    274.77013    156.13676    422.03807   -57056.768    57065.275   -265.90131    42.245335 
158548000    270.77633    1029.3826    331.66789   -57053.087    57080.786    697.71467    42.249717 
158552000    285.76193    458.19079    452.85648   -57073.575     57095.23    5.3343147    42.266348 
158556000    302.13958     227.9501    560.04036   -57091.287    57118.781   -332.09027    42.261023 
158560000    264.43198    319.34947    377.22565   -57105.337    57137.937   -57.876176    42.263865 
158564000    302.90396    661.83685    232.79287   -57121.687     57132.11    429.04398    42.288184 
158568000    294.02254    150.40047    877.05011   -57125.047    57138.656   -726.64964    42.288906 
158572000    300.60451    836.76336     768.4235   -57135.837    57151.242    68.339858     42.29779 
158576000    281.47226    326.35036    376.04432   -57162.244    57181.667   -49.693962    42.297658 
158580000    306.19296    666.36618     324.5875   -57163.857    57170.775    341.77868    42.288579 
158584000    267.10796    269.52211    165.10928   -57169.521    57183.436    104.41284    42.283033 
158588000    260.14886    770.72813    139.72077   -57156.054    57185.526    631.00736    42.278367 
158592000    267.59059    314.29146    366.70546   -57171.308    57189.008   -52.413996    42.284249 
158596000    340.78871    748.37474    750.87605   -57193.727    57200.622   -2.5013106    42.273647 
158600000    301.06434    511.40528    315.59608   -57194.881    57210.202     195.8092    42.287063 
158604000     302.3851    479.86228    385.71153   -57201.854    57224.761    94.150746    42.276279 
158608000    268.57052    469.29784    532.14175   -57219.222    57239.252   -62.843917    42.269536 
158612000     293.8719     616.2449    559.07951   -57229.093    57250.926    57.165395    42.278905 
158616000    283.09521    480.84073    251.59517   -57260.215    57280.368    229.24555    42.275494 
158620000     246.5544     165.0486    528.74463   -57267.853    57295.152   -363.69603    42.285163 
158624000    255.74424    620.40268     117.4028   -57270.108    57297.922    502.99988    42.267594 
158628000    339.04629    458.69504    285.68986   -57283.706    57297.113    173.00519    42.289489 
158632000    307.73547     463.9037    439.32594   -57288.189    57296.237    24.577759    42.304821 
158636000    269.77916    170.20599    1052.7136   -57304.254    57308.643   -882.50758    42.304558 
158640000    272.10388     1013.915    444.01254   -57294.902    57323.167    569.90243      42.2948 
158644000    251.48342    601.57917    387.89499    -57320.32    57344.468    213.68417    42.302638 
158648000    313.47351    661.67713    1106.5129   -57336.384      57342.5   -444.83579    42.313507 
158652000    303.59158    553.63421    437.95522   -57356.217    57356.262    115.67899    42.319436 
158656000    301.20196    390.42531    287.54139   -57351.693    57370.121    102.88393    42.327217 
158660000    272.79864    546.24034     575.0993   -57358.408    57370.037   -28.858954    42.338418 
158664000    310.53592    429.71085    284.37397   -57363.206    57377.319    145.33688    42.339098 
158668000     281.7928    124.95676    259.78611   -57366.899    57386.251   -134.82934    42.347609 
158672000    278.85584    618.52949    610.97791   -57357.966    57387.137    7.5515798    42.362247 
158676000    307.15027    650.87969    135.69696   -57363.825    57380.216    515.18273    42.352831 
158680000    256.91413    1040.3515     160.5935   -57364.281    57391.691    879.75799    42.360445 
158684000    261.56582    263.32642     351.7915   -57360.634    57393.769   -88.465075     42.36704 
158688000    299.50706    433.24862    229.23124     -57387.8    57400.628    204.01738    42.354712 
158692000    315.10701     656.5836    724.65952   -57392.246    57408.791    -68.07591    42.358705 
158696000    286.99054    924.86841    288.35312    -57399.54    57413.045    636.51529    42.367068 
158700000    294.41238    342.85358    237.39224   -57400.208    57416.388    105.46134    42.356605 
158704000      286.304    238.59772    646.12161   -57414.056    57433.175    -407.5239    42.350836 
158708000    278.76421    388.10116    268.85037    -57450.32    57462.644    119.25079    42.353226 
158712000    259.30646    220.47027    313.00764   -57452.781    57481.973   -92.537372    42.369105 
158716000    300.53011    264.93279    269.25523   -57472.644    57495.137   -4.3224367    42.359155 
158720000     277.3428    387.78904    550.67679   -57488.186    57512.783   -162.88775    42.367835 
158724000    257.53907    482.54372    144.85453   -57489.172    57516.334    337.68919    42.365099 
158728000    269.31782    399.88931     713.3043   -57492.668    57522.151     -313.415    42.366506 
158732000    315.03229    432.31837    167.80671   -57514.063    57519.058    264.51166    42.365344 
158736000    347.16506    149.59499    275.58458   -57526.278     57532.68    -125.9896    42.367517 
158740000    243.36315    184.29196    290.05965   -57547.843    57569.729   -105.76769    42.367766 
158744000    250.54645     392.3211    135.67634   -57576.609    57599.885    256.64476    42.364618 
158748000    268.11823    617.30744    431.61354   -57577.561    57600.457     185.6939    42.365535 
158752000    253.45363     462.1658    170.93742    -57582.36    57604.876    291.22838    42.365927 
158756000    283.84817    482.58855    253.34265   -57586.627    57614.213     229.2459    42.365241 
158760000    326.72942    924.37132    443.28856   -57589.541    57600.501    481.08277    42.367179 
158764000    243.96325    188.32361    351.10445    -57576.92    57616.238   -162.78084     42.37912 
158768000    303.08019    827.01654    621.66383    -57588.96    57610.061    205.35271    42.382387 
158772000    253.78594    680.48002    246.00467   -57576.878    57605.472    434.47536    42.388355 
158776000    271.90115    535.04632    366.30829   -57591.661    57610.849    168.73803    42.391607 
158780000    253.51228    268.13576    386.20184   -57587.826    57622.533   -118.06607     42.40841 
158784000    276.83984    681.83888    333.80651   -57609.774    57635.743    348.03237    42.409279 
158788000    291.24094     572.6568    174.02758   -57649.696    57649.189    398.62922     42.42129 
158792000    236.03435    563.53695    317.52881   -57640.574    57671.411    246.00814    42.413352 
158796000     298.7891     1000.522    416.28619   -57640.837    57656.732    584.23583    42.410019 
158800000    290.92741    628.66451    343.22711   -57651.742    57674.844    285.43741    42.411017 
158804000    280.73675    526.99298    259.55926    -57677.32    57697.841    267.43372    42.418613 
158808000    294.80928    958.95472    661.17339   -57686.613    57680.341    297.78132    42.425014 
158812000    303.58057    448.33155    499.65729    -57686.38    57704.692   -51.325738    42.423485 
158816000    291.34554    782.11025    659.06672   -57688.796    57695.755    123.04354      42.4238 
158820000    260.98641    434.59246     250.0139   -57690.945    57708.084    184.57856    42.431389 
158824000    276.41916    753.87873    708.60196   -57707.234    57732.665    45.276772    42.427189 
158828000     270.6034    358.72147    513.01498   -57713.992     57746.96   -154.29352    42.431283 
158832000    307.00872    366.55656    130.76744   -57719.813    57730.891    235.78912    42.429017 
158836000    265.27953    606.61326    716.87869   -57729.482    57749.584   -110.26543      42.4368 
158840000    254.83337    365.49812    470.68642    -57756.19    57774.298   -105.18831    42.440615 
158844000    266.27528    115.45555    333.80276   -57760.292    57787.252   -218.34721    42.436555 
158848000    258.39522    216.42323    359.47331   -57776.867    57794.653   -143.05008    42.421222 
158852000    275.07457    155.94222    393.42541   -57788.682    57820.813    -237.4832    42.408815 
158856000    266.26615    504.24448    293.01893   -57807.658     57842.58    211.22555    42.404317 
158860000    288.78306    504.06612    474.00798   -57820.932    57837.689    30.058138    42.391368 
158864000    301.18262    287.67012    204.33989   -57827.582    57835.056    83.330223    42.408978 
158868000     297.1092    346.53785    412.45769   -57826.119    57839.927   -65.919838    42.400643 
158872000    242.52643    600.42646    101.51381   -57824.514    57850.234    498.91265    42.396253 
158876000    236.04153    405.61173    367.81713   -57822.525    57850.984    37.794595    42.406065 
158880000    250.36307    586.73728    165.15969   -57844.369    57875.779    421.57759    42.404034 
158884000    327.22102    587.88266    655.32447   -57853.909    57861.531   -67.441809    42.396524 
158888000    297.02483    384.88155    560.43488   -57848.474    57866.005   -175.55333    42.403894 
158892000    304.80127    815.81039    919.23389    -57866.36    57871.795    -103.4235    42.403373 
158896000    290.28615    384.33758    310.28995    -57885.67    57899.237    74.047629     42.40771 
158900000    274.29796    461.53621     381.5448   -57895.905    57917.434    79.991405    42.405291 
158904000    256.89434    124.99314    352.06726   -57898.584     57918.38   -227.07412    42.409885 
158908000    252.67819    326.56119    421.32011   -57900.222    57926.261   -94.758922    42.401457 
158912000    300.65728    399.20603    485.90976   -57915.002    57929.285   -86.703734    42.403364 
158916000     297.2713    646.13961    237.01592   -57937.069    57950.958    409.12369    42.402507 
158920000    288.92623     368.3525    553.05041   -57959.862    57965.703   -184.69791     42.39861 
158924000     311.0358    346.13695    259.88127   -57982.914    57987.863    86.255676    42.397009 
158928000    302.01312     550.7145    194.68646    -58003.54    58011.053    356.02804    42.399525 
158932000    287.81081    761.71935    163.34435   -58011.487    58025.399      598.375    42.417317 
158936000    296.09328    361.21918    765.68881   -58022.412    58047.011   -404.46962    42.411661 
158940000    290.46003    461.27101    188.55152   -58034.415    58059.235     272.7195    42.413158 
158944000     299.6147    690.94038    397.56948   -58067.576    58080.349     293.3709    42.413579 
158948000    294.09615     375.8523    673.15105   -58071.151    58087.621   -297.29875    42.423733 
158952000    253.35121     795.6107    739.77205   -58084.402    58115.474    55.838643    42.418603 
158956000    278.38377    280.07421    277.03246   -58099.076    58120.811    3.0417544    42.407557 
158960000    246.39621     934.7053    353.69321   -58116.873    58149.491    581.01209    42.399952 
158964000     256.2718    587.54033    230.38741   -58115.045    58155.634    357.15292    42.404565 
158968000    313.78766    799.52024    329.24022   -58147.238    58169.751    470.28002    42.423384 
158972000    290.18852    430.98628    198.48293   -58160.624    58183.172    232.50335    42.418235 
158976000    305.56464    404.90993    492.02956   -58190.981    58200.866   -87.119626    42.421478 
158980000    241.43099    240.94873    266.42325    -58188.34    58218.208   -25.474524    42.429601 
158984000    301.11694    368.16388    465.01707   -58197.791    58225.813   -96.853195    42.426524 
158988000    258.34575    281.57964    468.94265   -58207.316    58235.839   -187.36301    42.410442 
158992000    238.08713    719.68298    304.67423   -58197.903    58229.993    415.00875    42.420618 
158996000    280.01164    515.93674    255.26308   -58209.046    58221.535    260.67366     42.43102 
159000000    294.58269    502.67278    503.50898   -58223.978    58236.896  -0.83620727    42.438316 
159004000    282.35875    305.51949    459.05067   -58231.963    58241.449   -153.53119    42.449411 
159008000    280.04667    252.09979    375.08306    -58240.53    58248.102   -122.98327    42.447931 
159012000    290.82821    237.08049    398.33157   -58235.458    58248.862   -161.25108    42.447631 
159016000    249.55635    969.02321    388.37779   -58242.088    58262.743    580.64543    42.443683 
159020000    312.33675    601.57846    391.15433   -58265.385    58269.774    210.42414    42.456816 
159024000    297.36351    389.16862    492.93629   -58267.067    58289.178   -103.76767    42.446138 
159028000    337.22841    433.28375    307.60412   -58267.726     58270.97    125.67963    42.447851 
159032000     336.9992    330.45139    945.06348   -58285.081    58282.084   -614.61209    42.434647 
159036000    280.47725    827.83748    347.27808   -58284.754    58309.244     480.5594    42.436539 
159040000    251.35325    468.50534    114.26286    -58283.38    58317.907    354.24247    42.433674 
159044000    323.31397    614.03652     423.8083   -58304.128    58308.711    190.22823    42.433318 
159048000    337.30217    1063.6694    112.76455   -58316.352    58304.801    950.90489    42.449953 
159052000    266.10512    469.73512    177.59294   -58308.073    58332.338    292.14218    42.456615 
159056000    306.55932    504.57943    336.60902   -58329.349    58339.263    167.97041    42.464174 
159060000    270.80201    529.12424    574.88848   -58330.433    58354.817   -45.764236    42.470537 
159064000     318.7137    539.40763    256.64668   -58359.631    58356.856    282.76095    42.470891 
159068000    284.37368    625.15219    406.70058   -58350.861    58369.144     218.4516    42.476025 
159072000    308.92189    359.21221    262.66523   -58377.682    58376.188    96.546982    42.478279 
159076000    280.69513     374.4891    322.44732    -58392.48    58411.932    52.041775    42.494632 
159080000    320.92986    482.43604    430.95574   -58391.623    58416.877      51.4803    42.492465 
159084000    299.42631    471.74363    123.67886   -58395.341    58407.584    348.06477    42.483724 
159088000    283.30595    165.83003    632.00545   -58400.628    58403.761   -466.17541     42.47768 
159092000     289.7856    153.96522    201.43765   -58402.143     58416.99   -47.472429    42.483052 
159096000    254.30656    470.70059    310.50739   -58406.627    58441.158    160.19321    42.500558 
159100000    281.17186    340.81379    227.85436   -58438.898    58455.397    112.95944    42.497572 
159104000    254.96834    385.38884    493.37773   -58436.704    58463.177   -107.98889    42.491536 
159108000    290.74488    171.18799    328.11105   -58469.402    58482.533   -156.92306    42.479739 
159112000    273.53686    543.73839    352.96417   -58472.429    58506.109    190.77423    42.476041 
159116000    276.46062    719.28981     554.7519   -58497.162    58518.949    164.53791    42.482816 
159120000    278.19956    469.49938    528.70873   -58513.585    58526.799   -59.209345     42.47526 
159124000    245.67364    158.45163    395.01929   -58524.778        58561   -236.56766    42.486933 
159128000    267.15241    253.36344    552.18257   -58551.595    58575.992   -298.81913    42.480531 
159132000     266.8152    1162.3913    388.48055   -58558.799     58582.77    773.91072    42.493148 
159136000    292.76772    381.15917    158.01111   -58572.487    58588.738    223.14806    42.492931 
159140000    268.16609    351.18011    86.862425   -58573.685     58594.01    264.31768    42.515111 
159144000    279.43302    552.71452    445.04289   -58581.188    58601.498    107.67163    42.507364 
159148000    284.72688    204.25483    334.17922   -58599.585    58613.373   -129.92439    42.521133 
159152000    225.24139    108.30074    475.48438   -58615.586    58647.393   -367.18363    42.518196 
159156000    315.79621     434.4565    350.06063   -58628.519    58638.281    84.395873    42.514434 
159160000    294.66733      388.775    257.54844   -58640.489     58664.14    131.22656    42.512065 
159164000    304.13077     153.3437    590.15303   -58668.281    58674.807   -436.80933    42.499726 
159168000    306.84772    293.06183    550.53999   -58678.262    58696.075   -257.47816    42.516627 
159172000    316.77818    705.98589    369.67844   -58680.647    58703.267    336.30745    42.520192 
159176000    277.32316    512.30243    155.39367   -58689.446    58715.656    356.90876    42.527609 
159180000    291.65429    355.16783    377.31534   -58713.912    58714.074   -22.147508    42.534372 
159184000    319.33812     668.0038    716.19086    -58734.52     58739.25    -48.18706    42.539564 
159188000    312.83939    494.56204    500.66531   -58738.788    58755.138   -6.1032746    42.543031 
159192000    283.07958    113.48008    237.10189   -58755.889    58769.927   -123.62181    42.553832 
159196000    278.52338    377.34157    238.17422   -58769.491     58794.43    139.16735    42.557143 
159200000     307.9892    585.23537    652.02358   -58780.248    58791.624   -66.788205    42.548851 
159204000    245.69129    397.94321    177.08633   -58777.811    58801.818    220.85688    42.560496 
159208000    283.24067    479.23704    389.62996   -58795.837     58796.89    89.607083    42.560523 
159212000    328.58999    430.05422    420.87195   -58813.345    58814.725    9.1822695    42.584334 
159216000    329.78144    893.87689    444.09486   -58829.433    58828.371    449.78203    42.576614 
159220000     296.3638    630.46325    298.81549   -58836.231    58850.872    331.64776    42.581568 
159224000    306.52585    242.12153    600.43652   -58861.626    58877.726     -358.315    42.572906 
159228000    284.86986    363.28189     643.1487   -58872.867    58893.703   -279.86682     42.56513 
159232000    311.71098    512.36233    674.24203   -58886.652    58901.561    -161.8797    42.572611 
159236000    293.20222     551.2633    725.71904   -58898.074     58914.34   -174.45575    42.583618 
159240000    273.87494    241.19445    372.29571   -58914.784    58929.044   -131.10126    42.579649 
159244000    302.99309    400.70953    403.45026   -58923.389    58952.557   -2.7407301    42.579878 
159248000    288.33714    518.87183    598.20753   -58944.968     58971.78   -79.335705    42.572992 
159252000    260.07991    347.18393    177.71626    -58958.73    58985.373    169.46767    42.583196 
159256000    276.85332    238.19278    336.11348   -58978.585    58995.148     -97.9207     42.57929 
159260000     287.5507    245.83127    870.30341   -59003.074    59017.581   -624.47213    42.557891 
159264000    298.64214    553.20929    337.85619   -58995.738    59014.754     215.3531     42.57939 
159268000    295.55911     368.8318    576.57994   -59008.207    59032.416   -207.74814     42.58748 
159272000    310.53488     897.0031    379.54541   -59031.974    59043.148    517.45769    42.584806 
159276000    280.46811    720.66039    641.42117    -59041.29    59063.584    79.239213    42.589106 
159280000     284.4495    206.16427    359.06075   -59043.177    59051.817   -152.89648     42.59155 
159284000    291.65846    388.14634    764.11085   -59061.059    59060.728   -375.96452    42.596208 
159288000    266.02512    244.77381    229.95712    -59067.49    59076.891    14.816689    42.597951 
159292000    274.39227    675.69153    368.40455   -59075.178    59078.484    307.28698    42.586948 
159296000    325.06908    260.44893    338.93437   -59090.511    59101.995   -78.485441    42.581946 
159300000    301.18563    602.92328    921.53233   -59099.153    59110.847   -318.60906    42.575192 
159304000    345.45676    606.67621    774.69375   -59118.848    59115.272   -168.01754    42.580794 
159308000    312.17743    621.84658    135.28948   -59121.707    59123.664     486.5571    42.594623 
159312000    264.47448    594.07893    505.75179   -59116.131    59140.474    88.327139    42.599179 
159316000    307.92312    472.98206    453.55909   -59164.954    59169.052     19.42297         42.6 
159320000    311.79842    694.38301    478.91213   -59182.568    59198.505    215.47087    42.611944 
159324000    262.55954    288.47156    600.43538   -59199.501    59219.069   -311.96382    42.603917 
159328000    329.36766    343.31216    234.62265   -59222.248    59225.227    108.68951    42.586296 
159332000    251.38859    279.39882    287.81257   -59204.182     59249.61   -8.4137501    42.596195 
159336000    286.32321    353.68274    116.00229   -59238.566    59259.781    237.68044    42.574931 
159340000    303.99789    254.14538    263.07587   -59256.802     59280.61   -8.9304836    42.581918 
159344000    274.36518     584.0984    223.86506   -59249.392    59276.845    360.23334    42.595153 
159348000    286.17601    473.17929    439.57597   -59277.227    59287.603    33.603321    42.602039 
159352000    299.55521    459.19937    433.63586   -59291.365    59300.976    25.563506     42.58376 
159356000    287.77409    312.45792    721.89969   -59279.546    59302.146   -409.44177    42.587157 
159360000    282.84379    364.22876     387.7437   -59290.575     59311.07   -23.514937    42.585707 
159364000    276.29745    224.57256    208.93165   -59290.933      59321.5    15.640919     42.58901 
159368000    280.02662    436.53592    366.00658    -59290.69    59309.855     70.52934    42.595164 
159372000    287.45205    305.68231    671.28632   -59306.004    59332.346   -365.60402     42.58699 
159376000    301.61158    592.39988    474.47097    -59307.52    59327.847    117.92891    42.597572 
159380000    258.81284    569.09957    275.94596   -59304.774    59330.089    293.15361     42.59335 
159384000    272.10888    374.59008    702.88523   -59309.446    59343.331   -328.29515    42.586046 
159388000    253.69968    459.88439    337.61943   -59322.393    59359.984    122.26496    42.581049 
159392000    244.40736    467.49652    515.24993   -59332.717    59362.329   -47.753406    42.573207 
159396000    262.05508    552.32058    673.36387   -59354.634    59374.794   -121.04329    42.551945 
159400000    264.57377    278.28751     366.3456   -59357.557    59373.391   -88.058092    42.549074 
159404000    305.39932    345.76401    210.00401   -59359.332    59374.692    135.76001     42.54533 
159408000    300.96693    721.86541    568.82963   -59375.584    59384.752    153.03577    42.559415 
159412000    319.06713    498.04933    477.69344   -59384.283    59397.352    20.355891    42.551017 
159416000    277.41449    284.68098     468.3589   -59387.607    59418.622   -183.67792    42.567435 
159420000    255.87311    348.03961    478.76847   -59395.129    59418.572   -130.72886    42.569783 
159424000    254.25648    346.89968    385.13227   -59405.259    59431.255   -38.232586    42.562587 
159428000    295.27337    502.05791     492.2595   -59422.393    59436.358     9.798414    42.549225 
159432000    265.75681    289.68778     144.8232   -59428.773    59454.024    144.86458    42.556826 
159436000    246.12586    308.32678    448.72485   -59428.112    59449.605   -140.39808    42.562692 
159440000    265.79143    486.70879     524.0356   -59425.918    59452.603    -37.32681    42.578437 
159444000    255.38223    787.66632    416.75203   -59433.928    59458.797     370.9143    42.569509 
159448000    268.80684    477.47537    458.92887   -59443.742    59463.275    18.546502    42.563622 
159452000    278.65508    359.20208    632.18026   -59455.795    59482.696   -272.97817    42.564251 
159456000    302.52388     268.2302    249.09333    -59470.33    59486.461    19.136864    42.562651 
159460000    298.05198    342.63225    233.03539   -59488.279     59504.18    109.59686     42.57266 
159464000     305.3708    365.05539    340.65406   -59489.705    59510.627    24.401325    42.575163 
159468000    261.44483     312.0175     205.5912   -59502.824    59529.243    106.42631     42.57776 
159472000    265.72649    134.67643    729.37076   -59516.219    59550.698   -594.69434    42.562281 
159476000      268.239    539.02253    787.60235   -59528.921    59556.276   -248.57982    42.559769 
159480000    243.96628    752.30021    576.20172   -59534.376    59562.288    176.09849    42.567377 
159484000    267.53007    299.34187    796.92323   -59556.232     59584.87   -497.58136    42.555301 
159488000    281.06038     481.4901    337.36096   -59585.385    59597.289    144.12914    42.555982 
159492000    231.37095    358.00954     422.2709   -59595.805    59626.121   -64.261363    42.563906 
159496000    278.95334    217.45633    205.96608   -59619.564    59632.859     11.49025    42.553882 
159500000    289.35261    497.51653    293.44424   -59629.814     59646.11     204.0723    42.556019 
159504000    296.07144    316.15211    353.56868   -59631.485    59648.791   -37.416569    42.559485 
159508000    282.15374    283.53418     765.6352   -59638.072    59655.312   -482.10103    42.564633 
159512000    303.18325     221.7116    423.96731   -59643.946     59656.97   -202.25571      42.5618 
159516000    296.11328    374.65594    523.77291   -59658.056     59680.64   -149.11697    42.560207 
159520000    246.06358    299.04994    681.12474   -59676.832    59712.115   -382.07481    42.564737 
159524000    270.56346    368.78464    454.93363   -59702.349    59708.477   -86.148988     42.56046 
159528000     294.2809    313.28602    1007.0417   -59705.537    59727.108   -693.75566    42.552091 
159532000    304.22967    575.26783    342.07542   -59720.904    59735.763    233.19241    42.560483 
159536000     284.5541    435.74749    506.99775   -59736.273    59748.603    -71.25026    42.548145 
159540000    290.90621    300.33128    227.50601   -59756.747    59766.018    72.825263    42.540584 
159544000     341.7735    396.71787    756.52742   -59773.174    59778.493   -359.80955    42.523334 
159548000    282.93432    608.55772    314.77719   -59774.197    59796.156    293.78054    42.528639 
159552000    285.36768    290.16517    509.56528   -59785.738    59817.373   -219.40011     42.53749 
159556000    320.16504     415.6337    431.75501    -59811.02    59806.789   -16.121309    42.535918 
159560000    295.72795    316.62951    646.42761   -59804.123    59823.398   -329.79811    42.532765 
159564000    307.72762    661.48869    751.80933   -59821.901    59842.587   -90.320632    42.521922 
159568000    295.80414    668.35406    645.05252   -59830.807    59856.431    23.301533    42.534821 
159572000    287.86759    434.35683    247.35454   -59844.851    59873.772    187.00229    42.535469 
159576000    312.18961    387.22436    312.66945   -59848.511    59859.867    74.554911    42.534903 
159580000     294.6528    947.79803    738.29993   -59848.912    59868.615     209.4981    42.550289 
159584000    301.37556    642.86564    604.63976   -59860.625    59880.511    38.225882    42.545107 
159588000    290.08311    536.78217    510.33336   -59876.446    59896.714    26.448814    42.536035 
159592000    293.53942    234.78615     202.5218    -59878.23    59885.686    32.264348    42.531206 
159596000    301.89696     227.2083    465.05434   -59888.386     59899.75   -237.84604    42.540363 
159600000    326.62209    339.14372    780.42843   -59898.229    59916.025   -441.28471    42.530203 
159604000      273.996     461.5464    278.73835   -59898.578    59923.627    182.80804    42.535156 
159608000    262.86206    647.23424    324.74865   -59905.315    59921.831    322.48558    42.544874 
159612000    267.25379    506.27178    937.80012   -59910.295    59927.708   -431.52834    42.525742 
159616000    273.19981     430.8978    452.97965   -59919.537    59954.774   -22.081847    42.526171 
159620000    271.72968    318.02465    478.04388   -59938.188    59951.818   -160.01923     42.53347 
159624000    295.47705    744.90549    367.71821     -59951.3    59961.181    377.18728    42.554115 
159628000    302.10433    547.92325    412.41046   -59970.203     59989.04    135.51279    42.571368 
159632000    270.80361    372.75526    89.740158   -60001.005    60021.021     283.0151    42.559225 
159636000    298.34171    192.16254    577.13419   -60020.883    60036.893   -384.97165    42.567008 
159640000    292.31456    954.46018    266.30258   -60034.448    60052.042     688.1576    42.566157 
159644000    275.00569    223.49546    534.48468   -60031.835    60053.467   -310.98922    42.562698 
159648000    293.41139    540.41341    256.05298   -60049.353    60066.077    284.36044    42.568047 
159652000    287.54362    577.50918    249.91996   -60053.739    60075.557    327.58922    42.573738 
159656000    277.63684    597.12725    209.79177   -60063.806    60090.487    387.33548    42.564738 
159660000    317.87666    343.89087    368.78531    -60082.53    60097.092   -24.894443    42.571151 
159664000     271.0946    471.44525    157.68384   -60093.615    60118.428    313.76141    42.570307 
159668000    267.31714    133.13156     153.7179   -60106.694    60138.946   -20.586335    42.576248 
159672000    254.83327    344.27272    297.95341    -60120.87    60147.318    46.319313    42.577116 
159676000    301.99928     521.7643    267.20367    -60158.06    60162.476    254.56063    42.575981 
159680000    304.17351    270.64376    516.25206   -60172.718      60178.1    -245.6083    42.578056 
159684000    312.21537    584.78566    558.47838   -60187.854    60189.776     26.30728     42.58076 
159688000    247.87815    96.590718    335.94478   -60183.146    60212.999   -239.35407    42.575846 
159692000    250.95376    533.67508    321.54821   -60195.683    60218.107    212.12687    42.569576 
159696000     231.3526     489.3751     109.9588   -60190.042    60221.676    379.41631    42.572277 
159700000     265.9058     290.0443    250.77461   -60196.308    60223.285    39.269687    42.573851 
159704000    268.74141    423.02647    157.91362   -60225.136    60240.078    265.11285    42.567818 
159708000    265.12173     453.9188     480.0293   -60229.235    60249.214   -26.110498     42.56708 
159712000    284.00331    847.16201     299.1743   -60245.889    60264.021     547.9877    42.574437 
159716000    245.02103    473.38017    478.09453   -60241.571    60277.578   -4.7143568    42.567855 
159720000    302.16413     654.7509    790.89902   -60268.711    60285.925   -136.14812     42.57095 
159724000    252.27159    224.09897    224.66007   -60280.526    60312.913   -0.5610969    42.563078 
159728000    268.06058    507.15025    305.83233   -60294.506    60326.675    201.31792    42.553759 
159732000    274.40283     381.5322    313.53412   -60301.192    60327.589     67.99807    42.555321 
159736000    329.27599     361.2787    251.13965    -60318.87    60327.155    110.13905     42.54024 
159740000    291.73278    602.10558    215.35835    -60309.57    60336.182    386.74722    42.536641 
159744000    266.75279    480.53187    395.28918   -60332.927    60359.334    85.242685    42.537623 
159748000    284.47175    578.92472    262.14847    -60339.39    60361.709    316.77626    42.539455 
159752000    239.72851    494.81868    419.94265   -60333.571    60361.864    74.876023    42.532678 
159756000    290.46934     412.8397    638.36771   -60363.347    60380.654   -225.52801    42.533938 
159760000    250.34822    278.63037    410.80393   -60359.121     60391.87   -132.17356    42.538812 
159764000    276.94818    660.90928    364.20699   -60365.222    60392.501    296.70228      42.5438 
159768000    279.95253    525.94269    208.51522   -60375.778    60391.031    317.42747    42.541856 
159772000    271.12017     572.3859    303.24569   -60390.351    60413.814    269.14021    42.549366 
159776000    257.50234    747.50222    213.44306   -60409.736     60427.06    534.05916    42.545991 
159780000    292.17815    244.18363    444.13292   -60421.057    60441.861   -199.94929    42.534961 
159784000    325.33915    371.25667    459.90645   -60441.095    60448.085   -88.649787    42.534007 
159788000    288.34813    174.44488    457.64383   -60448.241    60451.686   -283.19895     42.52596 
159792000    344.55463    243.46193    794.95834   -60454.676    60450.624   -551.49641    42.529975 
159796000    319.03931    346.71414    224.28049   -60462.816    60478.255    122.43365     42.52511 
159800000    253.97528     545.7892    132.58733   -60463.995    60490.642    413.20187    42.530694 
159804000    275.55666    543.29934    252.51447   -60479.499    60507.639    290.78487    42.535125 
159808000    291.26656    686.95025    912.75836    -60494.43    60508.354   -225.80811    42.538523 
159812000    304.60215     475.9334    489.98832   -60516.638    60530.306   -14.054915    42.533999 
159816000    283.80165    502.27075    296.23375   -60529.335    60552.254    206.03701    42.521832 
159820000    336.21242    693.50691    586.87394   -60566.566     60556.59    106.63297    42.522213 
159824000    291.81383    279.15192    612.98106   -60568.353    60595.051   -333.82914    42.522295 
159828000    268.00472    419.03741    300.69847   -60583.823    60617.638    118.33894    42.522571 
159832000    242.59489     370.9086     211.3434   -60578.707    60623.668     159.5652    42.519702 
159836000    233.05333    353.84332    632.98991   -60592.545    60632.647   -279.14659    42.512842 
159840000    253.47991       358.76    180.92168    -60590.27    60633.343    177.83832    42.507393 
159844000    280.05446     263.1156    670.69954   -60594.231    60612.798   -407.58394    42.506552 
159848000     271.3745     293.5392    193.58297   -60596.048    60626.467    99.956232    42.507221 
159852000    286.57444    343.38223      532.227   -60612.494    60636.266   -188.84477    42.505789 
159856000    332.60116    390.99028    622.59355   -60646.925    60636.137   -231.60327    42.512971 
159860000    270.43168    931.18337    294.32726   -60638.787     60656.95    636.85611    42.506255 
159864000    277.83092    364.03753     311.9566   -60633.849    60665.195    52.080929    42.514185 
159868000     271.1422     516.3267    155.05361   -60631.198    60651.004    361.27309    42.513224 
159872000    297.19763    589.51585    195.70388   -60639.696    60647.778    393.81197    42.530213 
159876000    270.72062    1379.8283    510.47179   -60643.083    60659.096    869.35649    42.526602 
159880000    279.50449    362.85315    1052.5263   -60672.158    60698.427   -689.67312    42.527865 
159884000    281.66273    237.04505     352.0164   -60698.516    60709.118   -114.97135    42.517849 
159888000    320.11056    878.66765    410.40806   -60699.291    60714.605    468.25959    42.500807 
159892000    273.87238    835.29324    249.64165   -60724.263    60743.352    585.65159    42.490389 
159896000     235.0967    225.86328    400.29464   -60733.046    60763.459   -174.43136    42.496972 
159900000    277.44648    364.25022    246.86777   -60753.418      60775.4    117.38245    42.498997 
159904000    261.63817    503.10443    125.43718    -60757.66    60780.737    377.66725    42.502525 
159908000    290.71673    358.34425    689.59556   -60762.541    60786.098   -331.25131    42.498846 
159912000    284.26837    562.49937    608.90899   -60771.791    60786.197   -46.409624    42.506333 
159916000    326.17711    332.81133    939.56585   -60770.561    60781.008   -606.75452    42.506177 
159920000     302.1617    493.57705    456.91709   -60780.953    60794.903    36.659968    42.513785 
159924000    308.36843    479.89708    233.97657   -60801.452    60814.992    245.92051     42.50117 
159928000    265.30456    436.28777    604.97227    -60800.91      60816.4    -168.6845    42.504117 
159932000    341.81118    349.14747    606.11974   -60807.563    60811.131   -256.97227    42.519318 
159936000    290.16186     614.0327    472.16465   -60814.213      60817.7    141.86805    42.522708 
159940000    246.82388    688.26714    517.60203   -60817.877     60851.98    170.66511    42.511183 
159944000    263.27302    1051.8355     558.9191   -60836.434    60859.746    492.91644    42.501353 
159948000    285.34408     392.6231    244.95881   -60858.709    60871.272    147.66428    42.510317 
159952000    274.62136    316.98268    215.83542   -60866.733    60888.314    101.14726    42.522739 
159956000     295.9551    382.43173    502.98039   -60868.562    60889.726   -120.54867    42.522932 
159960000     265.6389    371.14681    586.56004   -60860.899    60882.651   -215.41322    42.516939 
159964000    287.17253    462.98659    308.33188   -60877.443    60890.557    154.65471     42.51196 
159968000    312.27708     446.3164    345.21527   -60892.911      60905.7    101.10113    42.515146 
159972000    260.29912    283.08946    836.41206   -60895.138    60926.865    -553.3226    42.521494 
159976000    222.69312    118.53793     166.7557   -60885.963    60932.011   -48.217772     42.52525 
159980000    293.56605    514.40887    312.00238   -60904.064    60929.258     202.4065    42.541411 
159984000    249.74845    322.32764     403.6468   -60903.627    60924.811   -81.319161    42.536595 
159988000    282.27519    153.83965    235.16597   -60914.839     60937.18   -81.326319    42.533875 
159992000    284.73695    303.81587    194.32632   -60939.403    60942.959    109.48956    42.533953 
159996000    254.96527    631.39427     354.1055   -60953.568    60975.808    277.28877    42.546462 
160000000     299.3595    426.00659    248.94658   -60960.486    60976.184    177.06001    42.541718 
160004000    283.11457    954.53626    447.84898   -60955.142    60973.334    506.68728    42.555826 
160008000    279.01646     241.4321    504.09752   -60958.398    60981.067   -262.66541     42.55499 
160012000    292.24484    508.82507    747.40151    -60962.09    60977.663   -238.57644    42.552391 
160016000    285.18992    237.53646    426.64604   -60986.524    61011.278   -189.10958     42.55099 
160020000    306.84012    488.59969    492.42823   -60996.799    61017.174   -3.8285438    42.553909 
160024000    271.57004    533.40429    211.16004    -60984.81    61007.562    322.24425    42.542243 
160028000     276.4423    621.92823     162.4706    -60985.04    61011.793    459.45763    42.532628 
160032000    330.80236    804.08451     519.4652   -61004.767    61006.767    284.61931    42.540677 
160036000    303.53798    638.01926    354.75385    -61023.05    61032.335    283.26541    42.543439 
160040000    301.85835     224.2577    220.33336   -61035.596    61049.644    3.9243315    42.538843 
160044000    279.15785    767.34078     446.5553   -61049.836     61069.38    320.78548    42.539783 
160048000    296.17455    856.17247    315.17967   -61072.269    61086.841     540.9928    42.551702 
160052000    285.51013    374.54615    386.45992   -61072.619    61089.799   -11.913766    42.553136 
160056000    273.41449    340.89972    377.22875   -61072.542    61103.989   -36.329024    42.561831 
160060000    276.58106    592.31783    280.04529   -61086.891    61113.461    312.27254    42.555814 
160064000    244.97485    354.85204    256.24678   -61114.338    61138.465    98.605261    42.558309 
160068000     318.0801    482.92914    590.27164   -61133.715    61144.509   -107.34251    42.577532 
160072000    279.34257     145.5323    349.98752   -61147.527     61167.67   -204.45522    42.578573 
160076000    250.95962     571.3388    173.75461   -61164.109    61196.128    397.58419    42.588503 
160080000    295.20286    93.644535    199.14047   -61173.933    61192.238   -105.49593    42.590687 
160084000    255.20335    403.08668    89.118704   -61178.485    61200.656    313.96798    42.589799 
160088000    275.36734    479.12014    207.61651   -61197.884    61221.789    271.50363    42.577441 
160092000    267.97647    525.62016    254.57789   -61194.457    61226.594    271.04227    42.564864 
160096000    288.12817    303.36051    206.56527   -61230.687    61234.425    96.795242    42.571175 
160100000    281.38825    504.47035    242.71777   -61248.468    61263.706    261.75258    42.583939 
160104000    244.79246    421.48346    136.63985   -61253.324    61281.827    284.84361    42.591213 
160108000    277.92879    309.72322    221.33801   -61277.918    61293.445    88.385208    42.590279 
160112000    267.59298    636.90388    833.49945   -61276.069    61304.084   -196.59557    42.593868 
160116000    281.24082    340.92924    330.34892   -61300.458    61317.752    10.580319    42.592991 
160120000    285.28669    677.72582    578.12846   -61311.515    61336.061     99.59736    42.581059 
160124000    292.52731    964.43399    275.83786   -61327.315    61342.737    688.59613    42.593511 
160128000    302.87776    624.96212    203.49639   -61320.032    61339.132    421.46573    42.600696 
160132000    275.58043    477.00338    386.38106   -61313.386    61339.437    90.622317    42.598745 
160136000    308.10282    301.61719    713.07694   -61328.315    61347.841   -411.45975    42.596831 
160140000    303.78392     386.2648    534.11259   -61343.978    61359.355    -147.8478    42.607425 
160144000    268.04632     691.1363     644.9626   -61336.028    61363.367      46.1737    42.608873 
160148000    250.82968    617.88285     441.4303   -61346.896     61374.46    176.45255     42.60967 
160152000    254.26181    532.64351    236.86172   -61347.078    61383.048    295.78179    42.620244 
160156000    295.03579    543.97696    300.78487   -61364.837    61382.514    243.19209    42.619982 
160160000    353.65856    460.63593    728.27632   -61371.258    61368.623   -267.64038    42.624183 
160164000    279.50811    679.31962    637.23338   -61377.694    61404.602    42.086249    42.634926 
160168000    268.86569    737.90115    259.66738   -61394.411    61415.924    478.23376    42.646675 
160172000    333.24533    534.48208    840.69136    -61424.82    61426.027   -306.20928    42.641289 
160176000    296.28966    754.51753    415.26271   -61405.836    61432.148    339.25482    42.627824 
160180000    291.04451    141.76774     226.7888    -61420.15    61440.004   -85.021063    42.627314 
160184000    274.62682    734.91699     935.3959   -61413.646    61440.868   -200.47891    42.631227 
160188000    308.18763    579.43024    429.60515   -61418.444    61436.037    149.82509    42.637364 
160192000    266.42768     377.4461    423.97655   -61444.283    61466.055   -46.530449    42.633361 
160196000    261.05165    853.82594    496.41508   -61456.958    61490.078    357.41086    42.627881 
160200000    308.35424    625.28761    693.80832   -61482.085    61484.572    -68.52071    42.618851 
160204000    252.82866    289.38243    378.27471    -61459.42    61497.548   -88.892283    42.603131 
160208000     306.6824    706.22912     437.4867   -61466.468    61488.201    268.74242    42.601166 
160212000    277.62169    712.36527    708.54167   -61486.612     61509.65     3.823601    42.608741 
160216000    280.81774    514.51839    477.16799   -61502.444    61525.904    37.350402    42.615151 
160220000    296.04213    350.55607    257.83762   -61519.462    61526.289    92.718452    42.622907 
160224000    270.95246    577.97964    537.74555   -61518.526    61547.058    40.234091    42.619689 
160228000    326.34389    330.81488    503.94768   -61542.188    61554.916    -173.1328    42.632233 
160232000     301.3404     807.3479    591.31892   -61567.865    61578.621    216.02898    42.618512 
160236000    298.72109    769.11284    514.91039   -61579.845    61593.933    254.20246    42.626236 
160240000    262.01372     928.6155    486.02075   -61573.355    61605.807    442.59476    42.617703 
160244000    258.39765    378.29558     271.0658   -61613.535    61625.831    107.22978    42.638768 
160248000    262.23933    174.36506      266.152     -61623.1    61653.655   -91.786943    42.637548 
160252000    285.18232    364.48137    658.51694   -61649.004    61664.806   -294.03557     42.63283 
160256000    263.99949    419.28516    201.27482   -61638.615    61669.538    218.01035    42.625857 
160260000    292.73118    555.29389    367.07933   -61649.289    61660.908    188.21456    42.634391 
160264000    330.71686    397.80091    368.38414    -61656.62    61659.825    29.416772    42.651144 
160268000    292.55252    318.95818    221.66918   -61655.778    61673.122    97.289001    42.664103 
160272000    272.72345    368.13684    84.179174   -61665.674    61688.601    283.95767    42.670473 
160276000    338.01185    636.20876    568.65958   -61703.876    61691.344    67.549181    42.673997 
160280000    300.32412    738.29161    169.17526   -61709.878    61723.981    569.11634    42.692169 
160284000    303.68849    637.43854    620.45258   -61716.556    61732.122    16.985951    42.705551 
160288000    303.84839    398.11516    203.74003   -61718.243    61736.256    194.37514    42.703024 
160292000    279.70973    305.34547    488.07337   -61725.695    61742.214   -182.72791    42.687904 
160296000    283.80415    591.26622     158.6779   -61722.006    61753.835    432.58832    42.678862 
160300000    281.84522    332.77619    580.84439    -61738.32    61753.414    -248.0682    42.673808 
160304000    260.35625     94.38056    202.75653   -61731.924    61755.621   -108.37597    42.664374 
160308000    284.18065    378.97615    763.11191   -61751.106    61764.736   -384.13576    42.666913 
160312000    279.92481    266.23208    205.67776   -61756.701    61788.459    60.554323    42.669405 
160316000     304.9777    456.27319    981.87187   -61774.782    61783.446   -525.59868    42.667933 
160320000    277.75764     420.8798    393.02408   -61766.498    61795.764    27.855726     42.66363 
160324000     305.7392     285.9045    175.38227   -61776.704    61794.773    110.52223    42.658903 
160328000    288.96171    607.68392     697.6255   -61793.166    61809.942   -89.941577    42.661562 
160332000    285.81262    493.66944     175.8934   -61798.869     61820.41    317.77605    42.647547 
160336000    300.29598    654.31562     267.8138   -61804.773    61822.922    386.50183    42.646579 
160340000    239.93907    305.13912     189.0491   -61805.532    61831.043    116.09001    42.648236 
160344000    307.38937    415.77502    371.32654   -61817.278    61828.483    44.448483    42.650763 
160348000    322.64705     575.6896    254.62516   -61818.298    61831.793    321.06444    42.656202 
160352000    284.99457    1037.6985    505.07245   -61837.895    61864.704    532.62609    42.651477 
160356000     267.0744    498.22421    392.27451   -61845.777    61875.289     105.9497     42.64328 
160360000    316.80028    655.57178    607.75851   -61858.146    61881.345     47.81327    42.635095 
160364000    252.93872    590.51288     299.1736   -61855.818     61897.72    291.33928    42.635222 
160368000    247.71305    413.92831    356.67953   -61862.988    61913.618    57.248782    42.636677 
160372000    281.24532    809.09692    546.46062   -61885.705    61898.425     262.6363    42.634304 
160376000    306.79307    632.78386    1005.4567   -61884.628    61894.916    -372.6728    42.646785 
160380000    262.48349    229.41644    416.18152   -61883.014    61907.262   -186.76508    42.655668 
160384000    299.10998    312.70897    699.17932   -61899.419    61915.096   -386.47035    42.655622 
160388000     285.2514    1011.6442    365.36907   -61905.968    61933.272    646.27508     42.66319 
160392000    305.87975    376.64462    823.55124   -61926.657    61935.597   -446.90662    42.663355 
160396000    258.80467    339.30821    529.40659   -61917.811    61946.914   -190.09838    42.659609 
160400000    277.17515    401.28436    608.22803    -61950.02    61961.291   -206.94366    42.664615 
160404000    342.88731    404.00801    470.93387   -61955.914    61961.295   -66.925853     42.67439 
160408000    291.87162    460.50757    309.69337   -61941.273    61968.371     150.8142    42.683197 
160412000    277.47246    641.54732     285.3527   -61947.136    61970.901    356.19462    42.661858 
160416000      299.759    771.00898    1182.6587   -61958.087    61975.852   -411.64972    42.665694 
160420000    252.98519    256.65685    576.56632   -61975.831    62006.086   -319.90947    42.665924 
160424000    301.03754    193.35406    377.06428   -61986.376    62011.044   -183.71022    42.660663 
160428000    282.63675    607.74453    549.44939   -61985.526    62007.108    58.295138    42.663286 
160432000    271.50125    108.96163    761.33671   -61986.813    62013.539   -652.37509    42.665338 
160436000    283.75846    183.03245    240.82373   -61984.796    61993.995   -57.791278     42.66866 
160440000    301.45103    349.79701    346.13798   -61996.497    62008.076    3.6590294    42.672346 
160444000    321.50908     452.8341    288.89269   -62002.823    62014.643    163.94141    42.668779 
160448000    303.66738    509.00609    303.17724   -62004.487    62031.504    205.82884    42.669835 
160452000    311.26611    227.14027     304.4134   -62023.837    62037.778   -77.273125    42.668243 
160456000     317.0941     179.0869    507.65173   -62038.107    62050.312   -328.56483    42.660387 
160460000    295.91738    362.68819    187.77904   -62051.908    62080.104    174.90914    42.665981 
160464000    245.74991    309.25845    475.72054   -62075.091     62094.89   -166.46209    42.663813 
160468000    296.99841    513.82552    217.77561   -62071.398    62089.405     296.0499    42.657373 
160472000    270.24495    485.14913     428.1442   -62098.118    62109.653    57.004934    42.667793 
160476000    281.87568    416.05396    1160.7211   -62095.092     62103.11   -744.66711    42.675819 
160480000    253.05396    380.30887    587.79791   -62122.848    62148.774   -207.48905    42.685434 
160484000    329.28147    619.49957    678.12217   -62158.839     62163.89   -58.622598    42.687756 
160488000    357.91748    538.24778    587.25838   -62170.347    62168.507   -49.010596    42.680495 
160492000    277.07522    295.52695    273.43865   -62173.986    62194.275      22.0883    42.675742 
160496000    297.63376    426.57273    182.83477   -62181.708    62208.585    243.73796     42.67085 
160500000    283.06378    363.02272    72.880106   -62209.535    62221.311    290.14262    42.664838 
160504000    283.77577     734.5773    260.96176   -62221.581    62236.375    473.61553    42.675082 
160508000    279.77673    668.80244    176.92285   -62218.753    62252.374    491.87958    42.694368 
160512000    321.56467    424.73636    298.71602   -62247.703    62260.163    126.02035    42.700955 
160516000     311.5869    737.76791    369.41773   -62274.707    62277.512    368.35018     42.71278 
160520000    267.98862    413.57464    174.44727    -62278.06     62312.93    239.12737    42.708741 
160524000     266.4611    460.21319    352.69896   -62304.721    62325.132    107.51423    42.706407 
160528000    321.59886    237.50076     288.2332   -62341.976    62342.835    -50.73244    42.715151 
160532000    288.63178    322.45422    390.08207   -62341.921    62365.064   -67.627846    42.733649 
160536000     290.0665    637.81244    250.88211   -62363.316    62381.977    386.93033      42.7398 
160540000    280.90063    333.28037    265.47928   -62368.375    62396.919    67.801092     42.73878 
160544000    255.65231    317.34384    535.66958   -62381.472    62409.008   -218.32574    42.744267 
160548000    256.32428    393.07938     367.1258   -62388.947    62420.646     25.95358    42.740928 
160552000    282.54755    529.27079    490.26471   -62391.723    62416.029    39.006083    42.736336 
160556000    319.33729    158.68516    207.05059   -62408.454    62427.064   -48.365427    42.736905 
160560000    294.82038    634.18584     237.9853   -62418.811    62428.933    396.20054    42.740853 
160564000    300.72245    574.19183    554.49618   -62431.552    62445.591    19.695653    42.746744 
160568000    277.98951     557.2421    280.55882   -62455.912    62467.118    276.68328    42.751207 
160572000    257.58699    196.19014    801.34748   -62450.895    62469.522   -605.15734    42.751794 
160576000    274.93675    388.06987    577.00806   -62448.088    62480.265    -188.9382    42.759067 
160580000    256.36964    161.90287    411.89532   -62455.557    62492.154   -249.99245    42.752344 
160584000    268.77167    576.60623    527.45462   -62477.832    62504.903    49.151608    42.741228 
160588000    291.98595    330.50598    338.60789   -62479.856    62510.579   -8.1019124    42.724654 
160592000    296.29168    711.18115    1291.5763   -62504.455    62508.383   -580.39512    42.727461 
160596000    261.84625      486.608    262.62681    -62490.46    62522.743    223.98118    42.716786 
160600000    274.06838    183.48745    537.92253   -62499.824    62527.379   -354.43508    42.723284 
160604000    252.09614    312.50597    290.83549   -62518.815    62540.977    21.670484    42.732408 
160608000    279.13347    217.06636    254.40493   -62533.807    62560.587   -37.338567    42.719304 
160612000    279.80257    1083.3698    316.41792   -62562.112    62590.603    766.95184     42.72486 
160616000    297.48265    548.68007     745.5047   -62571.138    62601.834   -196.82463    42.731903 
160620000    292.73348     534.3182    779.34767   -62602.966    62614.213   -245.02948    42.747847 
160624000    305.40529    274.44988    372.65827   -62607.499    62622.659   -98.208394    42.746064 
160628000     256.6269    176.78266    263.06026   -62607.163    62637.083   -86.277597    42.724921 
160632000    277.86334    705.42929    572.96643   -62628.761    62645.873    132.46286    42.724193 
160636000    285.28157    378.06275    579.58232   -62657.335    62675.737   -201.51957    42.728047 
160640000    303.89296    187.33101     347.2648    -62669.24    62675.475    -159.9338    42.724442 
160644000    332.36996    415.59022    529.61221    -62695.85    62683.752     -114.022    42.722331 
160648000    280.41242    297.17841    646.55567   -62685.154    62701.717   -349.37726    42.717806 
160652000    294.38477     487.4598    331.16403   -62709.786    62728.654    156.29577    42.716658 
160656000    310.77613    452.20289    252.77309   -62731.756    62737.397     199.4298    42.713129 
160660000     319.9685    276.49349    520.23209   -62744.338    62747.185    -243.7386    42.707889 
160664000     314.1507    396.01761    842.38478    -62750.49    62761.876   -446.36717    42.704657 
160668000    286.96698    214.82141    92.915638   -62755.076    62772.077    121.90577     42.70088 
160672000    339.39467    894.03144    627.90125    -62774.99     62785.17    266.13019    42.706925 
160676000    351.83275    479.94618    161.67737   -62798.733    62791.584    318.26881    42.711353 
160680000    305.80136    234.32402    319.87542   -62779.975    62796.723   -85.551401    42.702296 
160684000    281.16684    229.99743    585.38297   -62785.192    62793.634   -355.38554    42.688982 
160688000    293.79543    538.64065    439.42427   -62801.098    62819.253     99.21638      42.6958 
160692000    301.29621     343.0395    362.57822   -62811.005     62834.27   -19.538719    42.704709 
160696000    295.49395    999.06546    380.28506   -62837.698    62849.036     618.7804    42.710442 
160700000    323.80554    291.72718    300.64772   -62856.878    62861.958   -8.9205473    42.706401 
160704000    276.42881    561.78364    514.86783   -62847.209    62862.781    46.915808    42.699536 
160708000    252.93757    375.44956    435.41716   -62868.561    62892.793   -59.967605    42.703073 
160712000    315.03925    247.29373    792.48477   -62892.551    62903.803   -545.19104    42.692546 
160716000    290.42197    706.48848    753.67917   -62910.218    62926.823   -47.190691    42.689026 
160720000    317.12041    474.21839    404.88368   -62927.362    62938.248     69.33471    42.676677 
160724000    328.89179    486.95102    466.97131    -62959.79    62952.002    19.979712    42.669451 
160728000    298.17127    309.26236    663.23257   -62957.825    62977.804    -353.9702     42.66605 
160732000    289.68705    1937.6479     256.7502   -62969.281     62982.17    1680.8977    42.664935 
160736000    262.41285    315.05448    327.14454   -62979.152    63009.311   -12.090062    42.682961 
160740000    254.05438    622.95511    132.97082   -62999.385    63027.913    489.98429    42.696559 
160744000    317.01967    274.81159    1002.4235   -63013.512    63029.616   -727.61193    42.688107 
160748000    267.14486    469.30331     365.1488   -63015.664    63031.314    104.15451    42.684985 
160752000     268.4479    105.72199     516.7653    -63014.36    63041.576   -411.04331    42.690069 
160756000    305.02112    478.03104     511.2355   -63026.435    63051.907   -33.204459    42.681065 
160760000    284.19851    602.86834    317.90359   -63045.223    63069.354    284.96475    42.684721 
160764000    287.68379    339.01623    252.52989   -63045.629    63071.438    86.486344    42.698645 
160768000    270.72249     151.9045    476.66977   -63057.687    63084.307   -324.76527    42.704692 
160772000    297.34989    556.32941    186.53784   -63083.395    63098.935    369.79157    42.701874 
160776000    322.56305     636.0002    437.55625   -63086.671    63109.492    198.44395    42.705596 
160780000    243.97155    349.41899    448.44702   -63075.359    63114.326    -99.02803    42.704505 
160784000    299.57436    108.48184    427.09421   -63091.726    63104.324   -318.61237    42.690023 
160788000    264.25374    557.64258    210.07985   -63090.862    63125.113    347.56273    42.687959 
160792000    279.00265    483.26242    800.76034   -63108.376    63128.604   -317.49793    42.669874 
160796000    267.55761    396.47412    271.37637   -63126.269    63152.419    125.09775    42.674554 
160800000     255.2542    312.18866    908.20636   -63134.302    63162.039    -596.0177    42.676489 
160804000    296.75742    373.00339    365.33345   -63149.372    63168.898    7.6699393     42.67414 
160808000    249.37426      278.768    531.24926   -63146.222    63174.971   -252.48125    42.674644 
160812000    317.35851    626.08348     553.3937   -63164.414    63170.336    72.689783    42.680718 
160816000    258.80212    411.61409    351.93152    -63173.38    63196.519    59.682574    42.676216 
160820000    288.14485    189.53409    690.65389    -63191.39    63200.604   -501.11979    42.668673 
160824000    285.64163    124.10087    430.20719   -63183.934    63205.016   -306.10632     42.65756 
160828000      304.713    615.22543    248.07214    -63207.17    63218.644    367.15329    42.660913 
160832000    295.57504    532.12046    535.24521   -63209.799    63223.834   -3.1247497    42.667005 
160836000    268.35261    1120.2055     282.2507    -63217.33    63241.379    837.95478    42.662836 
160840000    270.19935    434.99961    552.87802   -63217.775    63250.445   -117.87842    42.666753 
160844000    258.73712    229.72698    428.40498   -63232.149    63262.605     -198.678    42.663397 
160848000    289.46612     89.73212    558.09056   -63248.742    63263.718   -468.35844    42.660274 
160852000    338.31685    282.83695    291.04793   -63273.482    63282.457   -8.2109821    42.651047 
160856000    278.34832    268.17513      551.413   -63268.427    63304.023   -283.23788    42.654222 
160860000    296.56248    959.39132    591.67824   -63289.567    63298.547    367.71307     42.65107 
160864000    257.96566    474.15843    455.56055   -63270.663    63305.669    18.597883    42.643422 
160868000    312.30911    116.57288    960.45036   -63284.965    63298.909   -843.87748     42.63499 
160872000    325.67799    830.16654    336.90644   -63299.415    63313.384    493.26011    42.629641 
160876000    236.98974    473.97295    103.59674   -63294.097    63333.891     370.3762    42.623102 
160880000    304.81594    424.40823    519.01629   -63329.546    63350.331   -94.608064    42.625767 
160884000    275.45657    498.57505    459.01425   -63334.085    63355.006      39.5608    42.627205 
160888000    323.47428    588.32308      459.665   -63350.163     63365.15    128.65809    42.624124 
160892000    298.32192    122.02186     303.3905    -63353.16    63364.095   -181.36864    42.625742 
160896000    304.03477    425.80845    484.64809   -63349.552    63365.959   -58.839648    42.621213 
160900000    260.52873    462.49515    348.67381   -63346.414    63372.793    113.82134    42.638047 
160904000      312.668    489.15238    417.12832    -63344.01    63358.364    72.024055    42.635261 
160908000    309.20811    381.33646    602.90199   -63359.208    63375.887   -221.56553    42.649436 
160912000     246.4191     241.1329    165.05084   -63363.735    63395.149    76.082065    42.644275 
160916000    285.27055      631.718    388.54438   -63358.091     63388.82    243.17362       42.634 
160920000    246.01053    414.74495    111.78162   -63378.718    63387.624    302.96332    42.646579 
160924000    318.58442    386.13206    399.00567   -63396.497    63416.491   -12.873608    42.649589 
160928000    252.68378    314.76702    472.30772   -63405.525    63439.876   -157.54069    42.652422 
160932000     288.9762    269.62156    538.28285   -63406.603    63424.071   -268.66129    42.652032 
160936000    293.06421    587.45346    709.38037   -63416.221    63428.062   -121.92691     42.64952 
160940000    316.27518    776.87947    918.62999   -63428.744    63440.824   -141.75052    42.644722 
160944000    296.63505    393.73522    276.83341   -63433.236     63447.08     116.9018    42.648086 
160948000    337.44606    408.20048    664.52975   -63436.853    63450.631   -256.32928    42.649487 
160952000    287.57707    476.61347    277.78785    -63449.68    63469.295    198.82563    42.644377 
160956000    266.20249    424.54972     511.0463   -63466.376    63488.401   -86.496576    42.622136 
160960000    294.55325    1065.5241    601.37675    -63490.66    63485.702    464.14735     42.61364 
160964000    237.53064    265.32382    179.11088    -63476.94    63508.821     86.21294    42.605676 
160968000    323.20644    432.89221    280.47201   -63487.939    63497.679     152.4202    42.591868 
160972000    248.03872    308.10463    233.48781   -63492.755    63526.052    74.616824    42.598131 
160976000    314.45483    672.61979    275.64103    -63533.12    63550.702    396.97877    42.606682 
160980000    277.29107    717.46653    311.49383   -63541.339    63567.411     405.9727    42.618765 
160984000    282.32123    372.82459    220.56129   -63562.077    63583.602     152.2633    42.619762 
160988000    273.63964    353.27504    730.76264   -63555.281    63591.461    -377.4876    42.614737 
160992000    310.02277    402.86178    358.24217   -63578.548    63593.413    44.619613    42.607117 
160996000     286.0227    449.66977    383.13835   -63597.273    63617.176    66.531419    42.601692 
161000000    254.81205    433.06399    457.32041    -63590.15     63620.23   -24.256414    42.601502 
161004000     250.8422    433.06179    273.82939   -63610.353    63633.774    159.23239    42.597594 
161008000    228.81565    365.64849    298.14359   -63608.711    63652.401    67.504891    42.587768 
161012000    269.17456     307.1943    358.46147   -63623.666    63646.387   -51.267172    42.588029 
161016000    275.89183    316.72691    404.89196   -63635.081    63661.671   -88.165053    42.587136 
161020000     258.6259    414.85291    715.75185   -63643.741    63668.829   -300.89894    42.569426 
161024000    287.72478    548.14098    253.36644   -63657.393    63678.975    294.77454    42.572946 
161028000    262.44451    393.94387    290.34538   -63660.606    63688.963    103.59849    42.579689 
161032000    311.88384    1043.0438    268.53495   -63680.601    63706.402    774.50884    42.598126 
161036000    244.40643    388.53543    201.56058   -63686.632     63733.98    186.97485    42.601023 
161040000    249.15037    351.80068    71.199803   -63686.188    63729.391    280.60088    42.594195 
161044000    310.77049     204.6231    515.47554   -63715.897    63737.999   -310.85243    42.585785 
161048000     227.0688    215.06857    351.60848   -63721.335    63758.189   -136.53991    42.579293 
161052000    258.29347    188.59392    399.48414   -63734.858    63765.722   -210.89022    42.580095 
161056000    276.89022    216.15482    446.55229   -63749.533     63761.41   -230.39747    42.583075 
161060000    292.64384    392.95151    373.78239   -63759.636    63782.449    19.169121    42.581572 
161064000    301.60046    377.12733    96.237943   -63792.375    63804.258    280.88938    42.576293 
161068000    308.45461    942.69185    765.71774   -63794.396    63809.905    176.97411    42.566039 
161072000    262.35514    584.84668    409.49474   -63804.534    63822.255    175.35194    42.566115 
161076000    264.93455    314.52351    448.85348   -63806.391    63843.921   -134.32997    42.558173 
161080000    284.82147    393.86728    679.75456   -63815.307    63837.536   -285.88729    42.558685 
161084000    283.76404    437.76692    409.66032   -63829.615    63855.995    28.106594    42.559772 
161088000    288.57673    323.68409    830.80248   -63835.579    63854.988   -507.11839    42.573964 
161092000    306.24782    351.07141    442.35278   -63837.969    63856.818   -91.281365    42.579434 
161096000    298.16659    195.65962    372.19129   -63848.961    63867.253   -176.53167     42.57824 
161100000    276.63189    347.25531     626.9538   -63855.093    63875.671    -279.6985    42.567331 
161104000    320.02404    680.84914     870.0143   -63864.107    63880.387   -189.16517    42.557114 
161108000    257.78324    146.35044    606.36921   -63877.463    63903.647   -460.01877    42.558768 
161112000    269.44093    576.64273    314.85959   -63877.358    63905.119    261.78314    42.556324 
161116000    271.08606    375.98533    164.96697   -63890.677    63897.619    211.01836    42.561668 
161120000    309.85482    659.34035    292.42956   -63898.358    63905.578    366.91079    42.576977 
161124000    309.20065    733.71827    510.35797   -63893.635    63912.196     223.3603    42.568909 
161128000    308.88967    420.79269    770.72229   -63923.787    63936.896    -349.9296    42.554575 
161132000    314.85588    648.53315    505.64705   -63947.311    63957.822     142.8861    42.558928 
161136000    317.34853    332.44833    746.63278     -63967.5    63977.889   -414.18445    42.545265 
161140000    269.25802    305.26239    301.54903   -63967.749     63982.34    3.7133557    42.540926 
161144000    315.49871    656.07682    290.60275   -63947.605    63969.346    365.47407    42.554686 
161148000    275.38486     644.0117    429.26296   -63955.886    63973.074    214.74874    42.554087 
161152000    277.69412    463.66512    378.44628   -63972.451    63987.784    85.218842    42.561352 
161156000    247.84951    202.39605    197.11802   -63967.386     63991.79    5.2780296    42.564784 
161160000    265.03184     415.8785    204.00606   -63967.059    63993.157    211.87244    42.575016 
161164000    289.90368     490.2902    198.36914   -63983.356    63998.933    291.92106    42.574457 
161168000    348.77444    412.66187    734.60813    -64009.88    64016.108   -321.94626    42.582657 
161172000    263.23487    940.40095    234.45797   -64000.182    64029.714    705.94297    42.588308 
161176000    284.62419    548.48757    692.00171    -64027.15    64045.028   -143.51415    42.588934 
161180000    251.11816    383.04653    276.23577   -64041.897    64064.469    106.81076    42.597771 
161184000    280.93051    614.92933    279.10841   -64042.322    64071.912    335.82092    42.599485 
161188000     306.4384     344.3321    696.41425   -64056.938      64078.9   -352.08214    42.592609 
161192000     279.7293    265.37224    231.47667   -64063.575    64095.263    33.895563    42.585335 
161196000    299.47772    464.50502    162.31259   -64085.836    64097.393    302.19244    42.570174 
161200000    311.68828    349.80849    217.34627    -64087.52    64104.273    132.46223    42.569763 
161204000    225.41468    509.98224    351.73332   -64093.589    64124.636    158.24892    42.575181 
161208000     272.3916    402.33094     141.2954   -64100.392    64133.873    261.03554    42.591269 
161212000    289.72122    317.96914    263.11203   -64106.077    64107.737    54.857111     42.57692 
161216000    273.78075    853.44214    451.63788   -64091.817    64121.324    401.80426    42.579915 
161220000    304.07756    285.40953    836.38438   -64104.381    64129.272   -550.97485    42.567381 
161224000    259.43541    386.22784    273.35785   -64130.534    64162.128    112.86999    42.561749 
161228000    296.60623    792.16341     177.3205   -64141.546    64167.806    614.84291    42.550899 
161232000    245.11827    193.65462    247.59128   -64153.138    64184.817   -53.936661    42.549364 
161236000    279.60936    378.34979    512.51124   -64167.808    64178.721   -134.16145     42.53456 
161240000    281.46919    559.05544    219.98635   -64192.842    64193.728    339.06909    42.520043 
161244000    304.30226    184.65211    647.29254   -64202.996    64216.996   -462.64043    42.519414 
161248000    265.57432    314.08988    407.97856   -64205.581    64241.888   -93.888681    42.517278 
161252000    282.00003    410.50518    181.56224   -64224.001    64247.316    228.94295     42.52291 
161256000    280.96585     949.0157    279.56248    -64227.74    64247.869    669.45322    42.539626 
161260000    250.95216    666.33728    190.04825   -64235.902    64278.146    476.28902    42.544286 
161264000    261.67922    474.33463    547.23403   -64265.204    64273.113   -72.899397    42.538554 
161268000    311.71286     534.3379    594.74917   -64271.314    64284.781   -60.411271    42.544788 
161272000    321.30075    580.54356    980.90544   -64289.893     64298.72   -400.36188    42.538101 
161276000    320.10544    725.70025    522.84012    -64317.64    64328.269    202.86013    42.545951 
161280000    289.60894    763.95011    580.12232   -64331.342    64344.888    183.82779    42.549461 
161284000    306.86314    694.25001    872.45433   -64332.012    64345.113   -178.20433    42.533519 
161288000    264.77427    531.43822    242.61295   -64338.095    64373.379    288.82527    42.533728 
161292000     312.7101    527.91133    752.48203   -64362.419    64374.494   -224.57069     42.52603 
161296000    314.22097    667.83411    198.02239   -64362.972    64374.388    469.81172    42.534799 
161300000     281.9349    477.89649    264.56989   -64360.013    64379.325     213.3266    42.538367 
161304000    255.99854    392.92685    207.97339   -64363.418    64397.908    184.95346    42.533938 
161308000    266.05689    432.14348    334.44468    -64392.95    64424.898    97.698804     42.53132 
161312000    232.55056    325.12489    480.30152   -64391.424    64428.568   -155.17663    42.532929 
161316000    270.54551    326.95038    674.21539   -64402.076    64426.444   -347.26501    42.531659 
161320000    295.76286     630.4772    214.71333   -64416.141    64435.728    415.76387    42.539011 
161324000    374.13444    344.50633    443.87268   -64438.445    64430.369    -99.36635    42.544332 
161328000    308.60464    552.61039    612.07581   -64425.594    64445.374   -59.465422    42.546837 
161332000    302.45734    592.66255    808.89526   -64436.892    64439.406   -216.23272     42.55851 
161336000    252.91004      660.618    300.95967   -64440.327    64467.554    359.65833    42.567964 
161340000    262.34045     186.4329    379.38363   -64456.157    64471.763   -192.95073    42.552235 
161344000    259.54313    520.90402    148.08095   -64459.361    64493.103    372.82307    42.551835 
161348000     288.5325    379.04881    616.87012    -64476.28     64495.34   -237.82131    42.543808 
161352000     262.6562    610.27119    273.19878   -64481.467    64515.266     337.0724    42.528232 
161356000    312.13499    434.92301     319.8552   -64505.759    64519.125    115.06782    42.544264 
161360000    308.92407    447.24177    365.36962   -64518.319    64532.783    81.872153    42.545903 
161364000    277.35498    348.06067    826.42136   -64539.764    64553.975   -478.36069    42.542627 
161368000    325.46381    390.39019    303.32838   -64532.706    64550.921    87.061813    42.543137 
161372000    243.30855    429.85322    210.65746   -64539.955    64561.383    219.19576    42.538989 
161376000    292.69169    281.59611    361.34853   -64551.846    64575.102   -79.752412    42.547269 
161380000    305.39864    243.92798    380.67387   -64548.837    64558.606   -136.74589    42.550834 
161384000     290.5269     233.0146    349.63254   -64555.666    64578.495   -116.61794    42.551394 
161388000    301.85724    736.24291    315.12237   -64566.162    64591.201    421.12054    42.553515 
161392000    290.32124    1013.9157    522.18125   -64571.962     64591.48    491.73441    42.565273 
161396000     280.0216    477.06602    157.18823   -64594.105    64627.686    319.87779    42.571313 
161400000    246.70952    337.41276    74.346548   -64615.835    64650.265    263.06621     42.57253 
161404000    327.28869    1250.1992    435.04195   -64641.016    64662.185    815.15722    42.583009 
161408000    294.55001    938.15946    655.01874   -64655.643    64675.517    283.14072    42.589821 
161412000    279.64568    171.15813    391.97745   -64655.084    64685.019   -220.81932    42.601459 
161416000    320.11917    872.65343      280.483   -64678.543    64690.449    592.17043    42.601523 
161420000    244.77708    448.85309    1142.8645   -64677.526    64708.635   -694.01144    42.593263 
161424000    271.51849    472.35157    662.70662   -64692.422    64713.811   -190.35506    42.581246 
161428000     287.7604    721.64112    399.69245   -64711.059    64740.702    321.94867    42.575161 
161432000     290.4377    440.05461     361.4256   -64725.925    64734.562    78.629008    42.569646 
161436000    290.92185    328.60181    710.56804   -64724.981    64751.055   -381.96622    42.560343 
161440000    250.45651    199.25858    285.02628   -64742.435    64771.117   -85.767698    42.558939 
161444000     311.8066    735.42489    317.52951   -64764.727    64764.717    417.89538    42.551044 
161448000    270.52178    382.71017    317.88605   -64778.317    64791.022    64.824119    42.550714 
161452000     300.8264    380.34838    339.92811   -64787.888    64793.976    40.420263    42.558323 
161456000    278.71459     169.1561    428.58473   -64779.513    64813.087   -259.42863    42.567837 
161460000    269.40291    656.37958    460.79147   -64775.194    64801.128    195.58811    42.563859 
161464000     276.7872    320.98831     202.7209    -64790.04    64823.549    118.26741    42.557291 
161468000    282.30868    665.14322    295.46224   -64812.221     64826.33    369.68098    42.549645 
161472000    280.67855    148.35269     627.4368   -64807.752    64827.001   -479.08412     42.55531 
161476000    267.36525    738.27079    120.35589   -64831.472    64846.401     617.9149    42.549976 
161480000     301.1159    246.84286    1130.2842   -64845.641    64859.185    -883.4413    42.526358 
161484000    267.91227    350.90583    315.58878    -64865.12    64874.409    35.317045     42.52706 
161488000    283.46794    115.68033    237.78262   -64871.295    64896.587   -122.10228    42.533067 
161492000    276.89019    728.62574    180.35093   -64887.203    64905.978    548.27481    42.535811 
161496000     260.5487    322.28813    801.38991   -64888.065    64918.135   -479.10178    42.533054 
161500000    265.45824    229.45127    801.44035   -64920.177    64943.112   -571.98908    42.521701 
161504000     287.3342    257.93183    756.37003   -64941.576     64967.82    -498.4382    42.513869 
161508000    297.15858    900.89182    562.89411   -64946.044    64959.182    337.99771    42.516445 
161512000    320.80854    559.51042    405.05187    -64958.02    64971.189    154.45855    42.502156 
161516000     285.9671    251.23564    389.64257   -64974.578    65003.472   -138.40692    42.490724 
161520000      280.564    117.49237    872.98412   -65008.004    65029.024   -755.49174    42.481544 
161524000    227.17183    215.91479    183.00701   -65009.788    65049.923    32.907776    42.484875 
161528000    269.37228    623.57539    319.59441   -65047.572    65063.889    303.98098    42.494399 
161532000    260.59152    505.96322    281.87675   -65051.256    65087.268    224.08648    42.476277 
161536000    282.98803    341.33916    144.27513   -65055.185    65073.976    197.06403    42.481796 
161540000    248.99042    310.21094    403.69242   -65037.956    65076.612   -93.481482    42.481421 
161544000    259.74468    805.00023    477.64049   -65058.145    65086.928    327.35974    42.494949 
161548000    261.06984    191.03895    541.63926   -65069.667    65088.931   -350.60031    42.495051 
161552000    279.96064    338.55416    593.84297   -65068.408    65096.656   -255.28882    42.490193 
161556000    214.85486    265.50617    138.28632   -65068.913    65109.531    127.21985    42.492631 
161560000    298.11497    677.79078    220.37651   -65083.069    65097.898    457.41427    42.483108 
161564000    294.79795    516.37451    365.19191    -65093.07    65110.267     151.1826    42.490231 
161568000    278.97785    581.64296    439.29778   -65105.005     65127.96    142.34518    42.489156 
161572000    264.96231    336.94514    213.18935   -65113.363    65148.517    123.75578    42.474356 
161576000    234.82278    165.39915    385.04454    -65114.94    65162.578   -219.64539    42.477938 
161580000    245.05465    204.20391    330.93003   -65140.531    65186.762   -126.72611    42.464479 
161584000    258.61233    41.331893    177.98111   -65171.063     65196.99   -136.64922    42.455046 
161588000    292.11441     683.1781     493.7261   -65184.553    65204.244      189.452    42.458581 
161592000    309.30765    356.66719    227.68012   -65182.174    65200.385    128.98707    42.472469 
161596000    265.97362     294.9229    753.20753   -65184.229    65214.619   -458.28463    42.471025 
161600000    292.24045    476.46367    825.54369   -65190.224    65216.104   -349.08002    42.458737 
161604000    278.12921    536.36958     981.8566    -65186.53    65211.026   -445.48702    42.451473 
161608000    242.98826    283.25788    277.00189   -65206.383    65230.969    6.2559909    42.443661 
161612000     271.5342    453.54611     194.9291   -65224.061    65247.735    258.61701    42.435008 
161616000    255.89663    1202.9545    321.96611   -65242.766    65266.843    880.98839    42.427029 
161620000     271.0167     285.0513    255.08753   -65239.554    65266.504     29.96377    42.421946 
161624000    296.56807    439.48159    291.88912   -65248.468    65258.551    147.59246    42.419081 
161628000    290.15332    490.02232    292.62826   -65236.975    65271.662    197.39406    42.420786 
161632000    259.44761     215.9386    211.84749   -65254.581    65285.751    4.0911093    42.430879 
161636000     317.1018    992.66534    393.31536   -65297.483    65308.396    599.34998    42.437007 
161640000    308.62553    635.28608     273.9488   -65307.728    65319.031    361.33728    42.425445 
161644000    271.61816    270.22768    902.55802   -65289.063    65314.041   -632.33034    42.424555 
161648000    308.98076    600.36592    366.63842   -65294.313    65315.741     233.7275     42.41441 
161652000    252.06242    331.59691    709.73096    -65288.44    65320.158   -378.13406    42.440632 
161656000    286.72771    571.87322    379.42869   -65298.142    65320.982    192.44453    42.433539 
161660000    298.27049    136.45633    436.07709   -65303.003    65327.651   -299.62077    42.439385 
161664000    297.44005    182.40128    234.45366   -65311.953    65316.218   -52.052383    42.441419 
161668000    281.67203    824.29013    465.65475   -65315.337    65345.295    358.63538    42.436364 
161672000    274.73559    467.64826       716.43   -65326.267    65354.622   -248.78174    42.430614 
161676000    262.63707    232.18629    369.09206   -65331.542    65363.715   -136.90577    42.413576 
161680000    264.32035    253.86001    444.21113   -65348.196    65375.758   -190.35112    42.404888 
161684000    287.88349    397.44198     660.0068   -65357.097    65387.217   -262.56481     42.39866 
161688000    304.07267    124.27527    291.97147   -65382.334    65398.389    -167.6962    42.379631 
161692000    326.70511    407.27437    518.98177   -65396.326    65411.227    -111.7074     42.38439 
161696000    277.14746    255.64105    822.30411   -65416.297    65432.509   -566.66305    42.384082 
161700000    306.66156    427.49476    384.33958   -65442.156    65458.515     43.15518    42.375505 
161704000    306.59533    676.81209    438.57618   -65451.661    65476.031    238.23591      42.3837 
161708000    309.78108    336.26086    431.53075   -65485.896    65498.474   -95.269888    42.381183 
161712000    275.52085    427.13923    264.33858   -65473.525    65510.435    162.80065    42.390089 
161716000    321.91272    569.76254    467.73079     -65486.3    65489.709    102.03175    42.386788 
161720000    312.24612    795.17453    309.03941   -65488.388    65501.924    486.13512    42.396724 
161724000    264.08163    652.67567     149.1445   -65508.666     65535.73    503.53117    42.405657 
161728000    277.32062    200.31382    483.95014   -65522.979    65539.307   -283.63632    42.399791 
161732000    278.01326    655.40436     973.0646   -65539.244    65562.322   -317.66025    42.391825 
161736000    257.11492    575.23675    621.68896   -65553.411    65576.558   -46.452208     42.39503 
161740000    266.78006    408.73855    606.40013   -65576.486    65597.763   -197.66158     42.39964 
161744000    264.05328    186.68484    297.19285   -65585.756     65625.37   -110.50801     42.39324 
161748000    257.24592    212.55963      441.749   -65599.958    65625.585   -229.18937     42.40004 
161752000    240.11512    556.61754    366.44859   -65598.726    65628.965    190.16894    42.404463 
161756000    262.65377    342.97133    350.56222    -65612.97    65630.679   -7.5908904     42.41887 
161760000    286.75154    798.57107    475.46611   -65620.584    65636.338    323.10496    42.423339 
161764000    251.81669    293.05587    337.52654   -65639.718    65669.572   -44.470673    42.416001 
161768000    293.97695    561.08907    314.53042   -65650.237    65672.437    246.55866    42.411616 
161772000    284.23127    313.18892    419.85706   -65656.786    65680.765   -106.66815    42.413868 
161776000    304.17515    355.40868    392.69454   -65651.539    65672.246    -37.28586    42.417128 
161780000    283.02438    584.59086    399.31739   -65657.288    65684.253    185.27347    42.419882 
161784000    277.86042    232.32787    470.01568   -65668.607    65688.462   -237.68781    42.415916 
161788000     304.0468    403.32739    222.28044   -65682.599    65702.958    181.04695    42.414556 
161792000    291.54381    666.62872    432.64795   -65684.003    65706.533    233.98077    42.405528 
161796000    276.74828    214.01698    338.95611   -65682.072     65712.45   -124.93914    42.410532 
161800000    284.61641     572.0758    335.40362   -65678.715    65709.188    236.67218    42.401703 
161804000    276.78435    624.74873    407.82599   -65697.653    65725.265    216.92273    42.413245 
161808000    279.87314    933.83889    47.165185    -65704.03    65727.991     886.6737    42.422591 
161812000    288.23641    305.44131    417.72042   -65721.998    65757.666   -112.27911     42.41732 
161816000    253.90477    63.259915     435.7342   -65748.918    65779.363   -372.47428    42.424423 
161820000    289.66644    406.08372    268.05139   -65770.273    65789.604    138.03233    42.434557 
161824000    266.00949    224.44964    487.27914   -65785.098    65818.126    -262.8295    42.435373 
161828000    277.88207    402.26247    184.87998   -65795.159    65827.401    217.38249    42.443244 
161832000    283.47297    555.15891     507.3835   -65819.656    65833.974    47.775407    42.433708 
161836000    255.10038    334.19368    758.47675   -65839.725    65866.687   -424.28307    42.432502 
161840000     287.5642    309.08365    442.32456   -65840.542     65866.98   -133.24092    42.424225 
161844000    326.77554    224.19916    1008.9002   -65849.457    65860.024   -784.70107    42.422595 
161848000    289.03829    625.59101    300.78253   -65864.797    65887.927    324.80849    42.432128 
161852000    280.00635    433.99914    528.10468   -65867.014     65895.81   -94.105547    42.431829 
161856000    289.18006    531.43135    563.06667   -65876.175    65898.479   -31.635325       42.435 
161860000    285.11893    619.92742    342.89805    -65883.34    65909.677    277.02936    42.433749 
161864000    262.29722    239.30931    330.41862   -65889.548    65913.968   -91.109311    42.438248 
161868000    323.31838    773.37669    701.16471   -65921.907    65923.771    72.211971    42.438369 
161872000    303.30299    157.04684    430.42269   -65930.724    65948.425   -273.37585    42.436931 
161876000    286.04993    402.55935    702.09612   -65954.623    65980.671   -299.53676    42.433992 
161880000    265.14126    494.62868    723.04173   -65954.597     65988.79   -228.41306    42.429908 
161884000    228.81671    525.14482    542.44668   -65972.846    66017.541   -17.301859    42.425674 
161888000    274.65054    619.12031    419.41511   -65997.424    66021.309     199.7052    42.428076 
161892000    258.10323    306.77379    219.62052   -65992.945    66024.606    87.153274    42.434356 
161896000    311.47875    73.913433    380.23387   -66008.075    66023.813   -306.32044    42.432806 
161900000    295.70439    501.13054    337.60292   -66018.821    66030.263    163.52762    42.429497 
161904000    289.14694    497.42566    305.97279   -66010.971    66028.338    191.45287    42.432343 
161908000    235.70886    298.80809    205.92416   -66014.313     66049.72     92.88393    42.434459 
161912000    315.01341     387.7686    538.30521   -66031.001    66064.539   -150.53661    42.424744 
161916000    278.93628    631.91292    176.96025   -66041.049    66059.978    454.95267    42.426093 
161920000    274.56841    315.29651    827.46935   -66042.751    66058.231   -512.17284    42.433282 
161924000    261.39996    414.06482     319.8715   -66039.533    66074.053    94.193321    42.433528 
161928000    299.26746    406.10707     601.1299   -66061.874    66075.549   -195.02283    42.433068 
161932000    318.31505     430.7352    138.68286   -66082.344    66090.167    292.05234    42.448836 
161936000    300.98893    453.18975    706.41374   -66111.398    66114.655     -253.224    42.449424 
161940000    273.75356    542.03417     455.5171   -66110.787    66122.124    86.517073    42.445808 
161944000    293.67662     666.4914    583.99638   -66128.752    66142.373    82.495016    42.440589 
161948000    310.22322     451.1561    308.37457   -66138.023    66137.797    142.78153    42.442115 
161952000    290.74214    524.46545    427.01589   -66139.205    66154.356     97.44956    42.455987 
161956000    328.90221    530.58694    267.29288   -66160.519    66165.826    263.29407    42.473087 
161960000    302.35154    1124.4396    774.04981   -66187.366    66193.017    350.38981    42.473258 
161964000    310.07964    681.40355    314.87801   -66222.347    66237.482    366.52554    42.466698 
161968000     271.2347    332.64195    424.89186   -66235.198    66250.242   -92.249913    42.464723 
161972000    346.09026    857.55319    111.69812   -66248.601    66255.443    745.85507    42.466618 
161976000    262.53136    748.92451    240.32977   -66238.836    66263.974    508.59474    42.464592 
161980000    287.99887    398.60316    708.06347   -66234.278    66258.277   -309.46031    42.463864 
161984000    311.36422    263.62169    146.27526   -66259.786    66268.787    117.34643    42.470906 
161988000    288.38559    473.70153    264.42016   -66266.925    66290.237    209.28136    42.477808 
161992000    283.69124    400.27282    181.24421     -66280.1     66297.65    219.02862    42.498883 
161996000    335.50307    302.21205     513.0316   -66288.737    66292.014   -210.81955    42.494514 
162000000    294.03816    476.51023    537.18543   -66303.781    66316.302   -60.675198    42.504737 
162004000    279.85822     420.7459    668.86343   -66315.328    66340.383   -248.11753    42.492873 
162008000    263.77507    312.90281    173.88917    -66320.35    66350.433    139.01364    42.494459 
162012000    247.50468    451.12894    392.03217   -66320.817    66352.132    59.096776    42.488734 
162016000    299.53307      771.673    603.72817   -66332.671    66342.188    167.94483    42.490158 
162020000    256.31026    269.65057    592.23492   -66331.645    66372.122   -322.58435    42.497372 
162024000    270.03969    435.21068    433.90235   -66354.594    66380.081    1.3083251    42.496003 
162028000    289.23596    560.12386    497.22315   -66368.923    66380.745    62.900711    42.492687 
162032000    311.83667    511.27076    422.30097   -66391.578    66404.743    88.969789    42.504023 
162036000    296.56849    481.42534    307.47829   -66399.989    66431.478    173.94705    42.503957 
162040000    262.35785    339.17671    268.74097   -66434.545    66456.683    70.435739    42.501033 
162044000    235.80749    153.90588    303.80826    -66427.88    66456.737   -149.90239    42.493393 
162048000    265.07986    200.95227    642.75288    -66440.31    66468.091    -441.8006    42.482365 
162052000    237.51544     508.3501    260.94538   -66449.262     66495.51    247.40473     42.48192 
162056000    283.21033    178.00428    434.36212   -66471.225    66495.934   -256.35785    42.483453 
162060000    276.99401    386.47548    432.20876   -66483.564    66493.077   -45.733284    42.482266 
162064000    309.52147    990.05091    633.64387   -66507.404    66520.447    356.40704     42.48394 
162068000    300.29673    359.19111    699.64745   -66510.633    66529.035   -340.45634    42.481194 
162072000    296.97965    388.12349    501.23159   -66520.762    66537.313   -113.10811    42.471129 
162076000    293.99467    463.44643    373.63446    -66555.22    66570.879    89.811964    42.474685 
162080000    290.18674     517.5378    704.00631   -66570.799    66597.085   -186.46851    42.482915 
162084000    272.71983    201.90529    130.45923   -66582.728    66612.224    71.446064     42.48887 
162088000    264.64719    486.54918    376.06348   -66596.212    66624.719     110.4857    42.486194 
162092000    294.15809    226.05967    493.77589   -66608.596    66621.628   -267.71622    42.486034 
162096000    262.91499    360.17141    559.65066   -66621.559    66650.744   -199.47925    42.481733 
162100000    287.20945    261.84544    463.44782   -66635.334    66654.806   -201.60238    42.487406 
162104000    272.89191    400.41623    421.34753   -66660.069    66678.531   -20.931303    42.486936 
162108000    301.92531    624.38832    637.38533   -66669.408    66696.603   -12.997013    42.498379 
162112000    248.88208    408.48039    803.50438   -66676.347    66697.951   -395.02399    42.494763 
162116000    270.11481    469.32891     315.1912    -66677.96    66710.682    154.13771     42.48975 
162120000    258.36778    498.19994    319.82023   -66693.094    66727.118    178.37971    42.498217 
162124000    249.56867     612.5875    230.19899   -66713.896     66737.26    382.38851     42.49602 
162128000    275.58917    1084.6931    408.25022   -66701.929    66727.226    676.44285    42.506442 
162132000    297.50616    412.60056    418.56494   -66725.984    66738.177   -5.9643858    42.498394 
162136000    256.26898    337.66967    739.28088   -66752.808    66763.472    -401.6112    42.501144 
162140000    303.01383    468.99437    249.02688   -66767.719    66769.867    219.96749    42.499183 
162144000    274.07209    394.48371    476.51655   -66761.982    66780.683   -82.032836    42.499826 
162148000    262.42835    536.02356     267.3191   -66772.787     66799.45    268.70447    42.506888 
162152000    284.46657      732.893    135.06448   -66803.662    66828.905    597.82852    42.510787 
162156000    279.23086    468.11778    568.87983   -66824.949    66848.377   -100.76205    42.507895 
162160000    286.79584     843.7744    212.97096   -66836.685    66863.944    630.80344    42.519445 
162164000    264.73738    738.61407    298.54156   -66819.807    66857.705    440.07251    42.513891 
162168000    266.81529     528.7499    393.20779   -66820.648    66844.367    135.54211    42.510197 
162172000    284.05869    331.15593     341.6057   -66845.539    66865.422   -10.449768    42.515411 
162176000    286.10228    459.62517    305.61337    -66845.97     66872.57     154.0118     42.51781 
162180000    289.33419    250.57822    579.36112   -66866.621     66891.53    -328.7829    42.522054 
162184000    287.06898     588.8763    693.50019   -66867.152    66888.643   -104.62389     42.52784 
162188000    260.74121    252.02377    243.75603   -66888.662    66899.948    8.2677404    42.522493 
162192000    280.69188    794.38336    638.95136   -66892.662    66917.756      155.432    42.523482 
162196000    267.51545    335.99016    53.961702   -66914.759    66946.024    282.02846    42.529003 
162200000    273.99194    713.37415    623.45631   -66934.045    66955.289    89.917841    42.515863 
162204000    284.18284    709.93484    142.46246   -66940.117    66963.118    567.47238    42.515538 
162208000    273.04148    431.69736    236.42587   -66930.381     66963.12    195.27149    42.530704 
162212000    297.87436    473.01606    464.84436    -66966.68    66976.099    8.1717022    42.522515 
162216000    292.61307    337.37311    1030.7241   -66967.882    66989.165   -693.35096    42.527764 
162220000    285.33092    546.33572    769.56751   -66984.254    66998.141   -223.23179    42.527516 
162224000    298.46688    315.42759    875.90626   -66989.923    67004.836   -560.47867     42.52134 
162228000    271.90664    539.51959    370.85035   -67003.896    67021.775    168.66923    42.518061 
162232000      293.683    565.17392    468.03454    -67006.58    67030.316     97.13938    42.510976 
162236000    307.66221    665.92509    683.76468   -67020.871    67039.319    -17.83959    42.500906 
162240000    276.04684    197.51819    658.61565   -67030.822    67048.811   -461.09746    42.502502 
162244000    223.64391    260.91088    228.38029   -67035.696     67075.45    32.530595    42.500865 
162248000    275.49024     458.2397    376.09649    -67057.76    67081.655    82.143213    42.502044 
162252000    284.80386    908.67007    1040.6977    -67082.25    67113.497   -132.02767    42.502797 
162256000    266.62835    323.04647    250.14511   -67096.836    67119.046    72.901362    42.506658 
162260000    254.36388    298.83679    429.92306   -67094.027    67126.296   -131.08626    42.499847 
162264000    310.88607    535.25621     258.5622    -67113.83    67129.916    276.69402    42.498356 
162268000     253.9833    375.51179    146.45128   -67105.719    67135.679    229.06051    42.505852 
162272000    337.36946    557.25478    528.47278   -67142.295    67144.991       28.782    42.518522 
162276000     322.0798    840.45367    203.50196   -67152.498     67160.96    636.95171     42.51915 
162280000    275.36867     507.0867    375.42532   -67140.293    67168.982    131.66138    42.535687 
162284000    313.94455    129.23876    397.95593   -67164.676    67177.384   -268.71717    42.538295 
162288000    269.01185     475.1364    259.66415   -67164.191    67185.085    215.47224    42.538791 
162292000    272.10755    1050.9953    196.09426   -67178.149    67202.731    854.90102    42.538043 
162296000    288.63965    469.67569     723.3259   -67191.892    67205.495    -253.6502    42.540082 
162300000    294.52149    360.19214    307.14355   -67197.565    67204.054    53.048597    42.543654 
162304000    269.91735    567.11118    406.24767    -67205.75    67222.881    160.86351    42.538678 
162308000    269.85276    241.46413    651.62782   -67214.375    67232.324   -410.16369    42.542664 
162312000    304.22501    560.06269      253.337   -67216.986    67231.959    306.72569    42.542974 
162316000    290.18388    592.40172    569.86885   -67220.438    67220.802    22.532868    42.531289 
162320000    290.71148    1064.8765    857.81195   -67234.848    67244.647    207.06456    42.530855 
162324000    290.87147    300.80386    614.72573   -67240.683    67253.621   -313.92187    42.513716 
162328000    284.22741    381.27915    330.38371   -67245.403    67267.608    50.895439    42.508756 
162332000    293.30759    850.28544    846.66773   -67255.404    67263.543    3.6177075    42.505656 
162336000    304.59186    379.08594    443.31999   -67254.175    67277.765   -64.234053    42.504511 
162340000    324.60311    306.73456     379.5062   -67257.178    67270.594   -72.771643    42.503231 
162344000    297.25197    388.74825     144.7278   -67261.382    67276.862    244.02045     42.49638 
162348000    296.10425    411.54054    256.14714   -67255.619    67280.523    155.39339     42.51728 
162352000    303.71508     363.8979     209.3792   -67258.268    67280.637     154.5187    42.520191 
162356000    256.20527    491.42539     536.8721   -67250.378    67292.385    -45.44671    42.522522 
162360000    273.80909    445.30883    533.66448   -67261.075    67292.911   -88.355649    42.526708 
162364000    292.49513    315.90936    297.05765   -67275.328    67295.095    18.851716    42.520315 
162368000    275.44877     239.9752     469.6238   -67278.568    67304.124    -229.6486    42.520928 
162372000    274.50543    403.00716    336.85966   -67289.175    67309.537    66.147498    42.521633 
162376000    228.65808    275.94385     196.2851   -67280.885    67333.558    79.658746    42.514413 
162380000    286.21531    738.65401    531.28518   -67315.195    67338.612    207.36883    42.518222 
162384000    340.43708    470.14465    585.96151   -67325.784      67314.8   -115.81686    42.515876 
162388000    291.37135    286.58106    562.85386   -67312.234    67334.711    -276.2728    42.509478 
162392000    290.33141    232.45482    150.15995    -67328.49    67354.333    82.294864    42.503475 
162396000    265.03877    380.53823    585.14108   -67339.793    67361.876   -204.60285    42.493619 
162400000    294.22439    506.26713    677.75634   -67354.505    67377.141   -171.48921    42.504529 
162404000     280.0988    658.56718    475.13346   -67356.619    67389.088    183.43372    42.512828 
162408000    280.11215    438.55198    146.33539   -67383.112    67389.651    292.21659    42.513747 
162412000    308.93794    188.80137    611.43238   -67380.097    67386.105   -422.63101    42.502907 
162416000    298.55068    508.63835    405.84908   -67404.128    67407.126    102.78927    42.509725 
162420000    249.78881    897.99288    368.31535   -67384.049    67416.907    529.67753    42.500643 
162424000     291.9533    320.09985    359.75706   -67416.211    67432.963   -39.657207    42.505637 
162428000    256.92183    412.20383    409.32644   -67440.038    67464.576    2.8773916    42.503835 
162432000    306.64829    347.37273      378.359   -67449.382    67459.206   -30.986266    42.511684 
162436000    276.96264    268.71647     216.0814   -67449.191    67471.568    52.635068    42.507258 
162440000    281.31002    406.16632    176.76446   -67457.381    67475.498    229.40186    42.499426 
162444000    257.31894    424.07512     304.2587   -67467.415    67486.536    119.81642    42.487301 
162448000    243.12896    407.97166     327.0608   -67465.686    67503.934    80.910857    42.486747 
162452000     269.5594    445.55064    739.94934   -67482.321    67498.047   -294.39871    42.483086 
162456000     315.1009    517.50474    363.28376   -67505.191    67510.507    154.22099    42.484789 
162460000    285.20861    204.39744    378.62612   -67509.987    67532.114   -174.22868    42.485976 
162464000    259.84487    385.98506    372.51554   -67538.883    67558.187    13.469514    42.482109 
162468000    294.22572    543.34672    421.79793   -67555.598     67572.68    121.54879    42.487525 
162472000    258.84766    96.389444    470.51085   -67549.823    67572.797   -374.12141    42.493376 
162476000    278.41313    374.66513    271.81832   -67560.077    67578.333    102.84681    42.491175 
162480000    288.42726    449.10382    228.40018   -67564.548    67588.443    220.70363      42.5022 
162484000    263.61294    266.16002    336.17014   -67569.001    67605.011   -70.010123    42.490975 
162488000    293.90488     902.4356    803.10544   -67579.303    67594.767     99.33016    42.503113 
162492000    299.62692     378.2212    229.75933   -67590.455    67606.583    148.46187    42.496911 
162496000     323.1389    597.84774    578.50325   -67601.824     67621.92     19.34449    42.495655 
162500000    271.54054    336.26148    435.01954   -67620.631    67644.526   -98.758061    42.491159 
162504000     312.8529    216.51916    167.72639    -67643.61    67643.258    48.792774    42.491691 
162508000    333.22214     518.7969    158.29103   -67654.378    67663.665    360.50587     42.49421 
162512000    294.73614    268.87607    76.853962    -67664.74    67677.253    192.02211    42.499777 
162516000     279.8897    412.97134    152.03004   -67677.706    67694.954     260.9413    42.498192 
162520000    235.23886    80.289429    196.69171   -67671.706    67696.687   -116.40228    42.497847 
162524000    293.45317    509.86649    395.72091   -67682.365    67705.094    114.14559    42.495478 
162528000    286.17865    283.40678    556.07081   -67689.304    67694.101   -272.66404     42.50424 
162532000    308.66385    658.95821    570.21366   -67700.858    67712.219    88.744548    42.514402 
162536000    239.05448    307.86207    370.91419   -67698.551    67728.255   -63.052122    42.512031 
162540000    277.75239    130.57818    120.54362   -67702.867    67733.622    10.034558     42.50444 
162544000    269.20127    202.24644    355.40979   -67720.394    67739.784   -153.16335    42.503539 
162548000    235.10533    205.65209    230.82914   -67743.159    67765.139   -25.177057     42.50884 
162552000    287.14342    710.69415    707.09499    -67750.17     67771.51    3.5991587    42.500799 
162556000    259.69416    258.39942    306.60398   -67744.662    67775.868   -48.204555    42.516629 
162560000    278.90231    744.37314    206.43175   -67760.244    67782.527    537.94139    42.524227 
162564000    288.81356      687.875    699.49038   -67765.443    67788.201    -11.61538    42.525957 
162568000    305.92171    422.15683    491.80289   -67790.661    67803.781   -69.646058    42.531528 
162572000    302.12997    498.95802    304.52279   -67795.197    67808.025    194.43523    42.525067 
162576000    313.78657    519.61924    387.04433   -67828.741    67838.948    132.57491    42.530688 
162580000    293.71306    337.03286     645.6872   -67837.022    67868.795   -308.65435    42.525625 
162584000    284.67902    847.74397     282.0641   -67868.371    67892.359    565.67986    42.521868 
162588000    261.39156    370.45044    664.11519   -67873.013    67900.732   -293.66475    42.522784 
162592000    341.35401    421.28693    354.37178   -67890.942      67898.6    66.915155    42.514434 
162596000    270.64023    355.50544    367.87922   -67883.772    67916.923   -12.373778    42.511453 
162600000    247.34708    393.55667    268.04814    -67883.68    67919.843    125.50853    42.508515 
162604000    303.97311    532.31135    197.90991   -67902.347    67913.589    334.40143    42.504094 
162608000    278.07744    693.84492    182.38504   -67913.368     67936.05    511.45988    42.501147 
162612000    294.51698    401.44397    572.85023   -67929.028    67950.861   -171.40626     42.50244 
162616000    309.85392    348.21224    301.19349   -67942.038    67960.765    47.018749     42.49859 
162620000    263.26381    503.77387    182.64359   -67937.098    67960.798    321.13028    42.495223 
162624000    270.62203     241.7675    271.79412   -67952.183     67973.51   -30.026618    42.494245 
162628000     290.0343    494.01218     129.0574   -67965.978    67989.634    364.95477    42.490028 
162632000    242.02627    273.30086    177.82788   -67962.705    67996.772    95.472983     42.50414 
162636000     276.1589    427.38271    445.40836   -67966.646    68005.873   -18.025648    42.494126 
162640000    271.51444    896.91062    277.00332   -67994.423    68022.723     619.9073    42.485713 
162644000    282.93035    560.84965    334.48624   -68006.801    68033.051    226.36341     42.48711 
162648000     317.2875    513.54526    220.87854   -68037.765    68054.135    292.66672    42.492708 
162652000     308.5139    776.48906     491.1207   -68064.077    68079.384    285.36836    42.490627 
162656000    316.27548    212.90638    287.82062   -68079.648    68101.478   -74.914245    42.486479 
162660000    298.70171    716.18021    539.85646   -68091.857    68112.583    176.32376    42.490513 
162664000     294.8911    413.92014    578.87649   -68087.361    68094.412   -164.95634    42.485205 
162668000    267.21085    508.13504    617.80291   -68085.648    68110.032   -109.66787    42.486598 
162672000    280.19796    298.68144    134.70835   -68091.959    68107.817    163.97309    42.477886 
162676000     256.1961    218.94555    209.66208   -68100.745    68138.609    9.2834605    42.473398 
162680000    272.21445    486.73142    491.91695   -68113.793    68142.992    -5.185529    42.473252 
162684000    302.15366    431.32966    590.83659   -68129.824    68148.735   -159.50693    42.482524 
162688000    256.73637     226.2622    468.09235   -68150.317    68183.835   -241.83015    42.485693 
162692000    297.03794      331.627    346.82996   -68195.998    68205.731   -15.202957    42.490631 
162696000    268.42076    699.12069    381.44339   -68208.349     68231.96     317.6773    42.478564 
162700000    261.41854    344.47171    1131.5762   -68214.358    68252.258   -787.10453    42.487743 
162704000    281.95768    595.33197    165.08581   -68250.349     68260.61    430.24616    42.484934 
162708000    315.13481    296.79772    302.58378   -68253.949    68262.559    -5.786057    42.480958 
162712000    273.68959    681.25153    299.09869   -68251.784    68275.295    382.15284    42.490611 
162716000    329.41887    394.97303     238.2463   -68260.325    68282.597    156.72673    42.486969 
162720000    266.78358    329.78134     174.5205   -68281.728    68304.429    155.26084     42.48466 
162724000    265.49635    429.50803    458.76864   -68290.637    68323.761   -29.260608    42.487058 
162728000    322.55643     262.7182    415.26266   -68326.568    68320.481   -152.54445    42.484216 
162732000    296.24703    909.85614    328.70565   -68318.564    68340.295    581.15049    42.489028 
162736000    316.75478    393.66068    364.41095   -68331.841    68335.459    29.249731    42.515195 
162740000    273.91807    525.66443     284.6093   -68308.071    68323.737    241.05513    42.505593 
162744000    300.50666    925.33024    535.23158   -68314.339    68327.368    390.09866     42.51407 
162748000    347.28316    615.73739    193.95907   -68336.119    68328.559    421.77832    42.518819 
162752000    238.77576    306.88945    675.89671   -68318.248    68336.767   -369.00726    42.516874 
162756000     298.9722    607.60519    327.91522   -68313.551    68329.881    279.68997    42.522814 
162760000    287.37822    327.47961    459.43329   -68321.115    68328.195   -131.95368    42.516911 
162764000    267.27928    465.11887    168.34381   -68325.238     68357.65    296.77506      42.5231 
162768000    313.70557    770.74553    587.94686   -68361.139    68369.326    182.79866    42.524138 
162772000    294.52923    438.13183    988.57741   -68370.319     68384.14   -550.44558     42.52508 
162776000    278.66225    936.34385    212.38423   -68383.788    68412.674    723.95962     42.53322 
162780000    254.69275    144.39527    451.12161   -68399.765    68425.597   -306.72634    42.522926 
162784000    277.61095    359.66252    237.85824   -68419.775     68445.52    121.80428    42.522237 
162788000    293.28331    451.52941    261.54183   -68437.563    68455.081    189.98758    42.523289 
162792000    265.72491    228.48232    417.41222   -68454.207    68465.967    -188.9299    42.518906 
162796000    301.85444     705.3231    358.28012   -68474.153    68486.177    347.04298    42.499791 
162800000    264.17647     275.3394    507.01325   -68483.383    68509.742   -231.67385     42.50022 
162804000    298.13071    138.39883    193.63228    -68499.49    68517.209   -55.233449    42.492216 
162808000    286.44439    705.73683    328.25478   -68496.723    68517.234    377.48205    42.484954 
162812000    280.72757     464.8811    529.86607   -68513.366    68534.095   -64.984966      42.4832 
162816000    274.48584    290.30802    233.25625   -68513.987    68544.757    57.051767    42.484885 
162820000    285.99227    270.70214    231.68375   -68506.538    68538.508    39.018399    42.494258 
162824000    339.51446    538.72764    316.51785   -68530.962    68537.469    222.20979    42.487726 
162828000    304.67145    534.58759    196.83729   -68517.331    68530.142     337.7503    42.490825 
162832000    265.80652    201.29887    412.65963   -68511.439    68541.231   -211.36075    42.481634 
162836000    296.78421    180.29911    950.41396    -68528.11    68552.237   -770.11485     42.49895 
162840000    283.78622    338.14992    824.99972   -68544.755     68573.46    -486.8498    42.502495 
162844000    266.51303    355.47336    203.24289   -68568.425    68596.386    152.23047    42.500153 
162848000    329.74581    407.74821    450.57831   -68596.134    68613.295   -42.830103    42.497433 
162852000    307.81417    248.78237    229.75559   -68615.894    68622.593    19.026774    42.493942 
162856000    294.95604    982.25002    748.59304   -68620.342    68639.744    233.65698     42.48788 
162860000    299.00771    299.22107    533.86621   -68632.521    68647.635   -234.64513    42.486308 
162864000    269.31347     909.0639    293.11476   -68635.956    68667.898    615.94914    42.470806 
162868000    277.33763    638.04149    484.42633   -68647.367    68673.692    153.61516    42.466816 
162872000    260.61091    335.62038    746.70995   -68674.034    68692.144   -411.08957    42.469007 
162876000    281.35378    256.55822    836.60106   -68683.084    68711.632   -580.04285    42.467546 
162880000    312.98899    704.92747    343.94989   -68708.553    68724.983    360.97758     42.47383 
162884000    317.39354    629.74415    406.20008   -68692.217    68718.369    223.54406    42.482954 
162888000    261.46601    595.57119    270.74416   -68694.985    68721.708    324.82703    42.478017 
162892000    270.43739    246.11283     758.1449   -68703.223    68725.768   -512.03207    42.481355 
162896000    219.77715    467.37547    695.41776   -68704.838    68750.328   -228.04228    42.494652 
162900000     269.9929    673.40696    635.51606   -68726.645    68763.921    37.890901    42.503875 
162904000    285.78169    817.60186    590.63795   -68750.958    68772.033    226.96391    42.506571 
162908000    295.93056    144.56924    237.59872   -68778.199    68801.699   -93.029489    42.499494 
162912000     314.3755    432.65523    669.24517   -68764.077    68782.071   -236.58993    42.498427 
162916000    277.22788    126.40394    527.04754   -68763.591    68787.497    -400.6436    42.512265 
162920000     259.3775    348.07039    344.55823   -68763.334     68802.21     3.512161    42.522236 
162924000    273.25884    220.34273    308.28556    -68779.11    68809.529   -87.942831    42.527231 
162928000    244.25596    256.06874    190.65222   -68809.167    68843.511    65.416524    42.541395 
162932000    278.22248    196.53841    546.07073   -68831.389    68848.442   -349.53232    42.544173 
162936000    294.72213    732.31269    513.04993   -68838.016    68851.385    219.26276    42.543261 
162940000    290.62961    260.23497    422.12942   -68830.669    68858.044   -161.89445    42.535236 
162944000    248.99937    528.40118    236.05527   -68837.339    68865.087    292.34591    42.545493 
162948000    302.38162    344.53221    248.95215   -68843.386    68858.237     95.58006    42.540761 
162952000    330.56627      889.035    379.27278   -68856.838    68863.457    509.76222    42.538851 
162956000    317.01131    256.79816    393.93038   -68872.261    68872.483   -137.13223    42.541317 
162960000    309.68399    389.30219    639.30133   -68869.284    68894.475   -249.99914    42.544322 
162964000    251.01189    298.96997    353.59079   -68882.791     68912.27    -54.62082     42.53884 
162968000    260.93705    459.77991    509.56399   -68906.895    68913.788   -49.784076    42.529258 
162972000     290.8608    439.58105    809.88865   -68906.269     68928.74   -370.30761    42.541103 
162976000    280.03289    332.51624    619.31768   -68907.258     68931.96   -286.80144    42.547007 
162980000    284.81321    378.08312    278.28629   -68918.093    68922.222    99.796834    42.544003 
162984000    272.77065    601.10256    367.83078   -68921.795    68951.733    233.27177    42.549179 
162988000    272.47326     625.5086    377.36725   -68946.512    68962.299    248.14135    42.542384 
162992000    286.79811     719.7025    549.98929   -68972.913    68981.613    169.71322    42.539209 
162996000    345.18613    669.21725    306.59658   -68999.309    69006.543    362.62068    42.539681 
163000000    270.81419    151.77542    389.47132    -69003.05    69024.551    -237.6959    42.529542 
163004000    339.16263    455.37409    1051.6432   -69026.202    69038.681   -596.26906    42.526229 
163008000    284.05366    256.79264    426.34896   -69049.921    69068.501   -169.55631    42.511105 
163012000    261.14679    477.30237     499.3818   -69069.816    69083.325   -22.079435     42.50976 
163016000    303.73135    225.25878    296.81467   -69089.002    69101.648   -71.555884    42.512094 
163020000    234.91033     277.1496    470.92169   -69079.036    69120.982   -193.77209    42.515591 
163024000    265.15316    648.39334    688.04642   -69086.706    69096.985   -39.653078    42.518483 
163028000     310.7627    987.57926    478.54149   -69106.454    69123.982    509.03777    42.518907 
163032000    309.04351    726.10132    304.63823     -69119.3    69119.183    421.46309    42.518554 
163036000    296.95857    425.28331    258.15471   -69122.476    69138.702     167.1286    42.524076 
163040000    289.94526     425.2852    782.11372   -69127.179    69137.995   -356.82852    42.518465 
163044000    322.82137    285.53633    635.68203    -69143.73    69151.557    -350.1457    42.521301 
163048000    271.46809      262.091    171.90859   -69147.551    69173.893    90.182416    42.529812 
163052000    264.38949    401.37444    328.02519   -69145.491    69179.579    73.349245    42.536404 
163056000     233.7264    616.97445     525.7103   -69157.685    69183.635    91.264153    42.530128 
163060000    252.59619    341.61697    435.66113   -69175.524    69196.167    -94.04416    42.538451 
163064000    297.34897    537.87312    538.76058   -69183.881    69198.032  -0.88745813    42.534941 
163068000    370.50803    1106.4969    1182.7488   -69190.116    69187.812   -76.251939     42.53306 
163072000    317.26585    436.17454    118.40979   -69197.205    69203.223    317.76475    42.544699 
163076000    250.69708    265.63795    178.56143   -69197.981    69223.772     87.07652    42.545974 
163080000     268.3276    903.26288    261.42991   -69214.404    69243.236    641.83297    42.554379 
163084000    252.26239    391.08507    554.54846   -69212.396    69247.437   -163.46339    42.550923 
163088000    279.85429    322.98724    327.17739   -69229.986    69240.113   -4.1901482    42.553089 
163092000    293.85854     121.5666    788.18464   -69220.521    69252.914   -666.61804    42.554886 
163096000    249.15292    375.36806    201.65983   -69240.575    69278.302    173.70823    42.556275 
163100000    276.63672    154.86042     744.0085   -69244.847    69257.064   -589.14808    42.553748 
163104000    293.59519    623.13941    505.19521   -69254.087    69287.484     117.9442    42.551328 
163108000    253.70841    467.00106    397.19791   -69279.121    69304.111    69.803148    42.558306 
163112000    319.02661     596.9573    494.16299   -69297.752    69312.317    102.79431    42.557165 
163116000    275.00941    185.36031    342.58186    -69288.32    69325.623   -157.22155    42.552869 
163120000    290.77024    592.94899    365.82283   -69319.711    69342.653    227.12615     42.55356 
163124000    266.05756    69.249742    244.14505   -69336.309    69350.378   -174.89531    42.546023 
163128000    311.23018    725.97431    641.76213   -69350.173    69370.706    84.212181    42.554891 
163132000    292.96003    358.51115    1021.0797   -69370.409    69380.904   -662.56857    42.546929 
163136000    251.78986    528.41809    434.23742   -69376.254    69406.679    94.180667    42.538864 
163140000    275.03086    480.42539    321.02009   -69365.675    69404.715     159.4053     42.54195 
163144000    258.23585    578.49436    191.12995   -69373.967    69405.248    387.36441    42.546636 
163148000    269.92066    418.33469     634.8165   -69384.226    69402.848   -216.48182    42.544189 
163152000    289.06694    167.29902    629.90494    -69375.23     69407.03   -462.60593    42.538397 
163156000    294.01411    266.63196    275.89691   -69390.358    69413.742   -9.2649545    42.532002 
163160000    276.90682     400.1558    815.23434   -69383.794    69400.886   -415.07853    42.528167 
163164000     331.3137    536.17809    249.69211   -69405.147    69413.969    286.48598    42.536595 
163168000    271.89215    921.95804    310.14869    -69415.42    69433.875    611.80935      42.5442 
163172000    302.07038    561.70537    590.96595   -69449.354    69444.068   -29.260584    42.550401 
163176000    271.12339    438.96352    725.61037   -69450.279     69468.11   -286.64685    42.552787 
163180000    309.30824     411.2583    537.93397   -69473.606    69475.161   -126.67567    42.549852 
163184000    318.49302    596.70452    277.91983   -69487.833    69486.853    318.78469    42.546284 
163188000    298.79362    331.45887    1018.2071   -69481.537    69490.549   -686.74823    42.542307 
163192000    315.47811    129.24841    189.75117   -69478.884    69472.518   -60.502767    42.535565 
163196000    310.53438    866.02228    104.57065   -69493.679    69501.357    761.45163    42.528683 
163200000    244.34872    413.52884     177.7556   -69488.337    69526.626    235.77324    42.519855 
163204000    255.80016    515.18976    538.21093   -69489.944    69517.611   -23.021164    42.525137 
163208000    299.21774    725.79077    530.98582   -69511.761     69523.99    194.80495    42.525969 
163212000    299.96122    362.63459    674.03654   -69507.694    69533.883   -311.40195    42.525778 
163216000    268.35469    217.07154    745.09188   -69507.778    69540.244   -528.02034    42.529878 
163220000    268.30503    187.93147    251.96204   -69514.584     69542.41   -64.030573    42.528841 
163224000    301.87792    244.89092     305.5242   -69535.485    69547.317   -60.633281    42.533737 
163228000    278.14028     799.1182    497.20013   -69544.481    69558.786    301.91807    42.526358 
163232000    254.72959    559.03442      361.281   -69541.094    69575.737    197.75342    42.534517 
163236000    307.49786    499.16749    552.69548   -69570.413    69581.657   -53.527996    42.532993 
163240000     277.2368    469.84647    187.10841   -69573.008    69600.175    282.73806    42.537113 
163244000    303.98142    427.97399    689.46149   -69588.842    69600.397   -261.48751    42.538811 
163248000    295.90625    321.23892    682.22183   -69588.225    69599.109   -360.98292    42.541941 
163252000    294.81122    514.11665    856.25765   -69593.156    69606.766     -342.141    42.543691 
163256000    282.15164    466.52449    299.94557   -69600.937    69623.621    166.57892     42.54284 
163260000    272.32159    333.77596    437.58575   -69608.465     69631.02    -103.8098    42.532591 
163264000    302.34467    460.32769    510.48677   -69631.038    69657.008   -50.159084    42.531568 
163268000    284.12657     685.2235    356.10956   -69644.304    69677.729    329.11394    42.539517 
163272000    271.00743    149.59154    285.36721   -69671.137    69685.515   -135.77567    42.539628 
163276000     314.7956     598.3732    213.02321   -69681.856    69691.062    385.34999    42.526155 
163280000    254.20585    518.08079    327.42003   -69692.614    69714.384    190.66076    42.516333 
163284000     302.0807    1058.4422    375.58857   -69727.532    69727.645    682.85361    42.524681 
163288000    272.46621    464.43553     690.4762   -69724.649    69752.823   -226.04067    42.508692 
163292000    277.58679     391.2951    369.10876   -69750.685    69771.774    22.186339    42.513743 
163296000    292.12434    501.58307    240.76306   -69759.567    69784.996    260.82001    42.514191 
163300000    288.96444    460.38497    638.10858   -69771.125    69788.783   -177.72361     42.51976 
163304000    287.08861    388.66611    881.26433   -69785.116    69806.749   -492.59823    42.519808 
163308000    254.85939    188.77813    393.48381   -69788.647     69816.91   -204.70568    42.524811 
163312000    281.63212    233.72178    292.64051   -69780.542    69807.818   -58.918725    42.533618 
163316000    287.97123    610.41441    183.79515   -69801.203    69818.764    426.61926    42.535286 
163320000    294.14727    354.21679    425.34154   -69802.804    69820.786   -71.124744    42.546001 
163324000    274.31874    694.36961    910.46894   -69799.948    69830.176   -216.09933    42.541826 
163328000    309.83809    721.23433    1042.5815   -69830.173    69831.392   -321.34713    42.537872 
163332000     273.3682    781.06785    751.14647   -69835.168    69860.425    29.921377    42.536729 
163336000    269.11226    571.54869    848.34684   -69858.585    69879.788   -276.79815    42.533186 
163340000    293.51627    480.51566    811.44263   -69887.757    69900.705   -330.92698    42.530813 
163344000    273.91236    747.31339    66.539182   -69879.161     69905.44    680.77421    42.528969 
163348000    271.37171    443.40107    194.62751   -69887.392    69909.764    248.77356    42.537508 
163352000    280.85014    210.45325    846.26447   -69874.873    69895.396   -635.81122    42.532211 
163356000    276.74945    313.12546    370.69383    -69889.84     69912.81    -57.56837    42.526107 
163360000    279.80802    643.82602    391.94411    -69894.22    69925.259     251.8819    42.520497 
163364000    271.46313    655.72177    294.53193   -69912.076    69931.342    361.18985    42.518363 
163368000    265.58614    381.18264    450.15145   -69914.319    69938.574   -68.968805    42.520536 
163372000    283.42553    393.28255    334.52768   -69934.523    69955.328    58.754867    42.522741 
163376000    350.40595    569.06988    689.76462   -69952.075    69953.063   -120.69474    42.515576 
163380000    335.58574    383.51805    488.77315   -69947.129    69962.744    -105.2551    42.524235 
163384000    285.07274    796.74893    177.27324   -69931.197    69956.623    619.47569    42.527902 
163388000    326.37264    290.60125    467.92505   -69949.324    69953.438   -177.32381     42.52601 
163392000    252.14449    407.89714    219.90226   -69946.291    69976.361    187.99488    42.514647 
163396000    284.03741    721.21075    553.69509    -69966.31    69997.314    167.51567    42.514275 
163400000    236.56474    241.31525    187.90859    -69969.18     70015.88    53.406652     42.50616 
163404000    249.82036     336.6223    405.84658   -69977.124    70013.034   -69.224275    42.518808 
163408000    266.04383    363.48739    477.61109   -69989.268    70021.629    -114.1237    42.515976 
163412000    298.41875    497.21794    193.64459    -69990.03    70015.003    303.57335    42.525888 
163416000    289.59288    128.09575    352.06121   -69995.232    70014.261   -223.96546    42.536415 
163420000    249.42777    547.22923    291.00915     -70001.8     70030.34    256.22008    42.531166 
163424000    251.58514    239.45212    342.66052   -70009.517    70036.272    -103.2084    42.544277 
163428000    274.13813    419.61803     353.5168   -70028.343    70053.585    66.101225    42.543782 
163432000    225.85141    114.26802    601.12658   -70022.223    70065.487   -486.85857    42.551977 
163436000    301.84881    210.27248     905.3125   -70031.517    70049.609   -695.04002    42.551696 
163440000     253.9367    847.89863    484.04276   -70036.536    70062.694    363.85587     42.57004 
163444000     316.7908    1107.5957    345.40485   -70053.992      70071.3    762.19084    42.568724 
163448000    286.86866    328.83145    449.18036   -70071.869    70091.519   -120.34891    42.567541 
163452000    247.58829    442.96427    491.89396   -70078.674    70112.653   -48.929694    42.570491 
163456000    253.74595    613.60054    386.38686   -70107.197    70129.404    227.21367    42.570999 
163460000    251.32171     538.9711    169.48952   -70111.693    70138.553    369.48158    42.575277 
163464000    270.24132    633.84383    370.62119   -70113.641    70142.156    263.22264    42.577449 
163468000     270.4021    508.93051    495.19366   -70123.915    70154.024     13.73685    42.579252 
163472000    327.39639     182.8775    348.17154   -70130.781    70150.402   -165.29404    42.583916 
163476000    287.44439    269.86209    284.47343   -70150.103    70173.613   -14.611338    42.579514 
163480000    305.97245    394.42957    433.97255   -70160.604    70181.315   -39.542973    42.570903 
163484000    279.54004          153    566.77766   -70176.029    70194.512   -413.77766    42.572616 
163488000    272.58538    636.94815    156.88328   -70172.333    70206.778    480.06486    42.579348 
163492000    260.90391    115.35271    386.05771   -70159.805    70198.689   -270.70501    42.575942 
163496000    229.41661    391.09319    134.98484   -70170.264    70202.095    256.10834    42.580803 
163500000    280.19442    463.95608    646.49821   -70168.217    70190.087   -182.54213    42.576215 
163504000    263.88186    585.54646     978.1369   -70176.255    70204.684   -392.59044    42.577593 
163508000    286.45895    537.83475    495.99144   -70188.561        70205    41.843302    42.571235 
163512000    245.03548    706.39207    616.87062   -70198.698    70236.914    89.521452    42.577707 
163516000    298.67022    611.30478    170.93895   -70229.025    70250.047    440.36583    42.582836 
163520000    247.24206    538.69073     219.5879   -70233.478     70272.88    319.10283    42.578042 
163524000    317.35198    420.64107    206.30761   -70243.799    70258.123    214.33347    42.572359 
163528000    253.35094    326.65196    491.32103   -70260.146    70272.328   -164.66906    42.577537 
163532000    320.75354    518.47424    478.28057   -70256.204    70263.348    40.193675    42.565111 
163536000    294.90602    386.63965    419.42651   -70253.424    70269.192   -32.786864    42.570019 
163540000    306.17828    239.86458    536.98104    -70259.65    70272.218   -297.11646     42.58167 
163544000    242.02335    398.74718    450.15876   -70257.041    70290.757   -51.411583    42.580721 
163548000    327.67224    327.67327    248.71804   -70281.182     70296.08    78.955228    42.564786 
163552000    304.68316    337.83624    684.28141   -70288.382    70304.362   -346.44516    42.570201 
163556000     222.4146    660.65259    253.86297   -70279.584    70319.315    406.78962    42.561243 
163560000    254.40893    277.40839    404.40513    -70306.37    70335.637   -126.99674    42.566133 
163564000    260.84478    215.09754    594.57686    -70322.61    70354.499   -379.47932    42.567818 
163568000    257.87406    439.61414    387.20649   -70340.216    70362.454    52.407647    42.566069 
163572000    257.63974    688.70118    407.03126   -70342.882    70376.014    281.66992    42.562927 
163576000    247.88762    897.25701    412.89271   -70350.295    70386.234     484.3643    42.568308 
163580000    331.91288    953.20744    142.58077   -70383.599    70387.348    810.62667    42.567369 
163584000    273.40747    311.91612    285.06613   -70384.882    70412.977    26.849982    42.566283 
163588000    253.07393    193.36981    313.15067    -70405.68    70446.433   -119.78087    42.558209 
163592000    304.69585    491.31787    564.07267   -70454.645    70460.539     -72.7548    42.557668 
163596000     328.2598    338.91355    568.75602   -70458.892    70477.779   -229.84247    42.552368 
163600000    263.02466    305.82266    340.77236   -70472.925    70505.613   -34.949693    42.559916 
163604000     273.8626    871.64609    843.08261   -70474.036    70497.144    28.563488     42.56911 
163608000    316.25942    904.22933    792.27247   -70480.966    70493.439    111.95686    42.569995 
163612000    326.67729    477.10952    377.13206   -70511.498    70515.215    99.977459    42.563566 
163616000    265.74068    336.91999    651.51049   -70518.211    70541.275    -314.5905    42.553107 
163620000     306.0682     521.2354    513.86229   -70518.671     70531.56    7.3731135    42.556531 
163624000    261.23437    376.93162    412.40414   -70518.859     70554.23   -35.472523    42.565418 
163628000    307.35589    454.66411    276.07258   -70548.206    70559.792    178.59153    42.553999 
163632000    272.01764     563.2416    617.73687   -70558.779    70583.802   -54.495268    42.548356 
163636000    301.97435     629.8668    331.27885   -70572.787    70587.017    298.58795    42.540683 
163640000    315.40825    146.77002    495.92894   -70596.367    70607.117   -349.15892    42.539016 
163644000    282.64272    411.06577    338.91393   -70586.162    70610.705     72.15184     42.54216 
163648000    284.26129    843.25275    257.18159   -70601.555     70629.01    586.07116    42.537428 
163652000    318.28983    895.93836     414.3744   -70625.096    70634.995    481.56396    42.532778 
163656000    268.93645    188.36739    694.18495   -70651.251    70669.837   -505.81756    42.527984 
163660000    285.90669    723.43904    254.28004   -70659.644    70681.907      469.159    42.527095 
163664000    244.52475    416.20474    287.34419   -70672.142    70704.952    128.86055     42.53598 
163668000    223.66543    127.88848    247.77931   -70680.157    70719.975   -119.89083    42.546231 
163672000     233.1331    574.43986    198.71397   -70679.151    70721.947    375.72589    42.547486 
163676000    298.37745    551.38084    714.57996   -70713.516    70733.826   -163.19912    42.548856 
163680000    255.92584    552.70499    730.92818   -70712.561    70738.369   -178.22319    42.561459 
163684000    258.51579     518.4263    419.76609    -70735.35    70766.317    98.660215    42.561333 
163688000    371.56965    481.18357    970.08984   -70746.346    70744.881   -488.90627    42.561776 
163692000    298.80642    708.15706    415.03916   -70753.907    70768.201     293.1179    42.565315 
163696000    281.52643    343.19934     597.8856   -70747.267    70780.533   -254.68627    42.570911 
163700000    295.43484    321.31132    325.22106   -70758.241    70775.035   -3.9097389    42.562459 
163704000    288.06604    424.69773    717.51321    -70765.47    70785.022   -292.81548    42.546557 
163708000    309.47488    899.65603    403.19268   -70764.413    70787.097    496.46335     42.54364 
163712000      284.514    360.14945    875.99528   -70770.635    70793.858   -515.84583    42.545966 
163716000    266.72675    444.25796    246.36899   -70774.556     70805.76    197.88898    42.546858 
163720000     288.8249    399.75067    338.46334    -70780.79    70797.046    61.287326    42.540084 
163724000    279.64928    502.79222    279.77453   -70792.403    70815.222    223.01769    42.535066 
163728000    277.72414     419.6874    675.10373   -70804.444    70817.934   -255.41633    42.534131 
163732000    319.52364     488.5686    438.48482   -70810.419    70833.852    50.083781    42.535881 
163736000    273.49579    748.80095    423.13993   -70828.874    70849.634    325.66103    42.535474 
163740000     237.2832     408.1997    236.79761   -70826.715    70869.114    171.40209    42.542588 
163744000    292.61623     585.0494    282.52184   -70829.752     70855.75    302.52757    42.541985 
163748000    300.87591    698.37419    509.71092   -70856.164    70874.615    188.66326    42.546857 
163752000    292.87107    669.79922    367.36418   -70870.997    70888.485    302.43504     42.54453 
163756000    274.72419    561.23715    492.59399   -70880.292    70904.718    68.643159    42.552983 
163760000    273.21784    293.27538    512.98048   -70903.803    70927.785    -219.7051    42.555402 
163764000    272.14205    499.58276    282.28774   -70908.958    70930.896    217.29502    42.561353 
163768000    337.31694     446.6887    501.00862   -70928.464    70942.436   -54.319923    42.560117 
163772000    292.99556    372.50124    515.87973   -70950.941    70963.777   -143.37849     42.55193 
163776000    305.45525    462.26023    585.13063   -70959.459    70988.484    -122.8704    42.536039 
163780000    279.56828    566.06176    363.80192   -70973.142    70992.599    202.25984    42.536962 
163784000    307.97352    557.72064    94.946283   -70968.774    70982.764    462.77435    42.539922 
163788000    327.97727    710.23778    1047.5866   -70965.932    70970.996   -337.34884     42.53187 
163792000    335.80128    787.90853    288.62034   -70989.526    70989.598    499.28819    42.523191 
163796000    312.46122    535.87992    138.49685   -70989.271    70993.341    397.38307    42.517744 
163800000     307.7266    798.64319    403.60716   -70994.465    70997.743    395.03603    42.512932 
163804000    274.26938    665.11925    645.36769   -71002.286    71027.145    19.751565    42.518272 
163808000    288.59151    455.43102    624.48703   -71027.677    71049.346   -169.05601    42.518548 
163812000    273.61847    671.14892    653.98524   -71043.901    71068.564    17.163688    42.509378 
163816000    276.39634    257.32139    519.31081   -71045.351    71088.524   -261.98942     42.51828 
163820000    287.94853    424.78962    380.02713   -71069.627    71084.526    44.762482    42.518286 
163824000    305.47969     226.6831    416.54252   -71092.778    71103.204   -189.85942    42.508075 
163828000    299.18599    311.18508    262.40366   -71097.549    71110.165    48.781418     42.51943 
163832000    255.67284    298.69863    209.53962   -71082.715    71119.847     89.15901    42.507322 
163836000    272.06671    560.85717     328.8847   -71101.346    71121.687    231.97247     42.50025 
163840000    325.02639    615.07635    1034.3489    -71115.56    71105.269   -419.27255    42.497532 
163844000    334.66751    240.88953    483.21534   -71119.265    71126.113   -242.32581    42.496488 
163848000     312.6236      231.701    467.56945   -71118.437    71133.504   -235.86845    42.500729 
163852000    258.13876    386.98777    426.43906   -71086.282    71124.997   -39.451292    42.510384 
163856000    266.25445    429.31674    345.66849   -71084.245    71110.061    83.648249    42.502904 
163860000    347.53673    583.59554    164.02063   -71103.388    71102.366    419.57491    42.502386 
163864000    309.85004    655.17727     405.4419   -71106.611     71113.53    249.73537    42.490225 
163868000    290.47492    662.43764    247.26788   -71100.656    71131.796    415.16976    42.474097 
163872000    241.60091    137.84706     817.3476   -71112.662    71154.945   -679.50053    42.474224 
163876000    338.85508    872.03804    780.78713   -71134.471    71143.983    91.250912    42.472041 
163880000    307.10089    470.90242    339.57518   -71137.546    71154.487    131.32724    42.475793 
163884000    275.81572      264.325    349.41089   -71128.446    71154.209   -85.085883    42.484521 
163888000    262.68391    480.40209    479.90735   -71136.315    71163.125   0.49474103    42.485071 
163892000    270.53848    228.12356    419.04315   -71134.271    71169.826   -190.91959    42.483637 
163896000    286.69029    352.29632    422.99236   -71131.275    71163.338   -70.696042    42.479843 
163900000    258.62999    348.64146    345.21992   -71141.178    71179.704    3.4215405    42.473992 
163904000    262.18514    266.44494    417.99031   -71146.155    71175.799   -151.54537    42.471142 
163908000    282.47616    404.89661    766.33232   -71163.027    71173.954   -361.43571    42.450179 
163912000    272.98596    181.11687    509.91486   -71160.047    71190.205   -328.79799    42.455478 
163916000    292.17145    486.54906    235.90986   -71178.737     71199.87     250.6392    42.453224 
163920000    292.25697    460.07742    565.37384   -71190.258    71215.435   -105.29642    42.450536 
163924000    305.35021      665.242    799.36619   -71212.276    71229.649   -134.12419     42.45197 
163928000    271.33014    716.02239    198.90556   -71232.093    71261.682    517.11683    42.463275 
163932000    305.40669    435.88213    435.43987   -71255.428    71280.018   0.44225411    42.477472 
163936000    279.81625    423.02518     597.9688   -71272.312    71277.434   -174.94362    42.478626 
163940000    253.65153     723.1973    102.36644    -71275.02    71307.859    620.83087    42.478665 
163944000    298.89674    812.41506    236.16453   -71281.719    71297.232    576.25053    42.487397 
163948000    264.44748    471.48573    506.01196   -71270.699    71303.347   -34.526236    42.499594 
163952000    299.14099    423.10784    671.87639   -71280.748    71313.588   -248.76855    42.517825 
163956000    282.51948      203.403    661.48622   -71291.871     71328.73   -458.08322    42.506042 
163960000    288.07365    716.76808    410.93866   -71304.517    71328.405    305.82942    42.497141 
163964000    303.61458    428.58936     620.8845   -71323.691    71334.874   -192.29514     42.49697 
163968000     322.1468     547.3476    425.88794   -71332.446    71346.069    121.45967    42.508055 
163972000    310.07604     144.9515    660.10065   -71351.241     71359.68   -515.14915    42.509141 
163976000    289.09687    494.12611    389.82394   -71352.694     71381.52    104.30217    42.511384 
163980000    284.69809    506.59173    276.24383   -71356.264     71381.46     230.3479    42.513475 
163984000     262.9524    262.72431    278.33312   -71348.318    71388.201   -15.608815    42.514583 
163988000    303.65303    206.07981    410.94666   -71382.222    71392.474   -204.86685    42.509412 
163992000    268.03681    325.75165    700.52157   -71383.883    71413.983   -374.76992    42.511348 
163996000    279.66055    749.54162    554.98388   -71409.977    71426.129    194.55774    42.508429 
164000000    320.52289    276.72267    588.49809    -71426.54    71442.073   -311.77542    42.511875 
164004000    288.18457    266.96226    132.42747   -71421.079    71438.656    134.53479    42.516244 
164008000    274.01372    215.50203    194.32175   -71429.589    71443.667    21.180272    42.522359 
164012000    297.89215     673.6401    368.97048    -71429.54    71447.475    304.66962    42.518121 
164016000    324.98891    370.33637    910.81255   -71439.877    71450.385   -540.47617    42.515189 
164020000     242.1215    292.27542    598.69251    -71431.34    71461.079   -306.41709    42.506829 
164024000    272.84147    423.65382    171.04691   -71443.354    71468.727    252.60691    42.502772 
164028000    287.65453    445.34938    346.96293   -71465.221    71478.861     98.38645    42.510033 
164032000    347.88828    605.73135    846.01079   -71473.913    71478.396   -240.27945    42.512815 
164036000    313.86207    409.57217    360.05946   -71480.647     71503.52    49.512705    42.519099 
164040000     325.3065    196.52859    526.16404   -71494.874    71508.575   -329.63545    42.528421 
164044000    242.89816    477.77964    849.62536   -71484.218    71513.765   -371.84572    42.544231 
164048000     278.8876    347.63579     406.4989   -71497.559    71528.541    -58.86311    42.540287 
164052000    281.40129     258.2242    222.64686   -71519.206     71539.34    35.577341    42.541737 
164056000    264.71257    219.87584    1048.8493   -71507.179    71544.712   -828.97343    42.534373 
164060000     269.2825    455.07183    549.02145   -71527.705    71546.646   -93.949619    42.527047 
164064000    306.45383     516.3376    344.89583   -71542.333    71554.402    171.44178    42.536422 
164068000    263.56571    660.46503    211.83908   -71542.443     71554.04    448.62595    42.534985 
164072000    284.14017    182.20913    613.41108   -71554.076    71567.444   -431.20194    42.523417 
164076000    264.24219    764.59546    256.19859   -71552.668    71575.718    508.39688    42.529179 
164080000    260.69839    210.43748    519.95024   -71561.009    71576.354   -309.51276    42.538409 
164084000    273.68825    569.16197    529.79531   -71568.891    71595.466    39.366659    42.535281 
164088000    317.06496    1024.8398    341.49649   -71595.734    71606.726    683.34329    42.531888 
164092000    262.37068    510.22832     228.4637   -71604.247    71634.214    281.76462    42.528402 
164096000    266.71395    249.51195    723.93872   -71630.349    71661.351   -474.42677    42.533197 
164100000    284.95143    765.31076    303.39619   -71656.979     71675.83    461.91457     42.53674 
164104000    305.77647    779.72654    412.48918   -71681.363    71700.925    367.23736    42.547932 
164108000     303.1438    645.87522    354.25519   -71700.213    71707.709    291.62003    42.536772 
164112000    321.65298    343.43878    316.84944   -71710.803    71708.986    26.589338    42.534616 
164116000    277.21516    477.71634    199.56034   -71707.627    71727.798      278.156    42.539667 
164120000    288.01409    192.00151    336.55317   -71707.233    71729.661   -144.55166    42.549934 
164124000    286.15738    402.12145    317.97575   -71722.978    71749.102      84.1457    42.555084 
164128000    263.69726    529.55154    201.84173   -71713.499    71738.498    327.70981    42.555646 
164132000    262.06389     281.8336     714.0204   -71726.703    71754.163   -432.18681    42.561673 
164136000    292.44652    350.97446    222.22428    -71745.89    71759.255    128.75017    42.559082 
164140000     253.2205    266.42593    228.46109   -71756.413    71792.327    37.964836    42.555056 
164144000    261.62902    623.07899     382.5926   -71769.661    71797.787     240.4864    42.550676 
164148000    276.86066    181.31379    358.69375   -71778.422    71808.326   -177.37995    42.545399 
164152000    306.76344    531.77942    165.66548   -71784.209    71805.918    366.11394    42.548784 
164156000    299.41691    466.79788     293.8122   -71790.788    71804.078    172.98568    42.546953 
164160000     299.7315    1011.6328    503.00755   -71801.511     71816.23     508.6253    42.556242 
164164000    266.79248    385.71766    424.55307   -71790.761     71825.13   -38.835407    42.571232 
164168000    281.03705    127.75076    788.72911   -71806.777    71827.664   -660.97835    42.561992 
164172000    285.54116    318.57117    158.41173   -71807.665    71822.319    160.15944    42.551108 
164176000    297.73902    485.26222    242.70193   -71791.036    71812.563    242.56029    42.553898 
164180000    279.97136    603.31458    233.28199   -71770.211    71800.147    370.03259    42.554116 
164184000    237.38892    661.40363    418.74599   -71788.519    71823.482    242.65764    42.559258 
164188000    290.47849    452.46607    500.33971   -71809.451     71834.91   -47.873636    42.561162 
164192000    336.64962    1028.5015    161.63009   -71822.074    71831.581    866.87145    42.570779 
164196000    317.12304    498.16609    304.36039   -71830.492    71845.888     193.8057    42.577497 
164200000    314.54052    438.86847    358.64803   -71842.812    71856.497    80.220441    42.580863 
164204000    276.96431    333.49202     203.2508   -71834.406    71867.106    130.24122    42.578124 
164208000    269.74182    342.35366    938.98024   -71854.322    71874.786   -596.62659    42.579456 
164212000    237.91434    851.75015    375.04676   -71858.988    71903.087    476.70339    42.581957 
164216000    277.63933     232.1677    1315.1739   -71872.813    71902.059   -1083.0062    42.583961 
164220000    290.84449    355.66544    327.37246   -71883.434    71894.302    28.292986    42.578961 
164224000    279.12629     304.3542    416.36348   -71896.099    71915.663   -112.00928     42.58305 
164228000    293.78412    228.13712    215.60511    -71911.51    71935.822    12.532009    42.590678 
164232000    330.55702    653.64047     575.9523   -71929.474    71915.223    77.688161    42.585723 
164236000    324.01208    450.78767    238.73584   -71931.257     71946.14    212.05183    42.591011 
164240000    275.74103    255.22363    393.18803   -71942.615    71966.173    -137.9644      42.6001 
164244000    257.27546    513.43521    503.12232   -71956.888    71975.195    10.312893    42.606252 
164248000    282.86726    496.39617    218.79992   -71968.993    71998.769    277.59626    42.610272 
164252000    291.73416    449.26092    503.72551   -71978.783    72009.128   -54.464596    42.627845 
164256000    271.68951    597.27159    189.67326   -72005.707    72024.996    407.59833    42.646496 
164260000    277.90211    694.88345    500.29596   -72009.289    72045.815    194.58749    42.646557 
164264000    301.48898    430.18365    509.57085   -72041.178    72063.763   -79.387202    42.629724 
164268000    294.69629    164.59144     586.7474    -72049.02    72071.386   -422.15597    42.628533 
164272000    296.50213    366.37117    427.09558   -72064.217    72072.812   -60.724404    42.622289 
164276000    315.63363    335.40301    537.87277   -72082.541    72078.737   -202.46976    42.621505 
164280000    251.06633    283.66829     280.8338   -72087.407    72126.852    2.8344855    42.616918 
164284000    263.58599     685.3243    238.90336   -72115.652    72157.061    446.42093    42.616888 
164288000    326.38351    374.82749    945.74988    -72134.52    72153.805   -570.92239    42.620274 
164292000    262.16488     395.6293    762.00637   -72150.168    72178.027   -366.37708    42.611575 
164296000    292.23653    518.90807    430.03941    -72175.39    72194.371    88.868658    42.614154 
164300000    274.58792    1184.7227    433.68254   -72192.068    72227.233    751.04015    42.615975 
164304000     275.7562    402.52642    454.02786   -72206.627    72231.348    -51.50144    42.615157 
164308000    335.75522    633.19476    231.42936    -72228.28    72233.854     401.7654    42.619376 
164312000      287.131    471.24374    286.05684   -72231.694    72260.689     185.1869    42.623034 
164316000    318.97369    163.60145    767.78007   -72251.421    72266.021   -604.17861    42.607691 
164320000    231.85536    255.64211     205.3894     -72248.8    72287.066    50.252709    42.605977 
164324000    251.87136    245.70642    1061.4013   -72240.891    72279.916   -815.69489    42.587912 
164328000    258.56352    466.22265    164.51026   -72243.506    72274.619     301.7124    42.578892 
164332000    275.98035    422.79249     750.5859   -72249.305    72269.887   -327.79341    42.575569 
164336000    268.31766    845.98257    249.97673   -72247.054    72276.188    596.00584    42.584556 
164340000    295.00447    1181.6844    424.14281   -72273.837      72289.4    757.54163     42.57812 
164344000     297.1801    394.25607    601.01549   -72270.812     72297.27   -206.75942    42.577838 
164348000    297.95967    482.38458    359.09705   -72306.861    72321.453    123.28753    42.577873 
164352000    313.84384    677.57956    594.16118   -72318.376    72330.647    83.418383    42.570613 
164356000    268.84877    539.17161    630.83682   -72321.145    72345.001    -91.66521    42.578067 
164360000    281.44104    274.49938    319.26479   -72321.879    72343.151   -44.765413    42.578044 
164364000    316.64087    233.88963    629.24675   -72326.361    72339.313   -395.35711    42.581028 
164368000    293.14061     556.2233     390.0367   -72331.471    72345.306     166.1866    42.583374 
164372000    276.25202    806.18542    215.67181   -72338.649    72350.087    590.51361    42.592861 
164376000    286.80376    346.61374    785.66021   -72317.902     72342.81   -439.04647    42.597022 
164380000    295.29215     224.9033    515.73391   -72323.025     72348.12   -290.83061    42.598451 
164384000    278.13195    389.33882    215.36297   -72353.494    72368.961    173.97585    42.601951 
164388000     277.0522    506.68706    302.22513   -72367.052    72382.328    204.46194    42.597252 
164392000    257.93165    292.65533    85.030437   -72383.334    72416.623    207.62489    42.605929 
164396000    282.56486    1175.1211    443.86887   -72399.638    72425.742    731.25224    42.603281 
164400000    244.31605     503.1286    485.92152   -72398.865    72427.595    17.207071    42.633569 
164404000    273.56005    496.73237    381.22329   -72399.965    72428.784    115.50908    42.626908 
164408000    297.95254    519.68262    485.19842   -72420.523    72442.174    34.484191    42.628713 
164412000    270.27026    243.20629    621.90466   -72397.049     72434.17   -378.69837    42.629832 
164416000    273.01025     608.9633    178.91431   -72413.229    72446.772    430.04899    42.636405 
164420000    271.29988    660.69579    265.57879   -72434.252    72463.363    395.11701    42.634059 
164424000     279.6395    306.13173    644.54577   -72433.355     72463.97   -338.41404    42.630152 
164428000     255.5367    637.66971    602.34587   -72430.654    72462.756    35.323838    42.631331 
164432000     254.3188    501.84106    599.98591    -72426.76    72461.829    -98.14485    42.634732 
164436000    307.88791    183.13796    249.50383   -72441.323    72466.239    -66.36587    42.626042 
164440000    309.08633    432.67741    374.78756   -72458.611    72490.463    57.889856    42.623642 
164444000    273.06691    152.74905    432.93057   -72482.045    72513.947   -280.18152    42.618282 
164448000    281.06163    893.63368    460.79711    -72504.36    72525.321    432.83658    42.630746 
164452000     279.7245    695.91651    366.71249   -72507.418    72540.627    329.20402    42.620071 
164456000    271.15375    475.28916    119.17795   -72516.745    72551.759    356.11121    42.615743 
164460000    304.12641    426.66078    177.12189   -72541.808    72562.452    249.53889    42.618985 
164464000    268.69002    509.39738     352.4003    -72545.69    72579.432    156.99708    42.620558 
164468000    284.39208    482.52507    810.19477   -72552.075    72576.264    -327.6697    42.620505 
164472000    285.74383    231.74117    839.23548   -72545.589    72576.475   -607.49432    42.616013 
164476000    278.90943    756.00099    316.71628   -72573.386    72596.497    439.28471    42.618247 
164480000     277.3565    626.05156    584.14872   -72575.545    72603.263    41.902837    42.620315 
164484000    285.78011    576.73722    324.70152   -72594.611    72616.672     252.0357    42.620665 
164488000    297.49388    492.92568     601.2604   -72617.183    72635.401   -108.33472    42.616392 
164492000    285.65052    622.43615    145.35414   -72598.205    72617.349    477.08201     42.61394 
164496000    270.52137    268.58095    621.50694   -72613.518    72634.016   -352.92599    42.614054 
164500000    299.14772    431.99824    529.90536   -72641.172    72645.946   -97.907116    42.618743 
164504000     242.1422      207.724    536.46791   -72634.027    72663.524   -328.74391     42.62598 
164508000     323.1742    813.91394    822.65686   -72637.583    72662.357   -8.7429209     42.63042 
164512000    298.43767    273.54712    317.47868   -72659.847    72686.136   -43.931557    42.625291 
164516000    331.57739    1134.5313     185.3441   -72668.282     72679.77    949.18719    42.627463 
164520000    308.05459    428.72526    710.12695   -72659.645    72686.986   -281.40169    42.630984 
164524000    273.94149    1050.1773    262.48685   -72676.203    72697.048    787.69043    42.634337 
164528000     287.0994    734.78998    235.02339   -72696.043    72725.376    499.76658    42.627278 
164532000    268.10827    1198.1162    680.13408   -72692.564    72726.592    517.98209    42.626119 
164536000    264.99151    724.11737    266.23686     -72738.2    72753.425     457.8805    42.624496 
164540000    293.96948    591.60851    351.30466   -72741.716    72772.781    240.30386    42.623446 
164544000    317.62652    811.39672    514.48003   -72775.844    72779.853    296.91668    42.625067 
164548000    278.89924    1189.1055     491.0736   -72778.708    72795.743     698.0319    42.630291 
164552000    285.78494    333.53388    230.37731   -72773.153    72796.189    103.15657    42.634025 
164556000    284.52041    295.82725    806.72772   -72797.774    72809.581   -510.90047    42.631657 
164560000    335.46876    545.76857    808.09768   -72820.528    72827.462   -262.32911    42.631957 
164564000    300.47176    547.09108    611.02806   -72823.488    72838.438   -63.936983     42.64321 
164568000     280.4037    575.43155    1063.4537   -72826.342    72853.192   -488.02212    42.645895 
164572000    247.66117    303.18956    246.78469   -72842.097    72866.673    56.404878    42.638825 
164576000    318.21801    161.70155    655.66587   -72851.671    72872.931   -493.96431    42.630052 
164580000    256.68262    519.30691    234.36172   -72860.453    72890.797    284.94519    42.627117 
164584000    267.58581    689.69282    375.19201   -72869.844    72904.644    314.50081    42.629103 
164588000    274.54467     577.6058    745.79224   -72888.414    72918.842   -168.18645    42.624477 
164592000    294.62426    844.01999    460.89478   -72897.499    72922.022    383.12521    42.617773 
164596000     280.1252    755.95735    672.91499   -72900.706     72927.55    83.042357     42.62264 
164600000    263.90238    355.47648    350.28826   -72923.057    72950.668    5.1882257     42.62585 
164604000    244.16619    465.71405    173.23401   -72924.451    72960.179    292.48004    42.634811 
164608000    266.56008    592.91979    445.74166   -72950.678    72975.204    147.17813    42.640928 
164612000    264.60445    209.00926    304.02106    -72968.82     72986.07   -95.011805    42.644168 
164616000    295.17652    365.57924    857.31187    -72974.37    72985.945   -491.73263    42.636363 
164620000    275.64799     202.7443    605.43709   -72971.608    73000.571   -402.69279    42.627637 
164624000    270.98335    517.17467    638.64427   -72970.749    73004.797    -121.4696    42.624907 
164628000    300.34684    607.73112    418.95723   -72985.103    73011.146    188.77389    42.626295 
164632000    276.50732    146.16437    490.13496   -73009.498    73029.473   -343.97059    42.627217 
164636000    287.31219    437.01306    376.06105   -73015.755    73028.034     60.95201    42.622318 
164640000    287.70544    407.34385    63.881836   -73025.181     73038.11    343.46202    42.622826 
164644000    303.77683    335.52733    157.80175   -73034.468     73059.43    177.72558    42.617218 
164648000    302.97565    454.34131    376.42905   -73062.846     73070.96    77.912265    42.608526 
164652000    293.01952    500.92394    639.98954   -73051.547    73062.033   -139.06559    42.596875 
164656000    289.45785    837.64459    669.83875    -73048.91    73075.529    167.80584    42.587897 
164660000    276.80879    353.16058    403.04161   -73047.773    73080.744   -49.881028    42.570511 
164664000    267.62761    1318.5086    477.13022   -73078.796    73108.005     841.3784    42.581648 
164668000    272.52956    407.26393    446.16042   -73078.089    73114.556    -38.89649    42.587579 
164672000    283.73012    609.61041    486.25268   -73098.811    73123.813    123.35773    42.588323 
164676000    301.32029    423.13767    177.41885   -73107.045     73121.93    245.71882    42.577641 
164680000    284.95279    1036.8846    314.02269   -73117.979    73135.033    722.86186    42.578511 
164684000    286.10345    185.53083     204.6025       -73134    73148.972   -19.071674    42.591638 
164688000    285.59055    792.45634    245.56266    -73152.58    73174.859    546.89368    42.611687 
164692000    267.22722    190.48867    477.45376   -73159.297    73194.317   -286.96508    42.611247 
164696000    261.24344    272.37787    378.99715   -73173.954    73206.417   -106.61928    42.622781 
164700000    258.93874    363.43943    529.30284   -73194.012    73225.741   -165.86341    42.627644 
164704000    299.78694    351.01834    345.37275   -73222.374    73246.731    5.6455814    42.634911 
164708000    288.19236    504.41399    229.39727   -73223.092    73241.666    275.01672    42.628105 
164712000    245.79043    375.83072    343.20475   -73225.334     73250.47    32.625962    42.627084 
164716000    254.18078    497.52673    237.93037   -73246.257    73279.711    259.59636    42.636189 
164720000      287.158    522.04554    470.21137   -73242.522    73275.655    51.834163    42.641695 
164724000     311.7813    488.90623    620.44987   -73246.616    73268.022   -131.54364    42.642734 
164728000    261.69239    649.96308    574.31283   -73251.119    73284.965    75.650255     42.63916 
164732000    291.00924    342.85546    504.54708   -73266.349    73280.259   -161.69161     42.65219 
164736000    294.86596     379.9312    708.30804   -73267.246    73301.857   -328.37684     42.65463 
164740000    285.01656    489.20628    245.54846   -73287.703    73317.819    243.65781    42.641161 
164744000    285.05352     930.1117     143.1859   -73310.561    73339.471    786.92581    42.644047 
164748000    283.67076    418.71766    687.03275   -73342.692    73351.218   -268.31509     42.65907 
164752000    306.16136    642.25345    422.02823    -73360.56    73363.469    220.22522    42.652334 
164756000    319.28754    710.62168    968.95587   -73360.985    73388.416   -258.33419    42.649027 
164760000    278.02787    288.81212    204.11065    -73368.38    73384.552     84.70147    42.643364 
164764000     299.0727    520.75915    303.23705   -73389.956    73391.813     217.5221    42.644394 
164768000    297.90976     690.4268    396.13299   -73398.735    73419.981    294.29381    42.643823 
164772000    287.19899    311.18082    210.67591   -73417.283    73424.978     100.5049    42.646817 
164776000    285.45421      382.792    120.42125   -73417.402    73440.541    262.37075    42.641618 
164780000    307.99383    245.37605     543.7139   -73418.869    73447.405   -298.33786    42.633108 
164784000    298.77953    542.48978    624.44682   -73427.159    73447.928   -81.957032    42.621462 
164788000    280.01265    533.09421    784.22626   -73461.909    73487.425   -251.13205    42.621907 
164792000    253.96523    404.41877    169.91896    -73468.86    73497.434    234.49981    42.610078 
164796000    263.19415    257.87035    464.89786   -73473.239    73493.758   -207.02751    42.592839 
164800000    265.79369    466.74624    159.43071   -73474.002    73500.586    307.31553    42.590387 
164804000    275.28414     493.2473    201.19734   -73483.888     73505.76    292.04996    42.607147 
164808000    305.48532    402.93553    236.02061   -73482.361    73502.028    166.91492    42.618771 
164812000    289.24073    455.96548    424.34384   -73499.535    73527.936    31.621639    42.622387 
164816000    268.08466    442.00796    489.07642   -73516.965    73532.882   -47.068461    42.637504 
164820000    270.68659    642.37141    336.37141   -73531.995    73556.172          306    42.635577 
164824000    253.02632     144.1036     502.0919   -73540.932    73578.656   -357.98831    42.623267 
164828000    248.39466    388.73491    471.14729    -73564.35    73594.499   -82.412388     42.63952 
164832000    302.86275    312.44312    341.74414   -73580.867    73594.453   -29.301019    42.628178 
164836000    289.48221    509.39314    288.23792   -73584.911    73611.578    221.15522    42.631825 
164840000     310.5649    721.21228    306.69578   -73598.128    73607.921     414.5165    42.637017 
164844000    285.08528    495.74802    206.20566   -73583.602    73620.962    289.54236    42.626312 
164848000    286.87356    963.95634    196.74142    -73602.52    73628.008    767.21492    42.631962 
164852000    305.47304    571.79252    371.20456   -73605.962    73631.584    200.58796    42.627699 
164856000    258.84262    366.02965       344.84   -73604.333    73637.367    21.189656    42.628606 
164860000    290.43334    194.58001    168.34228   -73631.632    73636.736    26.237731    42.638109 
164864000    280.47151     280.4889     216.7028   -73644.968    73664.542    63.786099     42.63634 
164868000    296.32827    393.31116     548.1584   -73650.025    73651.294   -154.84724    42.646625 
164872000    282.28857    142.96576     652.0481   -73638.131    73658.474   -509.08234    42.659703 
164876000     259.3702    580.21985    388.69995   -73648.031    73673.385     191.5199    42.665096 
164880000     273.6218    451.97581    490.07927   -73658.759    73690.972   -38.103459    42.662353 
164884000     268.3102    525.51708    165.58579   -73669.431     73692.54    359.93128    42.660417 
164888000    262.32746    419.38417    286.19064    -73672.27    73692.693    133.19353    42.658278 
164892000    296.55847    533.90461    490.63278   -73676.294     73700.18    43.271831    42.659375 
164896000    289.01346    904.21764    1023.2064   -73689.447    73709.712   -118.98877    42.650911 
164900000    259.97096    443.68888    243.72366   -73693.943    73723.401    199.96522    42.649705 
164904000    278.99049    86.003148    339.87853   -73707.536    73735.898   -253.87538    42.655427 
164908000    291.71064    532.99348    655.67041   -73719.995    73745.647   -122.67693    42.643256 
164912000    289.99752    212.41866     279.3876   -73733.512    73759.403   -66.968936     42.64872 
164916000    279.93662     452.7395     153.7396   -73750.539    73773.241    298.99989    42.650683 
164920000    291.88176    370.92503    361.85146   -73760.667    73780.679    9.0735735    42.646193 
164924000    294.97682    266.18611    232.92427   -73771.616    73787.901     33.26184    42.637852 
164928000    293.34106    872.00103    555.11612   -73788.161    73795.503    316.88492    42.632904 
164932000    270.26951    419.81389    189.79774   -73792.773    73823.631    230.01615    42.628845 
164936000     232.9813    521.84968    217.26343   -73791.577    73835.771    304.58625    42.623353 
164940000     297.3994    270.03531    536.34164   -73820.574    73840.915   -266.30634    42.617331 
164944000    312.17734    236.28543    737.51214   -73835.134    73843.152   -501.22672    42.626453 
164948000    318.05316    356.07402    354.60896    -73833.54    73852.065    1.4650673    42.633892 
164952000    287.14939     415.9164    743.21106    -73855.09     73885.95   -327.29465    42.628599 
164956000    312.95294      540.232    311.97858   -73884.208    73896.345    228.25342    42.642864 
164960000     286.6513    411.75646    476.29371    -73899.44    73924.882   -64.537253    42.639528 
164964000    234.07714    115.96952    362.67537   -73887.629    73925.266   -246.70586    42.644106 
164968000    294.32192    1091.1421    534.03112   -73903.959    73929.982      557.111    42.637348 
164972000    291.79751    544.93022    223.00071   -73913.703    73931.765    321.92951    42.644838 
164976000     305.2922    266.32883    323.68158   -73930.503    73949.505   -57.352748    42.639448 
164980000    256.13321    233.31751    291.46185   -73942.855    73973.534   -58.144344    42.632789 
164984000    318.26981    608.10519    602.53205   -73968.883    73984.458    5.5731389    42.634705 
164988000    298.87461    790.31824     331.6039   -73959.592    73980.194    458.71433    42.633377 
164992000     279.5108    546.50138    603.98739    -73971.59    73998.392   -57.486014    42.633677 
164996000     271.6589    489.43346    368.23071   -73986.066    74020.948    121.20274    42.640463 
165000000    314.44723    560.34417    572.75556   -74015.836    74028.308   -12.411386    42.642064 
165004000    269.44727    436.89991    477.86845   -74031.362    74068.223   -40.968543    42.637381 
165008000    279.66145    404.31311    368.77183   -74042.908    74057.284    35.541285    42.630559 
165012000    280.32567    724.72391    285.07296   -74046.555    74081.393    439.65095    42.627238 
165016000    245.79724    173.44534    541.19279   -74057.825    74097.028   -367.74745    42.618507 
165020000    260.40488    390.10638    705.56136   -74062.573    74082.299   -315.45498    42.626149 
165024000    295.01215    673.31947    798.78755   -74070.154    74093.506   -125.46808    42.619603 
165028000    291.73604    492.44636    666.53051   -74076.588    74105.753   -174.08415    42.633856 
165032000    328.45287    883.31793    191.76455   -74104.704     74106.26    691.55338    42.633611 
165036000    264.52271    229.97166     382.0247   -74095.933    74114.558   -152.05304    42.632046 
165040000    274.01157    287.39584    681.34384   -74113.855    74142.949     -393.948    42.634033 
165044000    311.07559    165.82499    358.60923   -74145.709    74164.721   -192.78424    42.632615 
165048000    309.27207    556.28899    599.65075   -74154.941    74166.493   -43.361763    42.633054 
165052000    273.11068    812.79828    293.90736   -74133.083    74169.374    518.89092    42.615903 
165056000    298.65677    594.67338    394.56718   -74150.661    74179.468    200.10621    42.601485 
165060000    273.11372    433.36058    406.99991   -74149.266    74180.485    26.360669    42.609886 
165064000    335.10519    182.57386    913.38769   -74159.826    74167.151   -730.81383    42.603531 
165068000    294.10695    634.06417    239.54346   -74159.467    74169.665    394.52071    42.614771 
165072000     294.5972    362.23053    495.37604   -74166.732    74195.913   -133.14551    42.608214 
165076000    229.26199    270.53838    384.85933    -74184.01    74223.445   -114.32095    42.617286 
165080000    296.88385    266.19674    219.25648   -74191.005    74210.308    46.940263    42.617172 
165084000    293.34315    900.91279    618.36706   -74191.249     74208.24    282.54573    42.618544 
165088000    259.69129    312.01258    242.05092   -74186.443    74219.544    69.961662    42.615574 
165092000    255.73255    531.78328    754.86685   -74198.623    74234.033   -223.08357    42.614846 
165096000    259.44873    324.35372    372.68263   -74205.395    74229.085   -48.328903     42.60595 
165100000    262.05113     681.8027    405.45133   -74203.972    74243.656    276.35137    42.600815 
165104000    282.34882    732.39282    522.17078   -74218.358    74245.058    210.22203    42.596491 
165108000    291.01297    304.68289    326.18717    -74221.73    74245.478   -21.504281     42.58573 
165112000    326.42571    277.20763     451.2856   -74252.962    74259.804   -174.07797    42.580735 
165116000    296.08256    109.76659    483.28188   -74257.277    74277.421   -373.51529    42.573105 
165120000    285.64105    235.61973    448.01784   -74259.134    74283.117    -212.3981    42.567377 
165124000    286.12609    602.73192    353.86806    -74256.35     74273.16    248.86386    42.560566 
165128000    263.46739    258.31358    181.60363   -74270.905    74282.912    76.709942    42.568938 
165132000    332.98703    484.16471    312.02185   -74278.474    74291.172    172.14286     42.57238 
165136000    244.62428    361.20549    305.17784    -74277.94    74309.225    56.027646    42.571527 
165140000     262.7885    331.46057     704.1291   -74274.465    74307.497   -372.66853    42.579524 
165144000    318.76868    858.43546    268.46569   -74296.135    74306.276    589.96977    42.583691 
165148000    277.28386    738.15856    432.48391   -74303.332    74319.274    305.67465    42.589877 
165152000    315.71167    498.47408    558.97369   -74311.062    74321.271   -60.499607    42.597356 
165156000    259.10223    527.16848       169.49   -74332.625     74350.86    357.67849    42.601746 
165160000    286.89114    167.74283    299.12656   -74352.893    74371.906   -131.38373     42.60186 
165164000    302.05398    332.85179    564.65455   -74360.203    74377.636   -231.80275    42.600215 
165168000    333.73445     755.8853    567.11466   -74376.076    74399.744    188.77064    42.596371 
165172000    282.87367    66.621433    533.23135   -74371.052      74402.2   -466.60992    42.588763 
165176000    295.66338    243.76509    521.30569   -74376.728    74387.843    -277.5406    42.588593 
165180000    277.09001    269.41842    520.93695   -74362.081    74394.921   -251.51852    42.577912 
165184000    293.67599    351.37621    590.87732   -74377.659    74405.358   -239.50111    42.570128 
165188000    321.47556    844.67384    233.57038   -74394.452    74410.535    611.10346    42.570051 
165192000    308.51956    802.51433    359.15193   -74419.034    74434.787    443.36241     42.56892 
165196000    293.84118    188.01403    276.30663   -74438.828    74447.227   -88.292594     42.57186 
165200000    244.29631    944.24329    257.87668   -74436.125    74467.937    686.36661    42.575867 
165204000    258.36017    509.48691    235.61719   -74437.887    74469.256    273.86973    42.573579 
165208000    287.82942    697.00488    544.50042   -74439.557    74457.483    152.50446    42.572307 
165212000    290.09486    408.65492    238.34152   -74436.317     74451.91     170.3134    42.567618 
165216000     295.6298     331.2566    835.85536   -74451.012    74473.147   -504.59876    42.558075 
165220000    252.57978    512.24047    357.98527   -74456.229    74483.021    154.25519    42.557525 
165224000    301.83137    674.69021    421.73615    -74467.33    74483.948    252.95405    42.561105 
165228000    300.70727    327.59013    285.60363   -74466.844    74486.447    41.986504    42.564922 
165232000    287.26659    312.06086    190.89418   -74481.849    74515.652    121.16669    42.561538 
165236000    312.70658    335.62212    347.91596   -74495.716     74507.26   -12.293836     42.55909 
165240000    317.77351    410.71964    426.18098   -74501.192    74514.098   -15.461344    42.550159 
165244000    255.53166    335.09954    820.19412   -74509.177    74541.984   -485.09458    42.545855 
165248000    276.73423    399.46796    646.19435   -74518.114    74546.541   -246.72638    42.548733 
165252000     286.5682    441.61805    771.66829   -74542.252    74561.134   -330.05024    42.545596 
165256000    331.03971    905.14999     660.7515    -74555.98    74573.418    244.39849    42.537259 
165260000     261.5594    752.06133    384.38523   -74570.071    74596.581    367.67611    42.539946 
165264000    285.00982    468.34599    469.04437   -74574.321    74606.783  -0.69837601     42.53742 
165268000    272.28558    539.61339     449.9437    -74585.09    74608.604    89.669692    42.542359 
165272000    302.84474    812.26423    581.68509   -74602.074    74612.933    230.57915    42.538747 
165276000    272.39901    662.29569    361.58885   -74593.231    74623.137    300.70684    42.544984 
165280000    277.02552    363.02592    476.78436   -74603.094    74628.414   -113.75845    42.541996 
165284000    272.12903    405.17627    562.15695   -74607.201     74641.76   -156.98067    42.542211 
165288000    247.47425     122.0182     255.0785   -74636.889     74659.11    -133.0603    42.539703 
165292000    246.23946    208.40429    60.636176   -74636.096    74668.025    147.76812    42.530395 
165296000    292.82612    836.42423    352.08329   -74658.119    74677.036    484.34094    42.519385 
165300000    273.47006    298.65691    1010.6971    -74657.97    74685.341   -712.04018    42.515935 
165304000    305.12895    661.09334    330.12742   -74681.164    74693.406    330.96592    42.518942 
165308000    313.96183    1027.3707    236.27184   -74689.859    74692.059     791.0989    42.532114 
165312000    266.63486    349.21648    257.71421   -74685.871    74715.247     91.50227    42.543764 
165316000    242.25328    379.53288    117.59592   -74709.704    74738.296    261.93696    42.540868 
165320000    260.59464    741.26439    286.11414   -74723.913    74747.068    455.15025    42.550769 
165324000    331.05041    620.42765    748.52865   -74752.742    74770.885     -128.101    42.553935 
165328000    314.84231    869.91306    739.33896   -74776.913    74784.489    130.57411    42.544468 
165332000    313.75092    515.83542    145.19074   -74785.903    74801.278    370.64468    42.552098 
165336000    276.71035    152.96517    333.74201   -74795.429    74819.373   -180.77683    42.544829 
165340000    322.73156    586.88293    72.328087   -74812.335    74826.027    514.55484    42.558542 
165344000    303.29701    301.45404    292.74033   -74821.445    74848.208    8.7137085    42.556732 
165348000    270.69679    198.71687    652.77034   -74813.857    74838.731   -454.05347    42.551278 
165352000     295.6135    688.31466    640.16277   -74837.625    74860.696    48.151887    42.545069 
165356000    291.40173    288.12252    345.64027   -74851.278    74872.582   -57.517749    42.535877 
165360000    294.01958    519.72737    395.27964   -74852.201    74882.866    124.44773     42.53583 
165364000    292.51102    1100.6111    699.27571   -74882.652    74899.561    401.33535    42.538755 
165368000    254.02107     336.4354    188.05799   -74898.593    74931.701    148.37741    42.542099 
165372000    258.17738    249.66837    203.59821   -74903.748    74931.921    46.070159    42.541351 
165376000    310.76436    287.91261     726.0627   -74916.413    74939.999   -438.15009    42.535258 
165380000    236.97687    289.73659    676.35045   -74902.337    74937.026   -386.61386    42.529715 
165384000    260.87612    426.06423    384.05113   -74909.227    74942.299    42.013103    42.525314 
165388000    294.13809    605.16113    338.88808   -74938.145    74958.311    266.27305    42.520021 
165392000    294.52307    841.24087    540.97795   -74961.691    74978.699    300.26292    42.523264 
165396000    309.52558    452.53564    325.57921    -74958.36    74991.053    126.95643    42.532752 
165400000    266.74784    253.48045    301.38878   -74988.873    75018.933   -47.908331     42.53826 
165404000    280.47758    545.33984    283.98337   -74987.555    75010.111    261.35648    42.531123 
165408000    274.28428    270.85024    167.82682   -74982.327    75018.837    103.02343    42.538524 
165412000    330.03796    427.40793    334.26597   -75005.079    75004.032    93.141959    42.542527 
165416000    278.41614    226.13059    380.88724   -75005.682    75021.102   -154.75665    42.542087 
165420000    250.87206    328.14756    308.17971   -75003.161    75034.411    19.967848    42.538409 
165424000    333.80221    660.56847     729.2917   -75016.907    75023.738    -68.72323    42.531698 
165428000     301.9536    536.21657    385.35657   -75008.437    75027.888       150.86    42.532895 
165432000    332.34497    429.40198    491.34167   -75022.949    75030.784   -61.939687     42.52998 
165436000    289.82641    683.20025    214.09892   -75016.272     75034.08    469.10133     42.53537 
165440000    275.58101    784.61767    365.19232   -75027.869    75044.168    419.42535    42.551659 
165444000    244.61198    280.65957    437.08049   -75023.558    75053.446   -156.42092    42.550606 
165448000    271.28568    218.85767    302.73816   -75040.092    75075.047   -83.880489    42.551668 
165452000    331.82944    347.14557    348.06735   -75072.952    75089.502  -0.92178144    42.546295 
165456000    288.25785    966.25599    536.39168   -75095.683    75121.786    429.86431    42.544892 
165460000    262.07874    694.73838    702.00195   -75099.713    75126.034   -7.2635695    42.540331 
165464000    269.16866    384.56566    250.16999   -75116.019    75132.268    134.39567    42.529594 
165468000     248.8925    482.43591    313.83906   -75123.017    75148.036    168.59685    42.522534 
165472000    268.18725    229.60167    729.40357    -75123.03    75151.767    -499.8019    42.522801 
165476000    275.09246    610.99455    417.70254   -75143.659    75162.578      193.292    42.521651 
165480000    282.36095    591.54032    90.722557   -75158.033    75184.887    500.81777    42.503448 
165484000    327.75988    276.24685    246.01518    -75173.14    75186.538    30.231674    42.507163 
165488000    294.37874    297.24475    427.09789   -75191.344    75214.249   -129.85315     42.50448 
165492000    324.29581    909.77517    943.61774   -75234.027    75246.302   -33.842572    42.503584 
165496000    286.40386    593.85296    546.09442   -75239.507    75266.462    47.758539    42.497961 
165500000    283.95568    823.52002    249.15851   -75265.985    75298.213    574.36152    42.507195 
165504000    317.78838    540.29217    272.60359   -75300.564    75301.367    267.68858    42.508495 
165508000     315.0206     811.8098    367.38345   -75314.454    75329.541    444.42635    42.507702 
165512000    310.63774    424.62571    609.49205   -75344.093    75353.842   -184.86634    42.517409 
165516000    269.46259      295.524      451.938   -75348.711    75375.989   -156.41401    42.510566 
165520000    288.55916    781.65274    538.42877   -75358.857    75385.788    243.22397    42.508078 
165524000    276.60806    637.61192    602.07996   -75377.991    75400.256     35.53196    42.503921 
165528000    257.11534    250.82484    480.89035   -75369.264    75405.825   -230.06551    42.502535 
165532000    258.94179    363.88935    218.49338   -75388.576    75431.605    145.39597    42.493109 
165536000    288.85649    405.55118    342.40901   -75408.048    75435.098    63.142172    42.492477 
165540000     275.3982    412.16328    470.82628   -75433.316    75449.657   -58.662994    42.492876 
165544000    282.83399    468.70109    388.69722   -75438.014    75465.265    80.003871    42.503541 
165548000    262.03044    293.05829    470.46183   -75465.632     75486.78   -177.40354    42.504018 
165552000     301.3436    318.05948    166.89735   -75481.136    75509.986    151.16213     42.51891 
165556000    254.45404    605.24699    386.24293   -75483.392    75504.307    219.00407    42.522379 
165560000    306.36083    395.97141    365.98264   -75495.991    75512.679    29.988774    42.523874 
165564000    290.04467    273.11234    219.28178   -75514.143    75544.914    53.830566    42.532145 
165568000    264.99751    242.82461     167.3424    -75513.57    75536.654    75.482209    42.522786 
165572000    249.18366    401.24369    569.08944   -75501.705    75538.151   -167.84575    42.525469 
165576000    340.44678    244.16005    406.82746   -75509.644    75515.546   -162.66741    42.519777 
165580000    261.20708    479.51186    236.97551   -75498.491    75538.386    242.53635     42.51349 
165584000    278.14778    583.59505    448.93273   -75520.481     75546.25    134.66232    42.525871 
165588000    263.11454    416.33078    737.57456    -75509.71    75546.502   -321.24378     42.51938 
165592000    295.82862    171.71714    255.06711   -75524.617    75545.202   -83.349973    42.516439 
165596000    233.80002    377.33464    488.37121   -75522.103     75564.44   -111.03657    42.513134 
165600000    308.38678     735.1056    223.83021   -75524.551    75546.247    511.27538    42.500172 
165604000    307.71772    613.27828    436.49623   -75530.121    75542.038    176.78205    42.508938 
165608000    341.56741    269.23236    393.74859   -75539.275    75547.149   -124.51623    42.516715 
165612000    331.02196     823.8748    281.00263   -75558.028    75573.172    542.87217    42.522166 
165616000    339.45735    326.98588    168.13408   -75586.295     75585.57    158.85181    42.522038 
165620000    300.13659    357.24242    301.98067   -75588.135    75612.647    55.261751    42.525626 
165624000    254.58183    402.20255    425.49838   -75595.541     75625.28   -23.295835    42.525381 
165628000    286.65407     562.8974    351.74071   -75611.156    75641.871    211.15669    42.533172 
165632000    330.91043    227.37415    1230.5241    -75631.52    75648.697   -1003.1499    42.515421 
165636000    273.07774    438.96985    351.99007   -75633.981    75661.507     86.97978    42.527394 
165640000    253.59256    576.96489    300.98746   -75636.225    75668.686    275.97743    42.534036 
165644000    299.58508      988.056    386.46481   -75646.761    75664.671    601.59119    42.538226 
165648000    309.57258    823.89843    326.29084   -75663.329    75670.172    497.60759    42.546275 
165652000    236.65064    269.43286    281.28391   -75646.872     75687.61   -11.851052     42.53505 
165656000    251.57333    587.42773    193.36783   -75657.189    75695.015    394.05989    42.541021 
165660000    292.45275    752.76745    60.001234   -75680.283     75695.36    692.76622    42.531492 
165664000    293.89278    289.85373    815.30431   -75678.395    75708.302   -525.45058    42.528383 
165668000    293.99969    880.22536      580.679   -75704.753    75733.196    299.54636    42.534426 
165672000    322.88298    603.58126    517.21114    -75695.85    75718.102    86.370118    42.541124 
165676000    265.48211    571.83187    421.59263   -75693.834    75732.085    150.23923    42.537473 
165680000    290.89483    315.80088    454.97266   -75704.719    75726.522   -139.17179    42.537703 
165684000    297.46584    386.71011    333.20363   -75704.522    75735.738     53.50648    42.537623 
165688000    252.87452    243.17421    301.15515   -75689.615    75732.158   -57.980937    42.531087 
165692000    268.54803    599.55786    376.27363   -75700.362    75731.954    223.28423    42.530232 
165696000    238.50859     377.0804    510.93318   -75707.091    75733.221   -133.85278    42.525071 
165700000    305.17587    1112.8251    82.294653   -75730.386    75745.871    1030.5304    42.525028 
165704000    258.68192    368.86449     428.7497   -75738.573     75763.03   -59.885205    42.524202 
165708000    290.68728    429.42201    177.47118   -75762.951    75785.133    251.95082    42.525475 
165712000    264.38312    363.18828    555.37257    -75770.77    75812.189   -192.18429    42.524382 
165716000    269.44181    472.29043    415.84519   -75795.028    75827.071    56.445231    42.523337 
165720000    290.94458    304.48592    199.64613   -75818.328    75840.916    104.83979    42.517918 
165724000    250.75869    309.05028    276.07746    -75828.23    75871.704    32.972817    42.518201 
165728000    292.27376    271.69857    381.57261   -75829.239    75865.232   -109.87404    42.511511 
165732000     269.8852    516.28196    495.26968    -75855.76    75882.333    21.012278     42.51684 
165736000    292.46008    335.41474    394.40147   -75865.304     75876.99    -58.98673    42.521309 
165740000    292.40897    645.69833    246.89838   -75861.649    75874.962    398.79995    42.512798 
165744000    254.13932    667.56436     328.8192   -75881.726      75915.5    338.74516    42.511486 
165748000    251.19339     215.6313    445.06775   -75902.063    75933.471   -229.43646    42.514918 
165752000    300.05871    933.38843    814.23569   -75907.017    75944.242    119.15274    42.520726 
165756000    259.94041     301.3856    222.37423   -75912.355    75952.998    79.011367    42.513416 
165760000    330.37078    494.40721    145.14453   -75928.493    75942.075    349.26268    42.510784 
165764000    271.53349    123.11004    304.16193   -75929.176    75950.388   -181.05189    42.509392 
165768000    254.23317    193.27009    360.62477   -75937.623    75970.845   -167.35468    42.501368 
165772000    292.76714    913.29516     335.1837   -75944.411     75967.71    578.11146    42.507887 
165776000    283.15786    302.79026    414.24043   -75955.356     75975.14   -111.45017    42.511435 
165780000    289.58606    672.46465    468.16844   -75956.985    75984.183    204.29622    42.512915 
165784000    277.49029    476.42485    155.05399   -75965.493    75996.028    321.37085    42.515803 
165788000    285.49248    926.90709    752.55939   -75973.208    75996.734     174.3477    42.521011 
165792000    287.96757    521.97995    522.11908   -75976.841    76000.547  -0.13913343    42.516868 
165796000    300.15048    491.45381    454.17358   -75989.426    76014.906    37.280236    42.520075 
165800000    284.23735    634.30091    942.49444   -75991.162    76018.827   -308.19353    42.512306 
165804000    285.12908    577.28641     263.6435   -76013.116    76035.804    313.64291    42.507496 
165808000    310.17223    498.88131    209.46355   -76018.771    76034.741    289.41775    42.507271 
165812000    335.57043    322.54245    427.62227   -76035.916    76050.154   -105.07982    42.506782 
165816000    262.21374    505.01823    562.07402   -76024.763    76050.418    -57.05579    42.505844 
165820000    249.49371    1045.1741    403.40717   -76035.358    76063.125    641.76691    42.501174 
165824000    252.52933    235.63311    211.47316   -76041.293    76072.015    24.159951    42.488262 
165828000    289.23026    559.33878    311.29547    -76050.09    76076.225    248.04331    42.493341 
165832000     314.8269    300.49978    407.43622   -76065.487    76080.952   -106.93644    42.499704 
165836000    267.06093    492.31479    168.93658   -76083.235    76114.086    323.37821    42.494876 
165840000    264.60047    279.58633    591.16525   -76095.878    76118.522   -311.57892    42.466562 
165844000    295.82893    491.29359    255.07436   -76098.724    76124.762    236.21923    42.465096 
165848000    269.11758    661.62648    603.65156   -76096.753    76123.659    57.974915    42.460458 
165852000    277.66427    723.44558    802.49192   -76112.202    76141.482   -79.046333    42.460527 
165856000      296.114    690.90851      454.576   -76133.698    76158.096    236.33252    42.451254 
165860000    309.69794    251.65146    181.14539   -76151.784    76160.759     70.50607    42.454396 
165864000    259.85669    426.96258    359.42362   -76145.251    76173.312    67.538953    42.457354 
165868000    288.07731    336.43655    518.87756   -76148.438    76176.096   -182.44101    42.449834 
165872000    269.36041    562.69057    248.46899   -76173.334     76194.93    314.22158    42.450786 
165876000    262.65522    777.22751    400.96411   -76162.859    76194.832     376.2634    42.450209 
165880000    274.45512    262.00319    574.33973   -76190.945    76206.261   -312.33655    42.446504 
165884000     252.5224    245.49649    330.63684   -76195.123    76223.669   -85.140353    42.449885 
165888000    283.42901    972.32359    574.96435   -76213.032    76227.674    397.35924    42.452407 
165892000    290.00579    584.95124    492.31813   -76212.918    76245.926    92.633111    42.456999 
165896000    262.65465    385.46016    385.71854   -76227.803    76259.041  -0.25837806    42.450145 
165900000    231.67913     495.8285    146.24234   -76229.814    76265.372    349.58616    42.459906 
165904000    299.04952    1143.9362    619.13483   -76237.814    76262.233    524.80136    42.456114 
165908000    309.65918    676.95265    302.74779   -76261.524    76281.857    374.20486    42.467614 
165912000    289.57285     240.7587    309.51059   -76256.473    76285.337   -68.751896    42.467545 
165916000    271.76655    575.00852    336.12102   -76277.876    76305.537     238.8875    42.477498 
165920000    292.70913    540.27777    242.39782   -76282.424    76307.413    297.87994    42.474865 
165924000    274.16638    591.61881     325.8465   -76289.421    76316.238    265.77232    42.475296 
165928000    296.52285    336.83361    319.00609   -76295.942    76319.108    17.827521    42.471975 
165932000    335.28008    1085.2529    267.37829   -76299.853    76323.143    817.87457    42.485458 
165936000    289.80867    376.68566    731.29025   -76301.224    76317.799    -354.6046    42.491572 
165940000    286.48351    502.91745    429.59782   -76295.568     76323.47    73.319629    42.488112 
165944000    272.80789    928.21898     802.3489   -76304.698    76333.581    125.87008    42.495232 
165948000    259.42297    408.48102    561.15242   -76316.815    76350.521    -152.6714    42.483989 
165952000    273.35844    649.55664     153.1161    -76322.44    76362.875    496.44054    42.484879 
165956000    284.89151    501.00569    138.33481   -76346.277    76375.336    362.67088    42.489344 
165960000    315.56574    645.11401    247.52259   -76378.443    76379.184    397.59142    42.486799 
165964000    316.67068    1352.4992    100.66405   -76378.762    76406.325    1251.8351    42.488482 
165968000    269.31859    374.49196    605.46457   -76374.025    76404.652   -230.97261    42.480379 
165972000    325.82009    651.60792    619.06085     -76386.5    76396.771    32.547067    42.484369 
165976000    289.06345    766.36045    687.75877   -76381.867    76398.053    78.601672    42.485479 
165980000     252.3896     500.9236    330.52243   -76379.969    76412.325    170.40117    42.488468 
165984000    272.06113    380.92265    719.53253   -76389.306    76416.753   -338.60987    42.483843 
165988000    296.66346    594.14559     277.8578    -76407.33    76426.384    316.28779    42.498557 
165992000    256.17725    396.02721    363.56736   -76406.626    76442.742    32.459842    42.495044 
165996000    271.11514    876.83526    240.02677   -76419.014    76446.657    636.80849    42.491209 
166000000    255.85513    448.42098     404.7855     -76426.2    76461.117    43.635482    42.504165 
166004000    278.94383     457.8535    125.45644   -76443.548    76469.387    332.39706    42.498148 
166008000    306.84515    307.83025    184.10302   -76446.034    76470.952    123.72724    42.501629 
166012000    280.34545    219.97818    504.30932   -76452.629    76480.048   -284.33114     42.49996 
166016000    290.18165    872.09483    382.42139   -76467.635    76487.879    489.67344    42.508087 
166020000     294.1511     500.5746    170.26678   -76468.742    76501.711    330.30782    42.509239 
166024000    301.73844    131.31566    337.48596   -76489.723    76510.706    -206.1703    42.515233 
166028000    304.12787     623.7417    245.78539   -76506.247    76513.859    377.95632    42.511148 
166032000    273.49058    409.52416    294.37698   -76505.211    76522.399    115.14718    42.508424 
166036000    327.73875    467.58285     394.5305   -76522.243    76532.968    73.052349    42.510171 
166040000    292.66833    394.40904    373.75018   -76513.124    76546.051    20.658865    42.514402 
166044000    296.92098    300.80702    186.03137   -76524.401    76550.801    114.77565    42.513711 
166048000    305.33106      662.919    631.48841   -76537.389    76557.025    31.430586    42.496009 
166052000    268.73191    197.57502    382.38544    -76544.55    76564.915   -184.81042    42.496792 
166056000    283.26034    233.63402    575.64912   -76544.518     76577.59    -342.0151     42.49106 
166060000    265.55603    236.12107    271.88641   -76553.792    76583.921   -35.765336    42.498354 
166064000    247.23924    320.86006    594.66184   -76554.943    76570.747   -273.80178    42.495938 
166068000    282.49754      644.387    171.32577   -76549.543    76582.022    473.06123    42.499918 
166072000    286.73096    917.06503    588.92028   -76583.265    76600.735    328.14475    42.496075 
166076000    259.84198    493.61944    179.92761   -76577.502    76616.596    313.69183    42.491555 
166080000    303.38312    710.53614    609.33722   -76598.565    76614.982    101.19892    42.495452 
166084000    291.07212    657.34098    849.64332   -76593.522    76613.652   -192.30234    42.492622 
166088000    291.63361    437.05868    515.78884   -76615.859    76642.201   -78.730168    42.492218 
166092000    271.38467    182.57413    476.61299   -76615.992    76638.201   -294.03886    42.489122 
166096000    302.29434    556.85455    414.72877   -76619.331    76637.668    142.12578    42.492291 
166100000    307.22895    595.93896    569.90816   -76631.033    76653.279    26.030797    42.491425 
166104000    281.70515    714.18856    436.82722   -76652.121    76666.087    277.36134    42.487719 
166108000    277.75304    1302.9046    472.64083   -76672.395    76695.869    830.26373    42.498001 
166112000    273.26619    622.53902    341.56603   -76684.178    76702.121      280.973    42.490737 
166116000    312.76251    730.06471    790.84751   -76690.429    76718.474   -60.782801    42.499785 
166120000    292.29736    515.46143    530.43403   -76707.444    76731.583   -14.972596    42.503515 
166124000    329.30609    376.99443    1092.7718   -76725.333    76733.596   -715.77734    42.500132 
166128000    298.99143    169.31367    408.18752   -76727.605    76744.272   -238.87385    42.511533 
166132000    324.51388    1051.3206    262.31928   -76760.568    76769.158    789.00128    42.518277 
166136000    324.30872    495.62581    634.92531   -76751.891    76765.224    -139.2995    42.518826 
166140000    292.90813    355.40146    478.41471    -76770.84    76787.094   -123.01325    42.530589 
166144000    255.73825    280.01186    438.94013   -76753.096     76791.57   -158.92827    42.534982 
166148000    309.57178    278.12252     395.0858   -76760.776    76781.303   -116.96328    42.534313 
166152000    304.74929    524.11655     350.3741   -76760.811    76786.233    173.74245    42.534186 
166156000    301.47823    554.17149    728.83571   -76768.881    76791.149   -174.66422    42.541274 
166160000    265.23274    243.19932    235.22615   -76777.359    76809.175    7.9731676    42.544472 
166164000    251.33668    200.57532    301.48491   -76796.724    76818.889   -100.90959    42.554544 
166168000    290.08821    630.80094    264.77051   -76807.778    76836.703    366.03043     42.55831 
166172000    294.32201    711.94582    230.70626   -76819.307    76843.502    481.23956    42.555909 
166176000    272.50592    332.76809    391.70543   -76824.352    76856.914   -58.937337    42.562828 
166180000    277.11765    208.81545    210.78504   -76820.928    76851.695   -1.9695854    42.565221 
166184000    301.74624    397.57051    295.60391   -76855.192    76866.612     101.9666    42.560872 
166188000    280.11026    415.70015    103.55399   -76862.899    76898.352    312.14616    42.563425 
166192000    271.30234    360.63208    324.27866   -76864.316    76894.795    36.353421    42.564091 
166196000    290.46858    281.79907    398.28172   -76866.217    76902.239   -116.48265     42.57842 
166200000    250.72174    396.51707    289.16828   -76862.507    76893.316    107.34879    42.576635 
166204000    264.30851    225.92325    459.95992   -76865.722    76895.515   -234.03667    42.579467 
166208000    287.93484    588.76765    199.67576   -76869.651    76898.584    389.09189    42.578219 
166212000    274.77768    589.51294    275.64683   -76877.664    76910.973    313.86611    42.586804 
166216000    242.06633       140.03    200.60993    -76869.95    76916.372   -60.579933    42.582812 
166220000    252.50426    280.48035    241.93463    -76880.79    76924.409    38.545714    42.577705 
166224000    250.83484    286.71957    503.98903   -76912.082    76946.403   -217.26946     42.58501 
166228000    249.27349    454.00274    70.086791   -76912.666    76954.001    383.91595     42.58853 
166232000    285.69828    280.36273    321.17246   -76929.689    76944.243   -40.809731    42.582399 
166236000    279.33934    532.15428    430.78361   -76925.721    76951.122    101.37067    42.589286 
166240000    296.02491    602.30461    661.31115   -76933.229    76963.736   -59.006537    42.591056 
166244000     284.7989    191.64964    611.62604   -76935.408    76977.645    -419.9764    42.591675 
166248000    316.48325    702.28836    921.15735    -76955.54    76965.073   -218.86899    42.596423 
166252000    281.03851    495.80702    338.74753   -76957.709    76988.763    157.05948      42.5948 
166256000    275.81427    379.09495    404.27079   -76983.873    77004.706   -25.175839    42.596715 
166260000    325.43293    261.52984    309.81368   -77008.205    77015.823   -48.283836    42.601351 
166264000    292.99475     433.0168    415.34275   -76999.343    77017.098    17.674048    42.604404 
166268000    317.00238    722.63218    314.98314    -77043.19    77049.727    407.64904    42.592872 
166272000    295.87767    404.35977    550.09208   -77044.695    77056.801   -145.73232    42.595447 
166276000    333.64519    170.32294    442.72512   -77062.311    77059.121   -272.40218    42.591356 
166280000    276.33281    238.49336    843.82923   -77042.253    77061.517   -605.33587    42.593187 
166284000    322.80418    851.85676    628.92613   -77045.257    77063.693    222.93063    42.596005 
166288000    260.97476    564.01319    384.25775   -77035.202    77062.743    179.75544    42.591727 
166292000    298.51794    560.19635    378.93949   -77055.171    77084.333    181.25686    42.579329 
166296000    237.72825    338.48365    406.70996   -77064.797    77113.292   -68.226318    42.586046 
166300000    278.55939    158.47058    178.29137   -77068.573    77109.156   -19.820799    42.586213 
166304000    317.99053    502.42322    723.95238   -77092.285    77098.295   -221.52916    42.590513 
166308000    272.01394    430.79915    361.31233   -77086.479    77123.501     69.48682    42.586507 
166312000    294.90172    1068.1544    290.79089   -77113.642    77138.459    777.36356    42.578711 
166316000     298.3792    484.58068    309.43686   -77119.656    77133.765    175.14382    42.596131 
166320000    268.87066    677.54698    546.08508   -77115.367    77158.813     131.4619    42.596808 
166324000    308.96515    656.12797    254.63657   -77152.547    77162.161     401.4914    42.594767 
166328000    301.80282    575.24586    900.99343   -77169.731    77182.378   -325.74757    42.595208 
166332000    261.96147    360.68183     305.6138   -77168.151    77208.387    55.068024    42.594284 
166336000    274.18349    488.72709    702.83595   -77184.423    77221.317   -214.10886    42.589498 
166340000    251.34592    287.32945    438.35082   -77199.051    77229.436   -151.02137    42.594307 
166344000    266.15099    191.01104    300.93536    -77207.05    77245.557   -109.92431    42.603759 
166348000    300.12954    735.99299     657.3864   -77212.196    77247.813    78.606592    42.601285 
166352000    315.56124    524.20899     230.0729   -77240.849    77251.747    294.13609    42.593758 
166356000    256.80196    145.84098    202.64338   -77230.522     77255.02   -56.802404    42.586758 
166360000    285.19192    132.81787    205.73838   -77223.855    77249.269   -72.920505    42.583513 
166364000    262.01527    397.58463    393.22015    -77225.77    77257.929    4.3644848    42.583381 
166368000    247.12311    439.51673    447.10919   -77234.202    77259.243   -7.5924612    42.571766 
166372000    315.11684    717.14706    415.15836   -77247.385    77262.918     301.9887    42.569468 
166376000    278.91995     379.0175    262.54776   -77239.833    77270.824    116.46974    42.570738 
166380000    302.83316    940.61208    204.33689   -77237.351     77250.39    736.27519    42.573619 
166384000     271.4913    456.16255    210.31346   -77243.356     77271.08    245.84909    42.569588 
166388000    229.64926    234.75487    273.70537   -77236.883    77277.934   -38.950498    42.569559 
166392000    297.33645    458.85687    284.23519   -77259.178    77275.842    174.62168    42.573151 
166396000    308.52938    229.22225    651.00923   -77264.521     77283.89   -421.78698    42.576748 
166400000    260.84273     489.7178    272.52265   -77273.475    77316.074    217.19515    42.574452 
166404000    264.33776    254.87273    614.65114   -77288.669    77326.133   -359.77841    42.569701 
166408000    316.10001    478.16307    592.16532   -77311.989    77320.724   -114.00225    42.559858 
166412000    251.76102    804.61597    161.98287   -77310.907    77339.019     642.6331    42.570168 
166416000    316.26203     223.5001    240.61067   -77319.597    77343.084   -17.110567    42.576774 
166420000    303.83323    203.68103     277.7768   -77333.845    77350.628   -74.095765    42.586447 
166424000    333.77488    699.44958    538.03274    -77346.96    77352.979    161.41684    42.582929 
166428000    305.59588    224.19284     449.4964   -77362.666    77383.747   -225.30356     42.57584 
166432000    276.73367    214.84015    798.81868       -77371    77399.159   -583.97854    42.562032 
166436000    252.59458    318.43039    373.84553   -77393.188    77425.106   -55.415141    42.567815 
166440000    238.96829    474.87659    805.03254   -77405.772     77441.87   -330.15595    42.563641 
166444000    270.67374    633.36832     376.5232   -77422.429    77449.166    256.84513    42.561137 
166448000    275.07895    342.62195    429.45933   -77453.454    77471.626   -86.837389    42.557022 
166452000    284.20604    384.55467    432.60921   -77454.735    77482.998   -48.054547    42.556376 
166456000    252.10744     200.3956    602.43313   -77469.949    77498.632   -402.03754    42.538748 
166460000    293.74134    369.08622    214.73255   -77485.369    77513.028    154.35367    42.548785 
166464000    328.09909    302.24552    881.37517   -77500.628    77524.635   -579.12966    42.550303 
166468000    336.40371    790.07341    426.21136   -77526.371    77535.376    363.86205     42.54632 
166472000    322.10747    608.04477    521.08107   -77554.236     77558.15    86.963704    42.553935 
166476000    256.71867    635.37714    412.79837   -77552.805    77586.264    222.57877    42.556386 
166480000    282.73108    648.84034     453.9677   -77563.559    77589.509    194.87264    42.560154 
166484000    291.53783    742.59508    450.59416   -77576.401    77588.537    292.00092    42.566577 
166488000    276.68948    350.53905    320.16839   -77584.336    77600.773    30.370657    42.564324 
166492000     262.5534    618.49375    281.33487   -77588.558    77601.446    337.15888    42.566237 
166496000    308.57031     305.9589    445.38483   -77605.019    77613.377   -139.42593    42.566323 
166500000    284.14706    744.19553    338.17046     -77611.2    77639.799    406.02507    42.565251 
166504000    253.54985    102.43584    216.85851   -77622.057    77659.962   -114.42267    42.562974 
166508000    297.56428    144.96743    324.70851   -77650.627     77667.51   -179.74108    42.561714 
166512000    295.04921    582.85313    314.08434   -77671.029    77684.731    268.76879    42.561039 
166516000    275.87051    273.16342    351.25024   -77670.623    77700.417    -78.08682    42.559379 
166520000    353.19618    456.56392    1146.5015   -77690.181    77686.556   -689.93756    42.554963 
166524000    338.19151    597.04998    497.87381   -77698.166    77709.511    99.176174    42.554606 
166528000    359.22784    469.02377    524.55833   -77707.204     77698.71   -55.534555    42.562245 
166532000    271.05112     412.5042    520.13691   -77700.486    77726.892   -107.63271    42.568886 
166536000    267.93579    326.70336    616.42502   -77707.639    77733.629   -289.72166    42.565422 
166540000    281.88797     933.4656    464.94287   -77713.467    77743.654    468.52273    42.563182 
166544000    306.13638    360.42191    501.23375   -77713.318    77736.297   -140.81184    42.578023 
166548000    253.60987    296.45797    275.55078   -77725.183    77755.934    20.907199    42.582082 
166552000    287.45456    407.82383    444.61391   -77741.131    77768.381   -36.790083    42.584627 
166556000      287.132    243.00811    549.13768   -77762.969    77782.313   -306.12956    42.579219 
166560000    258.65182    371.60298    380.04876   -77758.034    77793.548   -8.4457854    42.576976 
166564000     251.6975    264.60518    131.64365   -77771.695    77807.141    132.96152    42.574656 
166568000    257.08362    350.45014    361.04139   -77774.767    77812.443   -10.591253    42.586355 
166572000    254.08092    419.51382     194.6809   -77799.655    77834.011    224.83292    42.583128 
166576000     291.1053    512.21974    718.00795   -77815.467    77844.225   -205.78821    42.582386 
166580000    283.74789    297.44693    307.68143   -77819.427    77846.052   -10.234493    42.575255 
166584000    302.13211     568.3486    130.31224    -77833.28    77846.311    438.03636    42.585539 
166588000    248.65585    166.93712    627.64804   -77832.483     77870.56   -460.71091    42.588553 
166592000    296.87896    339.87453    460.27083   -77852.756    77874.864   -120.39631    42.573526 
166596000    306.50723    401.20914    575.14172   -77861.702    77876.394   -173.93257    42.581212 
166600000    301.67243    1047.0833    402.02801   -77862.983     77877.66    645.05525    42.575556 
166604000    306.15775    652.37644    928.26068       -77874    77885.438   -275.88424    42.571699 
166608000    279.20131    446.52506    726.57434   -77884.428      77918.1   -280.04928    42.557351 
166612000    272.91603    699.16546    204.50756   -77904.584    77918.025    494.65789    42.560664 
166616000    294.45643    378.24719    354.16454   -77915.101    77935.473    24.082651    42.559318 
166620000    280.70526    306.85998    286.40713   -77923.544    77944.249    20.452844    42.553517 
166624000    284.66516    425.80064    215.18746   -77930.187    77962.251    210.61318     42.54666 
166628000    278.86641    560.37389    280.45513   -77961.798    77978.738    279.91876    42.550433 
166632000    338.60908    810.95027     475.8117    -77974.28    77979.429    335.13857     42.55124 
166636000      299.486    325.96202    195.69548   -77980.342    78008.942    130.26654    42.561773 
166640000    296.01025    321.78279    454.45716   -77977.164    78004.911   -132.67437    42.557284 
166644000    271.76595    358.17691    434.36149   -77984.543    78017.207   -76.184576    42.549155 
166648000    235.45887    309.60449    315.88867   -77989.242    78024.968   -6.2841847    42.549664 
166652000    264.81885    180.77229    576.22189   -77998.396    78035.775    -395.4496    42.539334 
166656000     304.0057    617.58245    401.62826   -78018.764    78041.003    215.95419    42.543416 
166660000    305.45187    930.74087    452.52008   -78051.386    78068.495    478.22079    42.544211 
166664000    271.95426    273.77429    318.40703   -78048.315     78076.27   -44.632744    42.543829 
166668000    302.43186    676.30134    436.28018   -78065.301    78076.837    240.02117    42.548061 
166672000    266.30301    270.17129    556.25901   -78076.937    78106.471   -286.08772    42.556086 
166676000    315.21227    397.59469    524.19086   -78083.226    78099.063   -126.59617    42.560253 
166680000    304.33337    908.40673    352.35846   -78099.389    78113.709    556.04827    42.564665 
166684000    304.60599    618.98945    513.43553   -78090.069    78110.967    105.55392    42.564144 
166688000    281.94016    1118.1885    792.08457   -78099.932    78120.523    326.10395    42.565804 
166692000    311.12216    809.97881    439.37077   -78102.996    78125.552    370.60804    42.571609 
166696000     294.0701    715.32685    668.72327   -78121.569    78132.776    46.603575    42.571674 
166700000    278.12451    309.36488    785.65507   -78124.922    78147.967   -476.29019     42.55325 
166704000    271.67897     515.5798    267.97613   -78134.591    78161.256    247.60367    42.551865 
166708000    290.70037    209.05662    276.27999   -78134.884    78168.832   -67.223371     42.55178 
166712000    291.52309    426.26529    255.79864   -78164.443    78175.365    170.46665    42.543116 
166716000    250.02381    464.46111    310.97407   -78156.809    78191.663    153.48705    42.547497 
166720000    276.80094    163.22151    267.83372   -78158.546    78183.016   -104.61221    42.543396 
166724000     261.0753    219.63283    181.92731   -78174.441    78204.791    37.705517    42.541521 
166728000    279.46736     474.1721    256.64399   -78188.367     78221.64    217.52811    42.549116 
166732000    293.17744    580.58721    623.38146   -78210.032    78216.687   -42.794253    42.551966 
166736000    274.33023    609.44148    431.01044   -78205.201    78231.396    178.43104    42.544225 
166740000    256.53507    466.40414    148.20136   -78210.195    78239.686    318.20279    42.536632 
166744000    271.44923     249.5506    285.49667   -78219.815    78252.222   -35.946074     42.53752 
166748000     289.0937     249.2384    812.24335   -78233.647    78265.998   -563.00495    42.528582 
166752000    291.76479    318.72404    546.86129   -78260.276    78284.657   -228.13725     42.52109 
166756000    258.22902    562.70992    441.21317   -78254.506    78285.185    121.49676    42.515832 
166760000    304.57223    547.56591    176.26352   -78273.403    78289.417    371.30239     42.51801 
166764000    310.56592    904.41652     152.7029   -78275.902     78299.29    751.71363    42.527917 
166768000    328.61315    501.03334     856.8505    -78289.97    78308.804   -355.81716    42.531976 
166772000    335.21053    384.02191     422.3271   -78324.081    78334.814   -38.305192    42.535866 
166776000     290.7676    301.27648    282.14149   -78333.542    78357.798    19.134991    42.522111 
166780000    311.93758    392.64718    303.50252   -78356.066    78358.603    89.144655    42.523305 
166784000    272.44842    517.28575    655.09444   -78354.524     78383.04   -137.80868     42.52888 
166788000    287.66566    947.44296    224.25142   -78370.193    78399.222    723.19154    42.530481 
166792000    309.66055    554.97369      251.082   -78384.424     78402.27    303.89169    42.534674 
166796000    317.63433    418.88309    425.34863   -78371.518    78400.299    -6.465541    42.539088 
166800000    258.07304    241.86236    389.98467   -78375.529    78402.523   -148.12231    42.537094 
166804000    306.00352    584.68235    416.08992   -78371.763    78400.411    168.59244    42.534399 
166808000     306.8038    435.93691    244.00096   -78388.903    78410.344    191.93595    42.527706 
166812000    298.74978     444.1559    310.01478   -78407.366        78427    134.14112    42.529067 
166816000    313.26353     885.7831    534.89113   -78429.288    78449.082    350.89198    42.539476 
166820000    287.17173    408.15145    673.96674   -78424.413    78455.897   -265.81529    42.551276 
166824000    275.28554    276.04349    788.50961    -78434.46    78460.396   -512.46612    42.548947 
166828000    299.42764    702.90631    465.33014   -78455.654    78468.351    237.57617    42.545237 
166832000    304.05871    478.93461    180.90135   -78458.999    78464.756    298.03326    42.548921 
166836000    296.36368    498.90726    540.25273   -78468.979    78475.163   -41.345461    42.547171 
166840000    282.28489    446.88106    628.19825   -78493.852    78507.155   -181.31719    42.548774 
166844000    294.41937    445.60805    387.72171   -78521.098    78531.772    57.886341    42.542904 
166848000    278.39221    402.35687    399.44189   -78535.365    78566.792    2.9149826    42.549946 
166852000    274.17579    176.32481    69.161016   -78551.723    78573.505     107.1638    42.548732 
166856000    295.78907    523.03606    527.05915    -78566.52    78584.279   -4.0230995    42.552477 
166860000    309.97917    451.51265    361.59326   -78574.997    78583.451    89.919386    42.556619 
166864000    251.85473    781.54892    336.23987   -78584.558    78610.287    445.30905    42.545015 
166868000    316.15202    858.65554    446.99466    -78617.39    78628.672    411.66087     42.55638 
166872000    284.07454    252.44951     278.6686    -78630.18    78647.031   -26.219085    42.550516 
166876000    309.56982    404.44035    425.61212   -78647.419    78666.506    -21.17177    42.545917 
166880000     311.5013    216.15187    663.47421   -78664.226    78678.273   -447.32234    42.548702 
166884000     274.3226    943.08587    404.88579    -78664.91     78687.77    538.20008     42.55514 
166888000    255.30449    135.17851    139.95463   -78657.451     78688.54   -4.7761225    42.556105 
166892000    248.26555    396.49978    774.34366   -78662.627    78698.192   -377.84388    42.550805 
166896000    305.49472    900.16244    732.38999    -78685.02    78715.523    167.77245    42.545629 
166900000    275.12941    503.30328     285.8374    -78696.26    78732.478    217.46588    42.547994 
166904000     282.7712    231.12499    643.06393   -78699.686    78732.946   -411.93893    42.552472 
166908000    297.54279    289.59671    219.48503   -78715.855    78744.463    70.111682    42.555012 
166912000    307.33872    517.55302     665.0381   -78747.672    78758.468   -147.48508    42.558147 
166916000    266.75871    417.61748    353.39522   -78746.628     78772.37    64.222259    42.557813 
166920000    242.57089    454.45505    347.34513   -78747.632    78771.506    107.10992    42.552147 
166924000    241.76462    326.51286    275.61589   -78737.118    78764.719    50.896968    42.546522 
166928000    297.70004    352.75491    247.58515   -78744.714     78765.33    105.16976    42.545186 
166932000    283.24928    512.22427    1133.7841   -78753.923    78773.798   -621.55979    42.535631 
166936000      286.029     490.0518    213.35189   -78777.785    78795.474    276.69991    42.535785 
166940000    284.83119    523.04907    287.80335   -78787.142    78800.032    235.24572    42.533867 
166944000    311.90436    274.03763    143.60155    -78788.18     78790.78    130.43608    42.539168 
166948000    257.44426    523.65099    25.198341   -78786.575    78812.673    498.45265    42.539233 
166952000    260.02193    710.17861     398.0988   -78789.884    78826.452    312.07981     42.54043 
166956000    301.37307    395.52439    347.93658   -78802.316    78822.596    47.587815    42.545195 
166960000    242.28109     955.9496    242.97219   -78805.371     78835.98    712.97741    42.544378 
166964000    266.12287    599.97291    303.40802   -78808.586    78852.317     296.5649    42.564306 
166968000    270.13914    157.47932    225.76986   -78830.766    78854.522   -68.290535    42.561249 
166972000    294.74695     484.1768    252.08414   -78835.536    78860.651    232.09267    42.572126 
166976000    322.22407    479.26705    440.01841   -78838.114    78846.813    39.248648    42.567872 
166980000    296.39514    504.96151    152.50214   -78827.517    78860.916    352.45936    42.572852 
166984000    263.40978    295.18477    296.18539   -78848.422    78866.287   -1.0006198    42.571941 
166988000     306.9508    630.08626    190.70002   -78859.221    78878.141    439.38625    42.577445 
166992000    281.49555    637.63884     529.7231   -78862.262    78890.559    107.91575    42.572758 
166996000    287.46152    269.84896    279.74849    -78858.56     78895.23   -9.8995336    42.583087 
167000000    298.19303    427.83005    451.31702   -78885.122    78909.996   -23.486965    42.586677 
167004000    286.94262    653.58576    467.17157   -78901.784    78920.712    186.41419    42.580539 
167008000    298.52336    611.46892    220.77729    -78917.97    78938.531    390.69163    42.579708 
167012000    299.44166    306.86445    896.47724    -78942.15    78957.189   -589.61278    42.584543 
167016000    223.26914     259.1064     529.0579     -78938.6     78981.62    -269.9515    42.586762 
167020000    262.26555    810.09989    391.83597   -78946.804    78979.323    418.26392    42.587788 
167024000    249.06323    380.36719    406.79758   -78955.755    78986.915   -26.430392    42.583268 
167028000    305.96348    301.21617    229.80091    -78984.11    78995.003    71.415258    42.585086 
167032000    274.50441    286.03496    150.59888   -79001.082    79025.015    135.43607    42.590173 
167036000    281.65625    392.04688    251.73205   -79001.049    79026.504    140.31483    42.592233 
167040000     286.1397    475.87152    194.08763   -79020.521    79038.842    281.78389    42.584244 
167044000    274.69694    482.55239     478.7713   -79026.692    79061.722    3.7810928    42.591596 
167048000    270.38594    721.52474    282.10922   -79045.386    79062.365    439.41552    42.591668 
167052000    260.58743    222.23431    342.08188   -79056.399    79082.012   -119.84757    42.592514 
167056000     259.6367    516.93921    794.61262   -79064.059    79102.935   -277.67341    42.591263 
167060000     287.0741    714.26558    289.55344   -79076.087    79100.599    424.71214    42.583548 
167064000    241.26681    451.65474    216.24908   -79089.464    79120.878    235.40566    42.583632 
167068000    260.63143    595.31719    264.09103    -79108.65     79141.33    331.22616    42.587109 
167072000    255.89302    578.23502    113.20495   -79131.078    79158.312    465.03006    42.577902 
167076000    257.46724    496.99617    636.92792   -79127.965    79153.265   -139.93176    42.575607 
167080000    277.99752    193.05738    413.52183    -79134.28    79170.358   -220.46444    42.574883 
167084000    266.49877    672.41415    394.20067   -79156.596    79192.789    278.21348    42.580731 
167088000    287.90952    1184.7657    221.25856   -79178.138    79194.599    963.50716     42.58853 
167092000    297.71744    163.07252    371.93599   -79196.847    79219.239   -208.86347    42.592624 
167096000    295.98375    711.23606    431.89438   -79210.858    79243.212    279.34169     42.60617 
167100000      280.826    429.14192    230.01884   -79238.051    79262.796    199.12307    42.596329 
167104000     324.7293    648.32541    342.93836   -79268.512    79276.626    305.38706    42.588727 
167108000    288.99262    488.57542    641.54471   -79293.981    79305.038   -152.96929    42.587015 
167112000    289.00802    321.14984    480.25838   -79301.785    79320.895   -159.10854    42.591877 
167116000    303.58652    365.93458    945.71227   -79307.009     79332.84   -579.77769    42.581087 
167120000    291.43826    270.35566    450.67987   -79320.904     79346.21    -180.3242     42.57078 
167124000     272.7387     271.8765    293.07865   -79328.079    79352.658   -21.202152    42.567679 
167128000    289.21594    941.66892     135.9349   -79333.825    79361.039    805.73402    42.578984 
167132000    302.75983    693.39818    547.91893   -79344.951    79351.678    145.47925    42.584674 
167136000    324.84267     160.9796    364.08801   -79335.673    79346.426   -203.10841    42.571944 
167140000    314.59475    864.39916    403.02846   -79339.743    79362.755     461.3707     42.58167 
167144000    302.61405    298.12422    377.36611   -79333.624    79360.299   -79.241894    42.566864 
167148000    270.86727    358.47088     445.0484   -79336.743    79351.639   -86.577522    42.559481 
167152000     344.4687    374.69123    904.04383   -79338.175    79343.804    -529.3526    42.555293 
167156000     307.2255    317.03954    441.59479   -79346.669    79356.315   -124.55525     42.56079 
167160000    271.31685    241.61934    357.19925    -79354.99    79388.692   -115.57991    42.561997 
167164000    293.67123    249.47839    361.69141   -79366.222    79390.881   -112.21303    42.564765 
167168000    309.99425    477.15383    455.95946   -79364.194    79383.607    21.194363    42.571255 
167172000    283.14485    570.06735    615.13825   -79357.958    79381.222   -45.070899    42.570462 
167176000    275.23561    587.87265    540.96602   -79361.186    79383.445    46.906631    42.586181 
167180000    283.39912    101.74331    129.73302   -79373.015    79401.094    -27.98971    42.578723 
167184000    254.72939    279.36015    345.45157   -79397.345    79417.546   -66.091414    42.575823 
167188000    261.59271    595.68632    112.81764   -79407.992    79437.878    482.86869    42.561993 
167192000    326.99495    590.48121    566.32648   -79419.595    79444.942    24.154726    42.575135 
167196000    276.44775      269.008    624.38936    -79442.67    79473.173   -355.38136    42.572256 
167200000    246.07465    429.46735    289.57637   -79447.245      79480.5    139.89098    42.559302 
167204000    305.31854    266.93178    603.98836   -79456.541     79471.13   -337.05658    42.551153 
167208000    239.76688    425.74764    499.35121   -79441.358    79486.044   -73.603573    42.541639 
167212000    283.26665    705.09965    600.64454   -79467.036    79499.603    104.45511    42.544964 
167216000    309.56278    244.95639     591.7303   -79475.887    79497.308    -346.7739    42.534711 
167220000    277.94575    150.67321    850.23436    -79489.38    79514.503   -699.56116    42.534927 
167224000    296.62525    472.91518    917.54269   -79496.954    79517.466   -444.62752    42.525006 
167228000    286.25985    578.51283    574.25515   -79515.515    79532.456    4.2576784    42.527947 
167232000    248.38132    475.30886    464.62005   -79505.747    79536.765    10.688815    42.527315 
167236000     249.9618     241.6917    379.85606   -79505.558     79537.98   -138.16436    42.521969 
167240000    311.10945    642.18464    487.73311   -79542.521    79554.398    154.45153    42.529159 
167244000    248.51037    453.15006    394.11169   -79559.376    79597.119    59.038375    42.534748 
167248000    264.09779    375.44715    190.89855   -79578.116    79601.461     184.5486    42.527629 
167252000    256.46387    344.06099    245.75263   -79592.661    79624.279    98.308362    42.527415 
167256000    247.64565    390.32198    543.69994   -79586.981    79618.813   -153.37795    42.527537 
167260000    244.95441    285.57932    494.22896   -79601.132    79645.873   -208.64963    42.531657 
167264000    249.30296    419.13883    335.77055   -79619.342    79648.248    83.368281    42.520468 
167268000    282.60294    238.57139    235.41624    -79622.97     79642.81    3.1551407    42.514138 
167272000    275.39363    258.91295    156.23544   -79613.126    79651.041    102.67751    42.514408 
167276000    298.32479     352.6615    305.19944   -79637.203    79661.005    47.462059    42.522095 
167280000    268.46403    350.52439    200.00925   -79651.212    79683.047    150.51514    42.522754 
167284000    252.45754    338.54644    451.63563   -79656.727    79689.952   -113.08919    42.511554 
167288000    302.48245    677.87687    456.03917   -79674.453    79687.803     221.8377    42.507635 
167292000    238.80801    311.71617    246.47031   -79666.583    79699.507    65.245868     42.51121 
167296000    268.29263    411.48069    222.85688   -79660.151    79704.396    188.62381    42.505214 
167300000    224.18809    524.04472    387.77763   -79660.914     79699.38    136.26709    42.500595 
167304000    288.75955    326.85562    286.34994   -79680.998     79704.49    40.505681     42.49286 
167308000     223.0721    243.48892    182.06268   -79679.687    79728.373    61.426246    42.491464 
167312000    270.18456     639.3512    314.93796   -79693.297    79723.301    324.41324    42.491753 
167316000    267.36013    542.96315    230.64849   -79721.166    79751.897    312.31466    42.487707 
167320000      269.978    480.57577    326.02662   -79743.989    79760.611    154.54914     42.48888 
167324000    265.44612    342.53396    142.90889   -79747.163    79775.344    199.62507    42.482929 
167328000    290.16989    565.69679    774.83417   -79756.921    79776.644   -209.13738    42.491564 
167332000    265.00957    161.94888    145.34506   -79754.903    79786.347    16.603825    42.488105 
167336000    332.73205    657.18841    180.07173   -79769.981    79792.572    477.11668    42.490887 
167340000    277.44222    667.77997    344.22855   -79778.052    79797.373    323.55141    42.493004 
167344000     269.7373     741.5027    437.16342   -79790.006     79800.91    304.33928    42.500523 
167348000    266.93843    451.32313    291.74863   -79798.283    79829.739     159.5745    42.509038 
167352000     270.5003    437.22985    347.13562   -79801.704    79839.751    90.094221    42.511725 
167356000    245.82819     412.6563    133.43215   -79802.838    79830.855    279.22415    42.515951 
167360000    265.04126    204.32911    374.30672   -79812.076     79840.56    -169.9776    42.521747 
167364000    239.08263    381.42674    252.78443   -79805.018    79847.134    128.64231    42.516464 
167368000    289.97379    550.78121    382.64909   -79825.227    79852.202    168.13212    42.520296 
167372000    280.57898    229.67267    426.16194   -79837.753    79864.538   -196.48928    42.530316 
167376000    254.77419    507.54693     329.7138   -79840.381    79871.507    177.83313    42.520606 
167380000    241.22668    300.88446    201.37315   -79836.148    79881.742    99.511304     42.53217 
167384000    340.93529    601.96239    527.26435   -79876.749    79883.231    74.698047    42.528044 
167388000    282.15065    169.68108    530.35317   -79870.569    79900.854   -360.67209    42.535248 
167392000    257.33355     868.3256    120.71403   -79886.424     79910.64    747.61157    42.534568 
167396000    290.16705    164.27432    515.29842   -79896.191    79927.465    -351.0241    42.538004 
167400000    269.94936    319.08498    469.09528   -79898.029    79928.165    -150.0103    42.533089 
167404000    262.39303    283.13108    326.02218   -79910.131    79934.057   -42.891099    42.532647 
167408000    311.58936     1154.324    719.27872   -79934.122    79944.846    435.04528    42.531263 
167412000    284.38052    293.72233    602.19547   -79932.659    79943.591   -308.47314    42.532046 
167416000    287.73722     430.1414    344.67412   -79939.409    79962.821    85.467277    42.533623 
167420000    227.72743    117.29403    206.15561   -79933.092    79972.271   -88.861581    42.537274 
167424000    273.68334    333.07819    325.08101   -79956.239    79974.859    7.9971814    42.537998 
167428000    306.48434    362.54174    389.19326   -79968.102    79988.212   -26.651522    42.529723 
167432000    260.25489    310.79363    664.65123   -79982.672    80010.813    -353.8576    42.526938 
167436000    293.35026    584.21381    410.72321    -79988.84    80016.842    173.49061     42.52619 
167440000    331.67315    246.36004    307.38686   -80019.848    80027.767   -61.026817    42.530983 
167444000    281.42574    523.16005    198.11724   -80023.271    80054.453     325.0428    42.537166 
167448000    285.70062    267.05227    375.62781   -80044.092    80067.647   -108.57554     42.53349 
167452000     307.0956    261.66988    767.47117   -80067.986    80084.173   -505.80129    42.526552 
167456000    321.03832    631.36651    468.11992   -80071.316    80093.672    163.24659    42.519949 
167460000    299.44466    469.35888     240.4633   -80098.465    80111.383    228.89558    42.524974 
167464000     268.7934     542.9385    887.01446   -80116.241    80147.639   -344.07596    42.530668 
167468000    270.56013    301.74559    538.26222   -80115.551     80146.56   -236.51663    42.515466 
167472000    293.58267    309.68071    309.16271     -80146.3    80160.564   0.51799425    42.514048 
167476000    256.00906    427.77347    422.26418    -80134.74      80169.9    5.5092848     42.50645 
167480000    308.70637    711.72586    701.78049   -80147.456    80154.611    9.9453653    42.511406 
167484000    259.88332    362.45077    512.79751   -80142.103    80175.116   -150.34674    42.512679 
167488000    305.44366    450.73151    218.84423   -80160.108    80194.383    231.88728    42.507815 
167492000    296.10383    550.12468    343.96307   -80183.945     80204.01    206.16161    42.512499 
167496000    311.48409    531.95125    572.75509   -80202.315     80223.11   -40.803845    42.511548 
167500000    310.74813    225.39278    613.74605   -80213.846    80237.562   -388.35328    42.510766 
167504000    288.20055    649.45268    204.17894   -80219.574    80248.349    445.27375    42.518175 
167508000    271.78013    244.27347    404.87117   -80217.497    80244.981    -160.5977    42.518499 
167512000    254.96386    401.69418    246.10767   -80225.232     80251.74    155.58651     42.52645 
167516000    275.01046    262.19758    212.73852   -80226.177    80260.983    49.459061    42.528538 
167520000    283.83674    531.91218    585.66999   -80231.566    80255.206   -53.757803    42.532639 
167524000    277.00022    505.75622    433.92417   -80253.212    80286.828    71.832054    42.535167 
167528000    303.39442     287.7228     399.7459   -80283.099    80299.025   -112.02311    42.532327 
167532000    348.66226    485.47292    481.67556   -80274.572    80276.907    3.7973551    42.533642 
167536000    297.37301    466.26988      390.986   -80285.676    80303.453    75.283882     42.53534 
167540000    283.76816    259.11898    476.29011   -80291.404    80314.079   -217.17112    42.540801 
167544000    293.70409    623.56575     657.2896   -80299.554    80316.425   -33.723849    42.539492 
167548000    268.34351    596.02901    317.08956   -80308.552    80329.938    278.93946     42.53139 
167552000    296.24251    86.278885     110.8816    -80322.79    80348.411   -24.602715    42.538575 
167556000    314.44508    898.24948    516.86068   -80328.875    80337.454     381.3888    42.546354 
167560000    292.99043    385.71169    339.60029   -80320.295    80348.309    46.111397    42.543797 
167564000    261.20419    414.14891    470.86115   -80334.718    80363.223   -56.712246    42.548115 
167568000    300.73761    559.91692    179.37184   -80345.695    80365.569    380.54508    42.544608 
167572000    299.71071    140.78853    691.12091   -80364.874    80381.755   -550.33238     42.54769 
167576000    248.32775    1111.1179    385.84258   -80369.582    80400.788    725.27535    42.537448 
167580000    267.85212    288.13752    304.83588   -80377.021    80411.426   -16.698364    42.546938 
167584000    300.22474    365.66851    185.55801   -80395.865    80423.124    180.11049    42.545712 
167588000    275.73563    286.42913    179.69609   -80399.435    80416.754    106.73304    42.562422 
167592000    279.42411    725.09698    303.37755   -80391.768    80425.637    421.71943    42.566664 
167596000    260.71683    266.77966     511.1964   -80408.845    80434.094   -244.41674    42.554951 
167600000    285.99267     645.9029    312.18086    -80409.25    80443.009    333.72203    42.553497 
167604000    249.87273    246.43286    160.17593   -80431.174    80458.026    86.256935    42.558237 
167608000    266.77493    338.11065    335.35552    -80438.62    80472.925    2.7551325    42.561688 
167612000    286.72005    512.84503    231.18214   -80443.999    80467.427    281.66289    42.565716 
167616000    282.24836    635.40971    243.68953    -80440.17    80452.842    391.72018    42.564227 
167620000    303.57768    926.55928    560.96713   -80438.526    80446.835    365.59215     42.57312 
167624000     262.0324    581.75844    667.70238   -80424.278    80456.849   -85.943936    42.571518 
167628000    260.35755    485.81438    322.22355   -80434.981    80465.021    163.59082    42.562977 
167632000    281.93001    644.19786    240.73653   -80457.093    80483.548    403.46134    42.558751 
167636000    282.33042    459.59103    473.67361   -80459.132    80487.151   -14.082575    42.558723 
167640000    281.62187    429.18927    618.23534   -80469.641    80491.251   -189.04606    42.553277 
167644000    316.59128    469.77543    496.26301   -80474.704    80490.932   -26.487578    42.547413 
167648000     287.9928    464.57033    657.24071   -80466.204    80492.606   -192.67038    42.548604 
167652000    281.06429     586.3322    612.43268   -80468.194    80496.477   -26.100477    42.549993 
167656000    275.88746    308.05076    218.79163   -80476.393     80499.36    89.259127    42.554696 
167660000    339.29564    325.02427    832.05584   -80469.735     80487.86   -507.03156    42.547919 
167664000    255.50521    664.38251    502.82997   -80458.403    80484.488    161.55253    42.549868 
167668000    311.91538    416.43738    932.57686   -80472.191    80478.804   -516.13947    42.562344 
167672000    303.10369    279.51576    355.46152   -80472.551     80489.96   -75.945752    42.558552 
167676000    282.31737    293.66375    296.10958   -80475.064    80487.316     -2.44583    42.554615 
167680000    310.74697    270.49156    1206.1058   -80471.569    80493.037   -935.61427    42.554254 
167684000     331.0259    320.37815    310.71468   -80482.566     80492.47    9.6634697    42.550691 
167688000    291.63538    447.72504    561.58305   -80490.697     80507.05   -113.85801    42.551283 
167692000    283.26573    357.16772     283.2811   -80500.788    80531.681    73.886623    42.551735 
167696000    281.20143    536.89672     294.8132   -80519.193    80534.328    242.08352     42.55816 
167700000     308.6074    772.65927      561.002   -80506.952    80522.189    211.65727     42.56103 
167704000    270.25997    367.46072    359.11328   -80519.827     80531.53    8.3474407    42.553082 
167708000    262.01218    407.63897    218.40641   -80546.921    80565.331    189.23256    42.554328 
167712000    294.36568    308.53297    1107.5113   -80554.332    80568.452   -798.97833    42.552297 
167716000    283.04775    155.82523    157.37542    -80571.06    80591.635   -1.5501898    42.546689 
167720000    282.25968    313.89225    466.48244   -80572.632    80584.732   -152.59019    42.546682 
167724000    272.41904    349.23149    521.61066   -80563.124    80593.198   -172.37916    42.537003 
167728000    294.55218      518.918    474.87536   -80574.542    80599.842    44.042644    42.548156 
167732000    304.82199    269.64767    300.18022   -80583.972    80609.895   -30.532547    42.558121 
167736000    240.86628     579.3633    174.58108    -80588.68    80618.734    404.78222    42.556405 
167740000    249.11236    244.71704    331.26216   -80588.095    80625.438   -86.545116    42.548285 
167744000    303.42993    699.88484    643.82457    -80601.64    80620.597    56.060276     42.54268 
167748000    222.07305    471.20689    231.52171   -80607.734     80639.06    239.68518    42.539998 
167752000    291.54687    544.94174    191.54892    -80621.56    80641.421    353.39283    42.534848 
167756000    309.64659     645.1489    795.65226   -80622.444    80635.095   -150.50336    42.535303 
167760000    279.29916    343.91517    152.48253   -80625.268    80657.928    191.43263    42.534203 
167764000    273.02609    473.08562    233.67378   -80629.298    80655.269    239.41184    42.533402 
167768000    271.80245    327.63512    264.57921   -80640.612    80668.426    63.055914    42.538904 
167772000    321.49429    276.90567    271.59236   -80672.541    80687.081    5.3133148      42.5358 
167776000    321.22416    951.52363    226.99827   -80701.889    80700.855    724.52536     42.54714 
167780000    292.16095    901.26311    541.95967   -80679.936    80707.643    359.30344    42.554727 
167784000    304.06544    380.36759     230.9359   -80691.667    80706.153    149.43169    42.556546 
167788000    326.06032    553.20934    284.32914   -80698.555    80723.302     268.8802    42.551946 
167792000     314.3161    737.68474    860.01176   -80695.092    80723.096   -122.32702    42.556101 
167796000     317.6522    492.32049    751.93666   -80710.937    80724.165   -259.61617     42.55442 
167800000    276.99427    674.54535    132.97885    -80696.58     80715.01     541.5665    42.550974 
167804000    274.24266    768.01585    170.57005   -80709.411    80729.103     597.4458    42.543505 
167808000    287.07324    695.47634    126.16085    -80702.89    80720.291    569.31549    42.534863 
167812000    247.48358    237.89677    583.56451   -80705.612    80727.438   -345.66775    42.529017 
167816000    282.41264     402.1678     312.3943   -80715.284    80739.462    89.773501    42.530161 
167820000    272.74272    303.84102    398.59398    -80729.57    80760.021   -94.752967    42.524899 
167824000     296.2961    801.49606      311.777   -80744.854    80766.972    489.71906    42.514034 
167828000    301.92768    683.39976        303.9   -80755.721    80773.189    379.49976    42.521238 
167832000    244.30339    270.58896    456.03721    -80752.52    80782.115   -185.44825    42.533075 
167836000     234.7298    270.32209    330.59277   -80764.675    80801.588   -60.270682    42.534864 
167840000    275.67831    1045.2773    654.33008   -80764.341    80805.677    390.94724    42.535308 
167844000    278.06553    364.44094    578.48823   -80782.045    80801.579   -214.04729    42.543629 
167848000    261.28699    175.80816    231.73037   -80788.883     80829.43   -55.922208    42.536569 
167852000    283.30068    497.00755    426.44212   -80820.278    80832.235    70.565428    42.528819 
167856000     291.2723    292.74526    203.25112   -80805.174     80832.49     89.49414    42.534803 
167860000    299.81829    439.33414    310.21618   -80825.002    80838.063    129.11796    42.526175 
167864000    275.98321      717.167    333.56202   -80824.852    80848.982    383.60499    42.524872 
167868000    331.21384    1007.7958    359.92836   -80862.317    80861.909    647.86749    42.524423 
167872000    297.44893    871.47287    226.44754   -80863.539    80867.438    645.02534    42.530319 
167876000    282.50491    610.66478    421.04406   -80868.714    80889.685    189.62072    42.523825 
167880000      326.785    611.19836    492.70443   -80879.158    80902.137    118.49393    42.526639 
167884000      318.745     445.4322    312.28279   -80881.654    80895.012    133.14941    42.518703 
167888000    268.17677    508.47622    856.71787   -80888.838    80918.105   -348.24165    42.516022 
167892000    284.11214    464.95529    650.38435   -80924.106    80937.751   -185.42906    42.507796 
167896000    316.13615    479.28706    293.26919   -80925.563    80940.993    186.01787    42.517136 
167900000    259.57394    552.68412    322.27079   -80916.221    80947.643    230.41332    42.521479 
167904000    326.19434    690.10754    450.66943   -80936.304    80953.571    239.43811    42.520431 
167908000    285.55556    382.41294    364.25332   -80939.621    80961.151    18.159621    42.517013 
167912000    289.17275    316.50221    161.87807   -80955.711    80982.458    154.62414    42.521702 
167916000    298.95343    786.58625    440.15728   -80975.945    80996.766    346.42897     42.52194 
167920000    271.70518    347.30356    193.92803   -81006.257    81021.947    153.37553    42.525867 
167924000     283.8417    434.99325    249.25109   -81017.854    81036.648    185.74215    42.524209 
167928000    316.28318    350.51841    1244.8297   -81039.566     81055.64    -894.3113    42.517318 
167932000    304.03786    275.33241    259.49979   -81053.742    81064.035    15.832624    42.522731 
167936000    284.26643    237.78773    309.70412   -81064.334    81073.073   -71.916384    42.523823 
167940000    267.64024    251.47833    307.59981   -81060.816    81089.118   -56.121476    42.513583 
167944000     323.4155    875.28563    32.282122    -81071.76    81090.467    843.00351    42.515141 
167948000     318.2449    184.67086    573.91557   -81075.902    81093.587   -389.24471    42.511615 
167952000     278.6079    380.14837    355.98393     -81090.5    81117.583    24.164438    42.519089 
167956000    319.33321    434.45628    405.89513   -81110.681    81128.865    28.561146    42.527479 
167960000    303.95916    596.38084    619.96052   -81107.138    81131.955   -23.579688    42.518078 
167964000    273.02057    320.04017    469.35216   -81107.855    81140.681   -149.31199    42.516774 
167968000    306.46594    329.82206    324.15933   -81131.952    81150.852    5.6627342    42.515228 
167972000    283.25058    528.85894    499.03509   -81140.444    81156.069    29.823859    42.516804 
167976000     280.1828    1237.5176    558.32712   -81160.213    81182.634    679.19046     42.51957 
167980000    302.24053    300.21057    407.15069   -81159.628    81188.878   -106.94012    42.522419 
167984000    291.66327    768.43634    377.73698   -81165.443    81182.411    390.69936    42.521327 
167988000    278.02291    235.17728    323.35823   -81167.926    81207.501   -88.180948    42.518382 
167992000    301.33314    649.68868    561.11691   -81185.487    81208.738    88.571777    42.519098 
167996000    289.07899    193.25952    329.17696   -81208.666    81230.613   -135.91745    42.524392 
168000000    246.57132    428.25131    297.35148   -81190.814    81229.668    130.89982    42.521509 
168004000    290.31698    581.41746    458.90724   -81208.708    81240.443    122.51022    42.528588 
168008000    271.28189    718.88622    499.95767   -81209.003    81233.119    218.92855    42.541574 
168012000    277.47547    307.68888    260.31647    -81220.67    81249.749    47.372416    42.537224 
168016000    275.96598    686.80119     195.2184   -81225.324    81250.732    491.58278    42.532712 
168020000    244.69603    283.40435    406.00811   -81217.593    81255.274   -122.60376    42.528587 
168024000    278.90635    519.83852    586.74908    -81232.78    81255.259   -66.910559    42.531717 
168025000    284.96925    189.58083    457.29416   -81229.423    81257.424   -267.71333    42.531717 
Loop time of 841.826 on 28 procs for 32000000 steps with 98 atoms

Performance: 4105.362 ns/day, 0.006 hours/ns, 38012.609 timesteps/s
100.0% CPU use with 28 MPI tasks x no OpenMP threads

MPI task timing breakdown:
Section |  min time  |  avg time  |  max time  |%varavg| %total
---------------------------------------------------------------
Pair    | 1.4477     | 15.71      | 65.778     | 445.8 |  1.87
Bond    | 1.9458     | 39.422     | 136.74     | 721.0 |  4.68
Neigh   | 5.03       | 5.2956     | 5.5402     |   5.2 |  0.63
Comm    | 227.45     | 280.42     | 458.68     | 305.5 | 33.31
Output  | 3.4327     | 4.328      | 4.3636     |   8.3 |  0.51
Modify  | 208.56     | 385.31     | 478.33     | 419.1 | 45.77
Other   |            | 111.3      |            |       | 13.23

Nlocal:    3.5 ave 14 max 0 min
Histogram: 20 0 1 0 0 0 0 1 0 6
Nghost:    39.5 ave 59 max 24 min
Histogram: 6 1 0 1 10 4 0 0 2 4
Neighs:    32.0714 ave 142 max 0 min
Histogram: 20 0 1 0 0 0 1 0 5 1

Total # of neighbors = 898
Ave neighs/atom = 9.16327
Ave special neighs/atom = 5.87755
Neighbor list builds = 303448
Dangerous builds = 0

write_restart FINALCONFIG

#and everyone lived happily ever after, THE END
Total wall time: 0:14:22
