LAMMPS (16 Mar 2018)
#lammps script for united atom polymer simulation (full-scale run)

# 1. INITIALIZATION
#allows pair, bond, bending and dihedral interactions
atom_style molecular

  # periodic (video game) boundaries in all cartesian directions
boundary p p s

  # uses real units (instead of units based on pair potential parameters).  List of units used in manual
units metal

###########
# 2. ATOM DEFINITION
##########

   ##
   # Read in data from starting configuration file
   ##

#read_data lammps-AT-config

 #use to restart
read_restart RESTART
  orthogonal box = (0 0 -29.1214) to (20 20 152.979)
  1 by 1 by 4 MPI processor grid
  1498 atoms
  197 bonds
  96 angles
  95 dihedrals
  2 = max # of 1-2 neighbors
  2 = max # of 1-3 neighbors
  4 = max # of 1-4 neighbors
  6 = max # of special neighbors

   ##
   # Specify the nature of the bond interactions
   ##

bond_style harmonic
bond_coeff 1 19.51 1.54
bond_coeff 2 22.45 1.82
bond_coeff 3 10000.0 2.0
special_bonds lj 0.0 0.0 0.0 angle no dihedral no

angle_style harmonic
angle_coeff 1 2.683 114.00
angle_coeff 2 2.683 114.40

dihedral_style opls
dihedral_coeff * 0.06071 -0.011743 0.1363628 0.0

mass  1   14.00
mass  2   32.06
mass  3  196.97
mass  4  196.97


pair_style hybrid lj/cut 14.0 morse 14.0 eam
pair_coeff 1 1 lj/cut 0.00395 3.95 14.0
pair_coeff 2 2 lj/cut 0.01594 3.62 14.0
pair_coeff 3 3 eam Au_u3.eam
Reading potential file Au_u3.eam with DATE: 2007-06-11
pair_coeff 4 4 eam Au_u3.eam
pair_coeff 1 2 lj/cut 0.0000 3.785 14.0
pair_coeff 1 3 lj/cut 0.00258 3.44 14.0
pair_coeff 1 4 lj/cut 0.00 3.44 14.0
pair_coeff 2 3 morse 0.879 1.47 2.7 14.0
pair_coeff 2 4 morse 0.000 1.47 2.7 14.0
pair_coeff 3 4 lj/cut 0.00 2.934 14.0


group freeze type 4
100 atoms in group freeze
fix startend freeze setforce 0.0 0.0 0.0



################
# 3.  Simulation Settings
###############

neighbor        2.0 bin
neigh_modify    every 1 delay 0 check yes



# Define some variables
variable Lx          equal xhi-xlo   # Ang
variable Ly          equal yhi-ylo   # Ang
variable Lz          equal zhi-zlo   # Ang

variable dz          equal ${Lz}/30  # Ang
variable dz          equal 182.100820164033/30  

variable zzlo        equal zlo  # Ang
variable zzhi        equal zhi  # Ang
variable vol         equal ${Lx}*${Ly}*${Lz}  # Ang^3
variable vol         equal 20*${Ly}*${Lz}  
variable vol         equal 20*20*${Lz}  
variable vol         equal 20*20*182.100820164033  
variable TEMP        equal 300.00 # K
variable TThi        equal 320.00 # K
variable TTlo        equal 280.00 # K
variable dt          equal 0.00025 # ps

timestep     ${dt}
timestep     0.00025

variable zlo1      equal -26.0
variable zlo2      equal -11.0
variable zhi1      equal 135.0
variable zhi2      equal 150.0

# heat layers

region          hot  block  INF INF INF INF ${zlo1} ${zlo2}
region          hot  block  INF INF INF INF -26 ${zlo2}
region          hot  block  INF INF INF INF -26 -11
region          cold block INF INF INF INF ${zhi1} ${zhi2}
region          cold block INF INF INF INF 135 ${zhi2}
region          cold block INF INF INF INF 135 150
compute         Thot all temp/region hot
compute         Tcold all temp/region cold


# Second Equilibration
fix             1 all nve
fix             hot all langevin ${TThi} ${TThi}  0.005 59804  tally yes
fix             hot all langevin 320 ${TThi}  0.005 59804  tally yes
fix             hot all langevin 320 320  0.005 59804  tally yes
fix             cold all langevin ${TTlo} ${TTlo} 0.005 287859 tally yes
fix             cold all langevin 280 ${TTlo} 0.005 287859 tally yes
fix             cold all langevin 280 280 0.005 287859 tally yes
fix_modify      hot temp Thot
fix_modify      cold temp Tcold

variable        tdiff equal c_Thot-c_Tcold
thermo_style    custom step c_Thot c_Tcold f_hot f_cold v_tdiff
thermo            4000
run             800000
WARNING: Using a manybody potential with bonds/angles/dihedrals and special_bond exclusions (../pair.cpp:218)
Unused restart file peratom fix info:
  fix style: STORE, fix ID: layers_COMPUTE_STORE
Neighbor list info ...
  update every 1 steps, delay 0 steps, check yes
  max neighbors/atom: 2000, page size: 100000
  master list distance cutoff = 16
  ghost atom cutoff = 16
  binsize = 8, bins = 3 3 23
  4 neighbor lists, perpetual/occasional/extra = 4 0 0
  (1) pair lj/cut, perpetual, skip from (4)
      attributes: half, newton on
      pair build: skip
      stencil: none
      bin: none
  (2) pair morse, perpetual, skip from (4)
      attributes: half, newton on
      pair build: skip
      stencil: none
      bin: none
  (3) pair eam, perpetual, skip from (4)
      attributes: half, newton on
      pair build: skip
      stencil: none
      bin: none
  (4) neighbor class addition, perpetual
      attributes: half, newton on
      pair build: half/bin/newton
      stencil: half/bin/3d/newton
      bin: standard
Per MPI rank memory allocation (min/avg/max) = 10.93 | 11.62 | 12.31 Mbytes
Step c_Thot c_Tcold f_hot f_cold v_tdiff 
168001000    324.81012    276.46661           -0           -0    48.343515 
168004000     341.0743    259.42627   -1.6731612   0.47478383    81.648025 
168008000    335.76992    268.54491   -1.2630572  -0.14722505     67.22501 
168012000    326.67138    283.02608  -0.90815544   -1.3737101    43.645304 
168016000    316.42571    278.87324  -0.11057445    -1.579855    37.552465 
168020000    300.29436    294.04904   0.96535181  -0.76402409    6.2453207 
168024000     326.1775    297.80919   -0.5659543   -1.8668292    28.368312 
168028000    328.21869    300.29288   -1.1126043   -1.2343125    27.925816 
168032000    331.99091    278.33449   -2.0642063  -0.38287472    53.656424 
168036000    348.71304    262.21222   -1.3284778  -0.14578207    86.500823 
168040000    328.27109    263.68208    -2.130516   0.66015481     64.58901 
168044000    324.61389    271.06932    -1.380565   0.20932967     53.54457 
168048000     339.0459    276.48679   -1.7026257 -0.048010538    62.559107 
168052000    325.27542    265.48593   -1.7801905  -0.55882157    59.789497 
168056000    304.98514    283.71803   -0.4415984   -0.9136467    21.267115 
168060000    317.48799    277.18099   -1.4294076  -0.96126094    40.307005 
168064000    325.21572     285.2947   -2.3494192   -1.0795832    39.921021 
168068000    307.77447     286.0523   -2.1577624 -0.084971017    21.722164 
168072000    327.80575    292.59094    -2.758335    -0.896378    35.214808 
168076000    329.61744    279.11877   -1.0317799  -0.50920884    50.498675 
168080000    305.82678    285.11769   -0.3540975   -1.2569413    20.709097 
168084000    322.63634    301.68058  -0.92051391   -0.6421195    20.955754 
168088000    330.12648    265.53151   -2.4736301   0.67320347    64.594961 
168092000    316.00267    294.11805  -0.75569312  -0.24057119    21.884619 
168096000    316.83584    248.57673   -1.0046059     1.500382    68.259109 
168100000     327.0457    292.79852   -1.4515312  -0.11634889    34.247175 
168104000    311.91887    272.67453  -0.95497273   0.69980453    39.244338 
168108000    335.20544    285.77232 -0.068915339   0.05007337    49.433116 
168112000    320.29636     261.0857   -1.9409425    1.3665707    59.210662 
168116000    326.93036    291.05022   -3.0380893   -1.2126058    35.880139 
168120000    295.80813    283.51646  -0.62665066   -1.0854498    12.291672 
168124000    285.17387    275.49941   -0.1070935    0.6971866    9.6744583 
168128000    299.74126     283.9825   -1.3026922  -0.32526519    15.758764 
168132000    340.74941    261.66482    -2.859608    1.2314636    79.084589 
168136000    291.66911    308.57767  -0.24024375   -1.3933954   -16.908558 
168140000    309.55645    297.89515   0.38496002  -0.90017886    11.661297 
168144000    323.89908    276.53429    -1.406022   0.85395922    47.364786 
168148000    336.51055    274.10926   -2.1805666    1.7500832    62.401285 
168152000    301.72375    263.73164  -0.60377875    1.0898244    37.992113 
168156000    321.87934     281.4398   -1.4653041  -0.31569733    40.439533 
168160000    307.44326    286.62458  -0.30350125 -0.044969359    20.818678 
168164000    317.69924      304.189    -1.769955  -0.64794314    13.510239 
168168000    321.90642    299.91369   -2.2082916  -0.24821236    21.992722 
168172000    328.96427    272.71792   -2.3581655  0.053012359    56.246354 
168176000    312.02286    286.03974   -1.0546966    0.8635092    25.983122 
168180000    312.02737    289.67786   -0.7248518   -0.2284166    22.349509 
168184000    312.67337    287.92118  -0.99288793 0.0053187705    24.752186 
168188000    320.93819    296.22123   -2.5742048  -0.68557059    24.716954 
168192000     310.4381     284.6514   -2.3171719    1.6304527    25.786707 
168196000    320.25002    283.50428   -2.8073114  -0.11378768    36.745738 
168200000    292.99632    283.27051   -1.3275736   0.37023883      9.72581 
168204000    303.62218    295.87984  -0.19788138   -0.3505548    7.7423433 
168208000    333.46135    288.14492   -2.3350001  -0.68013709    45.316431 
168212000    327.22614    269.42469   -1.6698378    1.5068426    57.801448 
168216000    325.09851    283.73767   -1.7293004    1.1860693    41.360842 
168220000    301.37266    269.06468  -0.13667371   0.85030369    32.307975 
168224000    322.91877    285.36093   -1.1297378   0.62874189    37.557839 
168228000    294.71806    279.24106  -0.67389998   0.78628539    15.476996 
168232000     355.5568     265.2972   -2.7867119   0.82906449    90.259602 
168236000    324.43856    270.97865  -0.96188501   0.13117304     53.45991 
168240000    315.66967    268.51744  -0.12521691   0.74526097    47.152221 
168244000     311.5808    285.26177  -0.17162342 -0.048725871    26.319032 
168248000     325.4508    300.53232   -2.1426633  0.088550414    24.918476 
168252000    307.67678    294.43508   -1.7900662  -0.98768382    13.241693 
168256000     337.1622    289.17491    -2.258684  -0.27718566    47.987289 
168260000     344.5883    268.25946   -2.7695522   0.52085273    76.328843 
168264000    326.60316     273.4502   -1.6825996 0.0091858145    53.152961 
168268000     315.3616    301.87291   -1.7375682   -1.8752885    13.488685 
168272000    334.78681    268.98467   -2.2055943    0.5895013    65.802141 
168276000    315.88643     280.3642   -1.8486134   -1.2471228    35.522235 
168280000    335.87296    285.29591   -4.3238406  -0.12766731    50.577048 
168284000    324.43742    296.31545   -2.2866068  -0.25292886    28.121966 
168288000    330.87241    277.25471    -2.183137     1.104465    53.617693 
168292000     335.5892    271.22837   -2.1307546    1.1522923    64.360834 
168296000    321.69234     288.4173   -2.9451805   0.44555319    33.275043 
168300000    321.35382    293.73325    -1.138563   -1.1704032    27.620566 
168304000    315.68947    263.27982   -2.1451206   0.49823471    52.409644 
168308000    339.39992    260.75803   -2.9392998   0.81236281    78.641887 
168312000    311.32144    276.49593     -1.52047  -0.52570945    34.825507 
168316000    319.42268    299.98138   -1.0670563  -0.57726704    19.441306 
168320000    324.81464    271.69074   -1.5057199  -0.67413482    53.123898 
168324000    336.99629    280.66594   -2.0645834  -0.60119669    56.330343 
168328000    315.96831    268.82169   -1.5523668  -0.69586319    47.146621 
168332000    323.08908    258.25502   -2.0985544  -0.26530545    64.834055 
168336000    313.91869      281.884   -2.2563546   -1.0860304    32.034696 
168340000    303.58507    274.98893   -1.4789774    -1.038436    28.596144 
168344000    327.12442    288.47949    -2.466368   -1.0084495    38.644926 
168348000    340.13527    286.36484   -3.5346659   -1.0380249    53.770427 
168352000    320.82981    272.61875   -2.2841786 -0.068211652     48.21106 
168356000     332.2566     274.3407   -3.1501441  -0.70565279    57.915902 
168360000    317.12731    268.27511   -1.3177188  -0.50923689    48.852196 
168364000    338.38188    287.08371    -1.836235  -0.70445208    51.298165 
168368000    299.83789     292.5641   -0.4151244 -0.025941957     7.273788 
168372000    317.48265    289.77169    -1.636806   -1.2461209    27.710962 
168376000    283.05333    290.03785  -0.47058396   -1.0160777   -6.9845219 
168380000     308.8468    257.71799   -1.6996056 -0.064507016    51.128804 
168384000    317.33029    277.47976   -2.2875553  -0.80466777     39.85053 
168388000    333.91614    279.80985   -3.0837506  -0.79577602    54.106284 
168392000    308.08583     281.5653   -1.2784328  -0.14099476    26.520529 
168396000    336.25515    270.29973   -3.4635533   0.14592042    65.955414 
168400000    293.51742    259.95239   -1.6936683    1.4571265    33.565031 
168404000    317.84437     274.4697    -2.672046  -0.47720729     43.37467 
168408000    319.78203    298.16243   -3.5562758   -1.1884743    21.619599 
168412000    303.62149    293.68218   -1.9979922   -1.5055959     9.939309 
168416000    331.06857    288.37221    -2.257102  -0.31242198    42.696365 
168420000    331.26845    275.89078   -3.2070715  -0.83686978     55.37767 
168424000    352.19024    295.66217   -3.7689502   -2.1645244    56.528063 
168428000    321.47557    293.02017   -2.2312569   -1.5528232    28.455406 
168432000    296.10148    307.62535  -0.42362075  -0.90985457   -11.523871 
168436000    312.29872    277.45349  -0.69918159  -0.54868186    34.845238 
168440000    306.21234    281.06399  -0.81342293   -0.6940193    25.148347 
168444000    311.90597    282.75407   -3.2598311   -1.4166019    29.151901 
168448000    319.28861    281.96498   -2.7395746    -1.178292     37.32363 
168452000    286.47626    290.08117  -0.35514141   -1.8601934   -3.6049125 
168456000    323.26388     278.8214    -2.410028   -1.0898219    44.442485 
168460000    317.84776    288.25888   -2.5860372   -1.2359358    29.588878 
168464000    331.72225    279.25833   -2.6018392   -1.1603163    52.463918 
168468000     307.1813    273.35831   -2.0878868   0.51937104    33.822988 
168472000    311.67392     289.7974   -2.8991294  -0.65542478    21.876527 
168476000    305.64805    281.50689   -2.5517075   0.21634101    24.141163 
168480000    307.29705    259.20719   -2.0921894 -0.093402037    48.089854 
168484000    354.50337    290.67602   -4.8144801  -0.56442983    63.827347 
168488000    309.39971    260.97425   -1.2269483  -0.71283865    48.425461 
168492000    332.43906    280.87569   -2.0886655   -1.5205161    51.563372 
168496000    322.86589      273.628   -2.6113469  -0.38340688     49.23789 
168500000    344.99963    284.61539   -4.0668447   -1.4902002    60.384234 
168504000    301.45533      282.471   -1.5588053   -0.7311799    18.984327 
168508000    332.94212    298.19222   -3.7013802    -1.431949    34.749903 
168512000    315.51657     308.7477   -3.6951772   -1.4810251    6.7688684 
168516000      313.124    271.52084   -2.3300535  -0.38691226    41.603165 
168520000    334.75129    272.61463   -5.0000684  -0.82172428    62.136661 
168524000    336.97673    308.65388   -4.9379434   -2.8169968    28.322851 
168528000    318.76378    279.68392   -4.4847001  -0.57309802     39.07986 
168532000    334.20437    270.49891   -3.7523761   -1.0543627    63.705457 
168536000     302.0858    295.61998   -3.1302326   -1.3237131    6.4658209 
168540000    349.92237    275.29714   -4.7710941   0.63728444    74.625228 
168544000    334.11024    266.79851   -4.5428802   0.26369591     67.31173 
168548000      310.823    280.97206   -3.1284878  -0.55947507    29.850939 
168552000    318.98442    273.22314   -3.7081717   -1.0351074    45.761278 
168556000    304.07141    290.52053   -2.2998256   -1.2567728     13.55088 
168560000    320.14076     267.7757   -3.8130549  -0.30910673     52.36506 
168564000     311.3845    267.03165   -2.0986373  -0.41396811    44.352849 
168568000    296.26285    280.13214   -2.8644464  -0.43816036    16.130712 
168572000    327.37084    276.22146   -4.8175166   0.22952901    51.149378 
168576000    302.05164    292.36587   -2.9142975  -0.58272887    9.6857663 
168580000     330.4854     301.0897    -4.172905   -2.2394412    29.395697 
168584000    321.94823    284.19992   -3.7385808   0.30504462     37.74831 
168588000    311.32496    275.09048   -3.4495679  0.040581251     36.23448 
168592000    305.05197    298.36817    -3.011769   -1.2403123    6.6837954 
168596000    333.47972    273.66966    -4.619957   0.49129279    59.810061 
168600000    333.95936    265.72942   -5.2845235    -0.339523    68.229941 
168604000     318.4654    295.11568   -4.9727543      0.34959    23.349717 
168608000    323.90052    297.65939   -5.4827094  -0.62072853    26.241123 
168612000    314.70222    287.14543   -3.3256102   0.66329386    27.556786 
168616000    307.31954    261.66765   -3.5163304   0.71356541    45.651889 
168620000    319.07555    280.21498   -4.5546421    1.0406073    38.860572 
168624000     305.4717    305.76496   -3.8248182 -0.098562988  -0.29326628 
168628000    280.88227    281.53571   -1.4235877    1.0070913  -0.65344026 
168632000    309.98678    277.13352   -3.1368439    1.3539958    32.853252 
168636000    356.58578    276.64343   -4.8512508    1.0931589    79.942353 
168640000    297.97912    269.49443   -2.6474392    1.0381459     28.48469 
168644000      347.953    282.46713   -6.1892971    0.2978489    65.485875 
168648000    321.25285    275.98243   -4.4369481   0.88736878    45.270418 
168652000    323.88993    277.97297   -5.2724666    1.1006744    45.916967 
168656000    330.68919    269.64371   -4.9337857    2.1240797    61.045482 
168660000    333.69677    289.61641   -5.2369334  -0.80584057    44.080363 
168664000    311.02854    279.43043   -4.8417439   0.90500643    31.598116 
168668000    307.92005     273.7101   -3.7950095   0.52136811     34.20995 
168672000    310.36231    261.70861   -4.4719064    1.2448167    48.653703 
168676000    324.86802    283.05367   -4.2491016  -0.29017178    41.814343 
168680000    332.54013     282.9559   -5.1988922  -0.31279641    49.584231 
168684000    307.01462    274.88028   -4.3562354      1.30975    32.134343 
168688000    341.18923    255.14459   -5.4660385    2.7020203    86.044643 
168692000    321.09542    291.83461   -4.1379252  -0.18741762    29.260812 
168696000    302.64897    292.39494   -3.3975401 -0.048388765    10.254026 
168700000    339.91522    278.26935   -5.3319422   0.81674948    61.645867 
168704000     331.6365    283.82961   -5.3651662   0.83936618    47.806891 
168708000    300.83571    294.86326   -3.8366807  -0.72084012    5.9724487 
168712000    337.49008    274.49363   -4.5635655    0.5095331    62.996457 
168716000    320.11565    280.35431    -3.947889   0.30659097    39.761346 
168720000    327.94354     277.5083   -3.8758128    1.0084167    50.435236 
168724000    330.59292    282.86841   -4.7817177 -0.055148985     47.72451 
168728000    350.90208     275.8649   -5.3015914    1.6382599    75.037178 
168732000     323.5597    300.23682   -3.7010097    1.3281264    23.322886 
168736000     304.4521    277.03062   -3.2626872    1.5601852    27.421474 
168740000    331.48985    270.21155    -4.921654    2.1034863    61.278298 
168744000    309.19125    278.58272   -3.7438016    1.7053148    30.608535 
168748000    326.15965    270.48439    -6.105838    1.9280373    55.675255 
168752000    304.25965    280.34625   -3.6520574   0.80218467    23.913403 
168756000     305.4294    273.09055   -4.5559524   0.93777472    32.338852 
168760000    336.65428    285.26781   -5.0047906   0.49408432    51.386466 
168764000    309.72901    272.62753   -3.8007551     1.015675    37.101479 
168768000    315.84812    284.55859   -4.3324739   0.69227536    31.289528 
168772000    345.19472    292.32562   -5.9000246 -0.069254606      52.8691 
168776000    339.63761    278.31953   -4.8217917  0.054150942    61.318081 
168780000    317.96921    266.62397   -5.1965161    2.4053366    51.345237 
168784000    318.33812    275.25872   -4.4371024    1.7605539    43.079401 
168788000    332.50796    282.03102   -4.8498035   0.97692179    50.476942 
168792000    326.91647    277.63072   -4.4930427   0.87209391    49.285746 
168796000    313.91862     286.5229   -4.5986377   0.93446884    27.395719 
168800000    301.47561    284.74657   -3.4853966     1.171289    16.729041 
168801000    347.12238    280.21788   -4.8818973    1.1966058    66.904497 
Loop time of 1142.01 on 4 procs for 800000 steps with 1498 atoms

Performance: 15.131 ns/day, 1.586 hours/ns, 700.521 timesteps/s
99.6% CPU use with 4 MPI tasks x no OpenMP threads

MPI task timing breakdown:
Section |  min time  |  avg time  |  max time  |%varavg| %total
---------------------------------------------------------------
Pair    | 570.23     | 787.92     | 1011.5     | 761.4 | 68.99
Bond    | 3.5209     | 5.5261     | 7.4066     |  79.7 |  0.48
Neigh   | 6.512      | 6.5146     | 6.5163     |   0.1 |  0.57
Comm    | 15.002     | 225.12     | 439.84     |1395.3 | 19.71
Output  | 0.0061628  | 0.020267   | 0.039815   |   8.6 |  0.00
Modify  | 60.968     | 89.527     | 120.07     | 230.3 |  7.84
Other   |            | 27.38      |            |       |  2.40

Nlocal:    374.5 ave 714 max 35 min
Histogram: 2 0 0 0 0 0 0 0 0 2
Nghost:    2382 ave 4274 max 496 min
Histogram: 2 0 0 0 0 0 0 0 0 2
Neighs:    13107 ave 25904 max 315 min
Histogram: 2 0 0 0 0 0 0 0 0 2

Total # of neighbors = 52428
Ave neighs/atom = 34.9987
Ave special neighs/atom = 0.518024
Neighbor list builds = 1481
Dangerous builds = 0
unfix 1


# PRODUCTION

fix             1 all nve
fix             hot all langevin ${TThi} ${TThi}  0.005 59804  tally yes
fix             hot all langevin 320 ${TThi}  0.005 59804  tally yes
fix             hot all langevin 320 320  0.005 59804  tally yes
fix             cold all langevin ${TTlo} ${TTlo} 0.005 287859 tally yes
fix             cold all langevin 280 ${TTlo} 0.005 287859 tally yes
fix             cold all langevin 280 280 0.005 287859 tally yes
fix_modify      hot temp Thot
fix_modify      cold temp Tcold

variable        tdiff equal c_Thot-c_Tcold
thermo          4000

dump gigo all atom 4000 dump.cords_xyz.dat
dump_modify gigo scale no
dump vfgigo all custom 4000 dump.velo.dat id vx vy vz fx fy fz

# thermal conductivity calculation
# # reset langevin thermostats to zero energy accumulation
#
compute         ke all ke/atom
variable        temp atom c_ke/1.5/0.00008617333262

fix             ave all ave/time 100 40 4000 v_tdiff ave running
thermo_style    custom step temp c_Thot c_Tcold f_hot f_cold v_tdiff f_ave

#compute         layers all chunk/atom bin/1d z lower 0.05 units reduced
compute         layers all chunk/atom bin/1d z lower ${dz} units box
compute         layers all chunk/atom bin/1d z lower 6.0700273388011 units box
fix             2 all ave/chunk  100 40 4000 layers v_temp file profile.langevin

run             16000000
WARNING: Using a manybody potential with bonds/angles/dihedrals and special_bond exclusions (../pair.cpp:218)
Neighbor list info ...
  update every 1 steps, delay 0 steps, check yes
  max neighbors/atom: 2000, page size: 100000
  master list distance cutoff = 16
  ghost atom cutoff = 16
  binsize = 8, bins = 3 3 23
  4 neighbor lists, perpetual/occasional/extra = 4 0 0
  (1) pair lj/cut, perpetual, skip from (4)
      attributes: half, newton on
      pair build: skip
      stencil: none
      bin: none
  (2) pair morse, perpetual, skip from (4)
      attributes: half, newton on
      pair build: skip
      stencil: none
      bin: none
  (3) pair eam, perpetual, skip from (4)
      attributes: half, newton on
      pair build: skip
      stencil: none
      bin: none
  (4) neighbor class addition, perpetual
      attributes: half, newton on
      pair build: half/bin/newton
      stencil: half/bin/3d/newton
      bin: standard
Per MPI rank memory allocation (min/avg/max) = 12.03 | 12.29 | 12.44 Mbytes
Step Temp c_Thot c_Tcold f_hot f_cold v_tdiff f_ave 
168801000    290.20842    347.12238    280.21788           -0           -0    66.904497            0 
168804000    278.79019    339.26312    261.01974   -0.9478898    1.4584001    78.243385            0 
168808000    277.81963    332.79227    257.14775 -0.080123919    1.1595738    75.644521    36.798662 
168812000    283.03667    306.59823     284.8597   0.86113308  -0.66986374    21.738528    40.228478 
168816000    270.85977    305.51879    286.76074    1.0809386  -0.93556424    18.758049    40.599775 
168820000    282.72901    300.63951    299.11245    1.4612781  -0.99433261    1.5270585     39.60987 
168824000    274.66717    335.88913    270.29488   0.13787035   0.21411803    65.594249    39.237406 
168828000    286.25854    347.81605    292.13644   0.19036427   -1.0612675    55.679611    39.420212 
168832000    268.92854    294.56841    274.53604    1.5617217   0.61578567    20.032377    39.180866 
168836000    279.45561    336.27187    264.14187 -0.042423886    1.8725684    72.130003    39.323147 
168840000    282.48792    350.57021    271.77362   -1.8295141    1.2911491    78.796591    39.629545 
168844000    272.98493    309.62678    269.52215   0.67904729    1.9109511    40.104632    39.034524 
168848000    287.91512    334.67495    286.70375   -0.2453646   0.98863915    47.971199    39.363478 
168852000    279.30912    336.05284    283.00242   0.42114626   0.39537406     53.05042    39.387166 
168856000    274.62274    314.82639    275.52801    1.4497631   0.37677435    39.298382    39.087166 
168860000    280.54731    317.56254    292.63621    1.8714116   -0.1000061    24.926328    39.417434 
168864000    275.95134    309.03736    283.92361    2.1189685   0.79313991     25.11375    39.337819 
168868000    276.20315    337.15036    282.48556   0.79216702    1.2633608    54.664801    39.416654 
168872000     271.1287    302.75985    290.03893     1.063868    1.7455686    12.720921      39.3467 
168876000    276.31452    331.60345    277.62161    2.1795675    1.4435887     53.98184     39.14732 
168880000    271.89711     326.7705    278.69542    1.8552911   0.67261837    48.075084    39.477178 
168884000    279.25385      346.667    274.26609   0.73217067    1.7079881    72.400908    39.527837 
168888000    272.79042    330.72305    272.73239    1.4997547    1.5335326    57.990667    39.597791 
168892000    270.63484    304.46659    291.03275    3.5415303    1.0226729    13.433837    39.497301 
168896000    268.89271    309.16542    296.68245    3.1751169    1.2303956    12.482972    39.381061 
168900000    272.84304    326.40875    292.81294     3.033843    1.0571922    33.595818    39.576388 
168904000    273.47327    323.41199    287.13932    2.1763371    1.5006177    36.272672    39.608038 
168908000    274.57715    329.91521    275.34598    2.4649448    2.1925682    54.569227    39.657057 
168912000    265.74678    318.58912    261.73847    2.9474356    3.3671033    56.850643    39.686589 
168916000    272.73286    330.34782    289.18972    1.4214515    1.5666525      41.1581    39.605904 
168920000     272.2418    321.54526    265.62622    2.6053276    1.8288564    55.919032    39.675231 
168924000     275.2934    320.14385    274.09391    1.6472862    1.9080108    46.049942    39.872429 
168928000    265.72408    296.55285    271.83796    3.4749403    1.4102029    24.714889    39.863282 
168932000    276.40927    343.51361    281.36583    1.7343479   0.76416358    62.147775    39.743184 
168936000    273.98393    327.18923    284.21824    2.5758337   0.95509727    42.970995    39.947563 
168940000    277.37683    320.25239     297.1193    2.9516018   0.57531126    23.133089    39.988499 
168944000    276.67762    305.58903    280.29366    2.7055614   0.80526846    25.295373    39.946347 
168948000    269.58815    314.87608    286.58642    3.0312807   0.18169764     28.28966    39.884262 
168952000    279.05194    333.02018    278.94582    2.4639813    1.7312563    54.074356    39.967183 
168956000    275.03194    335.61103     279.3505    1.6165673   0.83704019    56.260528    40.097404 
168960000     268.6961    310.22164     283.4802    3.0909872    0.9178974    26.741437    40.035749 
168964000    266.07544    331.50481    258.20792    2.4718012      2.18513    73.296889    40.130363 
168968000    277.25254    313.44004     276.8342     2.789037    2.4954737    36.605839    40.202232 
168972000    272.16113    342.52047    264.21893    1.3744963     2.206921    78.301531    40.212559 
168976000    277.79626    337.53799     271.0116    2.6210627    1.3696733    66.526391    40.329006 
168980000    268.91394    318.79998    264.37246    3.1874501    2.2752714    54.427519    40.357558 
168984000     268.3814    327.56766    260.26181    2.2633541    1.8308624    67.305855    40.274111 
168988000    268.83189    316.10799    275.85712    2.9571684    2.0028375    40.250873    40.319031 
168992000    271.30939    316.25598    256.89836     2.927735    2.8030446    59.357625    40.262116 
168996000    273.46821    335.52448    279.30836    2.5739103  0.064645702     56.21612    40.302973 
169000000    283.05252    333.55561    293.04396    3.1816047   0.23259859    40.511642    40.227952 
169004000    277.56893    319.00665    279.67589    3.5447163    1.1794147    39.330751    40.242321 
169008000    274.87559    314.39792    290.28959    2.8149118 -0.0046703428    24.108331     40.21824 
169012000    268.56214    322.81163    271.70964    2.4454556    1.6548322    51.101995    40.259962 
169016000    263.39036    309.15425    254.73936    2.8695383    1.9603918    54.414896    40.216359 
169020000    268.96435    307.23698    289.66635    2.4364872   0.39603276    17.570622    40.131572 
169024000    280.54872    340.81841    279.05745    2.0800853    1.1016218     61.76096    40.107855 
169028000    277.00955    325.75934    286.72545    1.7082009   0.72245807    39.033883    40.108877 
169032000    277.52384    330.80288    262.49563    1.8641624   0.83322515    68.307256    40.122881 
169036000    266.53485    296.73403    266.79686    3.6758583   0.73335553    29.937176    40.105481 
169040000    279.51882    313.45873    296.22493    3.7777562  -0.34604458    17.233802    40.014835 
169044000    273.67033    325.22033    259.24695    2.6283816   0.60571266    65.973378      39.9974 
169048000    280.73455     324.3504    297.50242    2.3546106  -0.68711874    26.847986    39.930905 
169052000    275.17477    318.53371    279.13213    2.0131861   0.38918679    39.401584    39.937586 
169056000    272.19606    312.15101    274.40835    2.9119589   0.65734267    37.742656    39.958374 
169060000    277.34079    325.32471    281.78109    2.3876359   0.57097871    43.543618    39.935751 
169064000    283.97352    342.31795    281.96097   0.13519943  -0.40688096    60.356985    39.863519 
169068000    278.67891    299.78378    301.18685    1.8968508  -0.52176148   -1.4030765    39.861846 
169072000    281.60807    331.85496    294.37613    1.2532726   0.10576387    37.478833    39.901178 
169076000     275.5904    312.59169    262.21452    3.2019172    1.3895143    50.377168     39.95769 
169080000    283.87742    321.47787    290.50227    1.2455033  -0.60040678    30.975596    40.023599 
169084000    277.08605    338.49394    274.74531   0.71762503    1.1442805    63.748633    40.012138 
169088000    273.63312     308.0015    292.77621    2.0801816 -0.023575537    15.225287    40.012888 
169092000    274.55465    338.03086    279.05752    1.5141274   0.87880672    58.973344    39.984609 
169096000    264.18186    286.94987     286.6068    3.5237174   0.47721392   0.34307154    39.919549 
169100000    269.96451    307.29254    286.33696    3.3546409  -0.22097783    20.955575    39.870366 
169104000    270.55157    314.59246    264.68934    3.6259619    1.6884347    49.903118    39.850773 
169108000    276.83619    346.41866    270.46764    1.6739339    1.5508298    75.951011    39.833037 
169112000     269.7103     313.3714    272.69637    3.2123667    1.3259737    40.675033    39.809247 
169116000    281.06126     313.1781    289.39798    2.7093472  -0.23676806    23.780123    39.761826 
169120000    269.10722    322.44928    270.25397    2.2635661   0.48714863    52.195305    39.788816 
169124000    275.39115    325.95257    274.63272    1.4559117    1.2794382    51.319854    39.815406 
169128000    269.70994    322.72218    254.33278    2.5007149      1.10274    68.389404    39.836686 
169132000    277.73228    318.63216    291.16397    2.5582313  -0.81041257    27.468187    39.899827 
169136000    269.67675    320.08341    267.62389    2.2311675   0.98870132    52.459527    39.923909 
169140000    270.43079    301.57545    278.02659     2.361287   0.67618179    23.548859    39.878514 
169144000    267.66355    315.02322    271.63863    1.2998501 -0.019704927    43.384587    39.899241 
169148000    273.81886    312.23294    294.43924    2.3852133  -0.15438962    17.793696    39.942428 
169152000    274.25759    336.28813    255.68787     1.594236    2.8892128    80.600259    39.973625 
169156000    280.51758    330.56399    268.10927    2.0291697    1.5295073    62.454721    39.968714 
169160000    267.82134    324.79682    276.14054    2.2089602   0.90686543     48.65628    40.003203 
169164000    284.58462    339.10034    291.31943    1.9249996  -0.26627235    47.780902     40.03234 
169168000    274.25823    311.87188    278.09775    2.9698909    2.0824242     33.77413    40.056975 
169172000    275.68198    331.77068    265.51343    1.9338276    1.0465536    66.257255    40.058185 
169176000    279.23016    312.91497     285.7012     2.721283   0.96230154    27.213775    40.041682 
169180000    275.61333    298.36488    275.82485    2.8740654    2.0685428    22.540037     40.05743 
169184000    276.00409    303.14753    289.84257    2.8118422   0.96693638    13.304961    40.088327 
169188000    285.71704    334.02153     301.3511    2.0637257   0.41521405    32.670428    40.057535 
169192000    270.40167    301.76585    281.42804    2.7077897    1.5942957    20.337806    40.051752 
169196000    280.42366    327.23375    291.77414   0.69960566      2.12976    35.459615    40.033713 
169200000    273.54737    304.63356    294.43912    1.7889348    1.9369398    10.194433    39.984074 
169204000    271.72333    318.20288    283.47235   0.38260482   0.63729408    34.730532     40.01958 
169208000    273.69721    330.56635    260.81646   -0.2844904    2.0844012    69.749887    40.013055 
169212000    279.91928    312.86298    289.23081  -0.15092671    1.0023913    23.632168     40.03126 
169216000    280.39056    339.87793    267.88949  -0.18359127    3.9426448    71.988446    39.992001 
169220000    283.39385     325.6537    294.82412   0.71348717    1.5549677    30.829576    39.978942 
169224000    283.64998    325.39251    283.82774    1.1972713    0.8527014    41.564768    39.929928 
169228000    282.10683    327.93355    297.57925   0.47997047  0.096773085    30.354307    39.918425 
169232000    271.61993    309.12593    285.88826    1.0082432    1.4095138    23.237668    39.905079 
169236000    279.97048    306.04178    287.22711     1.665683    1.5590123    18.814667    39.922388 
169240000    269.75438    326.05396    264.40356    1.6454259    1.4035691      61.6504    39.927011 
169244000    273.15812    312.32844    293.52245    0.8065391   0.85725575    18.805992    39.930529 
169248000    277.33953    340.38306    261.67224  -0.13942993    3.1548461    78.710815    39.945614 
169252000    274.93768    322.92711    274.56541   0.80495262    1.6458975    48.361697    39.901526 
169256000    276.73887     324.4919     287.1173    1.0634476    1.7901754      37.3746     39.85431 
169260000    273.73273    312.01895    282.90849    1.2903018    1.7539202    29.110455    39.892493 
169264000    275.20705    303.80042     276.5822    1.6309437    1.5549725    27.218213    39.844099 
169268000    279.83003    321.37899    297.41895  -0.21163935    2.1172457    23.960039     39.84433 
169272000    281.57763    327.64878    296.66065  -0.51449829    1.3998951    30.988131    39.872273 
169276000    261.40611    290.32414     270.0776     2.065707    2.1906624    20.246537    39.873086 
169280000    281.53476    324.75298    275.63283  -0.40181145    2.1160111    49.120157    39.839155 
169284000    276.23365    328.69012    260.37177   -1.8791251    1.9538387    68.318343    39.844077 
169288000    279.32674    322.32649    285.68441  -0.61609047    1.0291961    36.642079    39.846502 
169292000    268.84199    306.28042     261.7166   0.26744679    3.0550191    44.563822    39.838175 
169296000    290.44161     330.1346    299.83353   -1.2040382    1.4616944    30.301074    39.849618 
169300000    279.27971    339.71367     265.3482   -1.4305384    2.1358724    74.365465    39.865534 
169304000     270.3968    319.24685    278.05062   0.14781181    1.4242921    41.196229    39.882747 
169308000    278.25684    332.55601    286.78641  -0.67247585    2.1361758    45.769607    39.852792 
169312000    274.30944    298.31755    281.91103   0.16142434     1.492488    16.406524     39.84865 
169316000    284.72691    317.78822    280.09005  -0.22133092    2.0597613    37.698162     39.85471 
169320000    284.56549    335.13963    278.91116   0.40189335    1.8986363    56.228472    39.907299 
169324000    282.87772    329.97273    296.28387    0.5408173     1.154893     33.68886     39.89734 
169328000    281.88867    313.98523    286.37109  -0.64042625    1.5190129    27.614138     39.91633 
169332000    274.23206    317.32531    284.52796   -1.3487368    2.1527235    32.797348    39.939568 
169336000    281.78639     321.2603    287.28152   -1.1641273    1.7593071    33.978784    39.954366 
169340000    277.80843    319.73275    312.78026  -0.15817073    1.4542691    6.9524867    39.969184 
169344000    280.08967    342.88816    282.92562   -1.3899267    3.0193976    59.962538     40.01466 
169348000    274.84883    320.57597    282.66718 -0.083411259    2.1294855    37.908797    40.001139 
169352000    281.85241    335.13634    276.67239  -0.87788379    2.4331318    58.463956     40.00705 
169356000    271.79912     336.8765    283.59581   -1.1093196    2.2310373    53.280687    39.993388 
169360000    281.58566    325.51591    276.90015   -1.6532706    2.4344741    48.615767    39.960357 
169364000    272.96085    308.92212    277.21305   0.74045062    1.5752157    31.709069    39.971415 
169368000    274.56726    298.55937    286.57847   0.51551481    2.2320291      11.9809    39.994494 
169372000    278.60009    323.54574     279.0407   -1.1434506    1.3065782    44.505047    39.993357 
169376000    273.53866    308.80041    269.13836    1.3464478    2.6281706    39.662048    39.974885 
169380000    269.94481    312.31644    287.12889    1.1858797   0.74599786    25.187551    39.971307 
169384000    277.35868    337.27541     277.8462  -0.70666834    2.9427831    59.429206    39.973722 
169388000    273.91507    297.16275     284.0745   0.74424598      1.56246    13.088255     39.97576 
169392000    274.49099    291.59203    296.31428    1.3738067    2.0336509   -4.7222551     39.95304 
169396000    286.41189    330.76905    297.74649  -0.88761787    2.4371538    33.022553    39.975093 
169400000    276.26485    323.87282    280.13111  -0.17407631    3.4527101     43.74171    40.000037 
169404000     276.5924    316.50517    271.20185   -1.3480988    4.3821342    45.303321    40.008053 
169408000    280.71697    327.28958    277.02796   -1.0307325    2.8367582    50.261624    39.978185 
169412000    271.61328    297.45777    302.48485   0.72809928    3.0854699   -5.0270749    39.968396 
169416000    279.11351    315.77532    297.47746  -0.43023478    2.6229621    18.297856    39.971873 
169420000    278.83638    328.67155    280.63003   -1.2731988    4.2734531    48.041521    39.962244 
169424000     271.6932    314.15926    267.45547  -0.80567015     5.012041     46.70379    39.967087 
169428000    271.92739    297.09548    278.56374    0.4952364     3.843153    18.531735      39.9793 
169432000    278.06722    306.72601    300.14917   0.19897431     2.724307    6.5768398    39.972159 
169436000    280.24072    353.37645    263.56229   -1.8198001    3.5691128    89.814168    39.975315 
169440000    264.62168     316.3408    258.02368   -1.7832716    4.3084833    58.317123    39.947729 
169444000    274.47203    315.00517    281.58999   -1.2060484    3.2042978    33.415184    39.923706 
169448000    275.06492    337.71248    281.39727   -1.7095333    4.0662742    56.315211    39.909739 
169452000    274.19073    321.10856    282.44215   -1.7490066    3.2822433    38.666413    39.952464 
169456000    283.58246    331.97902    300.05819  -0.60303111    3.4775212    31.920827    39.956713 
169460000    268.34599    322.39011    264.14178 -0.035442946    4.2682942    58.248326    39.963507 
169464000    274.64208    326.69179    267.07877  -0.55346157    5.1932303    59.613021    39.984345 
169468000    278.21548    313.22773    274.34509  -0.20974949    3.6123869    38.882636    39.981052 
169472000    275.95511    315.15221    256.82827  -0.27424632    4.4409859    58.323941    40.014715 
169476000    270.69287    306.71018    285.59533  -0.69922866    2.8132143    21.114849    39.997031 
169480000    272.45957    308.36625     285.2755  0.079985356    3.7212909    23.090756    40.016337 
169484000    282.28968    309.94479    275.98123   0.21459923    4.3473039    33.963559    40.000257 
169488000    277.32023    328.64768    282.31894   0.22688459    3.6689561    46.328742    40.013694 
169492000    277.35172    306.44783    303.42936   0.29180338    2.5585755    3.0184743    39.999024 
169496000    265.78063    308.99045    267.46034  -0.56073401    4.6447093    41.530111    40.016883 
169500000    279.38689    346.44265    300.99087   -2.3625447    2.9460186    45.451781    40.041711 
169504000    276.90411    334.27319    277.42106  -0.56453368    4.1384483    56.852134    40.035354 
169508000    273.53933    310.22401    278.38765  -0.85767943    4.4106156    31.836354    40.034993 
169512000    269.35918    322.28312    268.71049    1.3333796    4.5890828    53.572633    40.063192 
169516000    269.86731    348.81116    249.19009   -1.6684003    5.1243556    99.621069    40.040948 
169520000    267.74832    314.72391    265.18777  -0.42412685    4.3637618    49.536139    40.050905 
169524000    278.77599    316.36328    297.35514    -0.203889    3.7356698    19.008141      40.0472 
169528000    276.71956    342.57942     283.3476   -1.7687157    4.1760937    59.231822    40.061755 
169532000    276.98825    313.18581    281.22062 -0.086849439    4.4992949    31.965191    40.055272 
169536000     280.0308    330.00754     283.8256   -1.2641235    3.3382809    46.181946    40.070632 
169540000    278.56808    321.41142    285.43485  -0.41188676    3.7558646    35.976576    40.054962 
169544000      278.257    326.09158    266.16145  -0.42877563    4.2661198    59.930131    40.078871 
169548000    275.18852    329.55603    291.20857   -2.7156207    3.0465991    38.347465    40.077664 
169552000    281.14664     302.0283    295.54156  -0.73696774    2.8869014    6.4867332    40.058844 
169556000    283.28406    321.85572    285.70634   -2.0932189    3.1215932    36.149375    40.050687 
169560000    278.35527    339.66624    270.35278   -2.7714382    4.2541835    69.313461    40.040087 
169564000    269.50453    310.09907    272.82337  -0.83681095    5.2555295    37.275695    40.041231 
169568000    278.47383    327.36909    275.94835   -1.1788629    5.5689546    51.420744    40.057976 
169572000    277.45266     323.6835     286.4105   -1.5097045    4.5039299    37.273004     40.07335 
169576000    276.65867    337.65283    277.45012   -2.0186719    3.9462831    60.202704    40.100345 
169580000    275.40621    326.30649    284.67709   -1.9396101    3.5349552    41.629403    40.134666 
169584000    278.77996     325.1139    275.50624   -1.6167369    4.3668904    49.607663    40.134366 
169588000    272.55366    346.96898    246.38815   -2.4943406    6.2307016    100.58083    40.125678 
169592000    282.53488    323.92308    303.34433   -3.0364338    3.0775431    20.578751    40.111566 
169596000    281.78244    326.19032    298.09954   -2.3624414    3.0667647    28.090782    40.131212 
169600000    280.94847    315.94367    273.62062   -2.8715884    4.1485303    42.323049    40.126757 
169604000    276.78745    323.50448    272.97418   -2.9994932     3.077244    50.530302    40.109861 
169608000    283.40199    331.89876    278.41113   -3.3435915    3.4315155    53.487634    40.133252 
169612000    281.31095     325.3858    283.84782   -1.3159637    2.9651487    41.537979    40.133141 
169616000    274.71477    304.69918    278.46502  -0.41254871    3.6017135    26.234154    40.120753 
169620000    279.02747    326.10294     284.0663   -1.6641115    2.7180274    42.036639    40.115066 
169624000    280.56223    325.66098    290.63662   -1.5197041    2.5867572    35.024359    40.120281 
169628000    288.03301    347.02212    287.57981   -2.4656857    2.1283485    59.442308    40.121416 
169632000    273.90977    322.90583    272.71904   -1.1666252    3.3240886    50.186784    40.124825 
169636000    280.79158    329.64246    273.13722   -1.4571439    3.7707338    56.505241    40.117897 
169640000    266.04959    296.58496    276.45326 -0.080891318    3.1368226    20.131698    40.104987 
169644000    279.79036    314.83578    302.33117    -1.288093    3.0630566    12.504611     40.08445 
169648000    274.53529    311.14775    264.55443   -1.5856525    4.0767061    46.593322    40.095132 
169652000    282.80087    323.11924    278.21745   -1.5337725    3.6769791    44.901793    40.088345 
169656000    268.15814    295.71883    261.91532   -1.2709862    5.9398071    33.803516    40.072951 
169660000    273.57849     317.7581    269.36284   -2.4075996    5.1530044    48.395268    40.078609 
169664000    276.31575    326.67476    276.97363   -2.3673922    3.8915594    49.701134    40.063892 
169668000    273.23773    320.01842    270.08318   -1.8227986    1.8774084    49.935246    40.062417 
169672000    272.36191    297.06811    271.17864  -0.41911119      3.65065    25.889465    40.042418 
169676000    272.02143    319.82593    252.59272   -1.5572968    4.5241121    67.233216      40.0608 
169680000    271.49369    321.70781    270.48254  -0.67490071    4.6307146    51.225263    40.073061 
169684000    264.70433    298.95882    244.26012  -0.58407384    5.5815481    54.698696    40.094974 
169688000    274.33219    315.25558    277.86201  -0.47959799    4.3639881    37.393566    40.084837 
169692000    268.54519    301.50703    279.61199   0.75177217    1.9761658    21.895039    40.067202 
169696000    279.33421    313.64444    305.63288   -1.6782878    3.2279927    8.0115555    40.067599 
169700000    273.09712    306.97234    278.50131   -1.5825347    3.8644589    28.471024    40.101797 
169704000    274.20379    322.20645    259.09953   -1.0120481    4.6032226    63.106922    40.105839 
169708000    278.18401    319.48729    289.18414  -0.60077409    4.2737382     30.30315    40.117036 
169712000    270.74408    309.93235    284.89914 -0.0033335833     4.388283    25.033212    40.108077 
169716000    275.61109    336.35492    259.41133    -1.945413    5.3984269    76.943592    40.108879 
169720000     279.9185    342.74377    292.87926   -2.5762652     4.054253     49.86451    40.112782 
169724000    269.08753    296.90932    284.81127 -0.061209371    4.6510016    12.098053    40.125745 
169728000    283.05593    335.34195     293.0226  -0.56596114    3.2647702    42.319351    40.132401 
169732000    275.58915    316.01357    297.58486    -1.491049    3.6439053    18.428708    40.113662 
169736000    269.37287    312.63076    287.92775   -1.6381856    3.8191017    24.703004    40.101051 
169740000    275.30812    339.79152    272.59813   -3.4590659    5.5378314    67.193392    40.119683 
169744000    273.60996    320.92566    266.30319   -1.1533798    4.6245507    54.622468    40.117338 
169748000    268.49121     314.9722      257.698   -1.2994398    4.6901702    57.274196    40.127151 
169752000    278.91765    319.18348    288.71563   -1.6764975    3.5153559    30.467846    40.146318 
169756000    280.90496     349.3566     283.1143   -3.0416937    4.4984066      66.2423    40.146423 
169760000    264.97542    304.83426    267.48072    -2.264224    4.6978345    37.353537    40.154598 
169764000    275.05498    324.70748    275.80941   -1.7455379    3.1909845    48.898072    40.153588 
169768000    275.04928    294.10415    290.65566   -1.1002827    3.6786394    3.4484915    40.151611 
169772000     273.7606    306.10989     281.0402   -0.5422139    3.8669287     25.06969    40.141192 
169776000    273.52647    315.75313    283.83618   -2.5580028    3.2808893    31.916948    40.132777 
169780000    283.74786    337.62739    284.47399   -3.4237516    3.8089254    53.153396    40.132073 
169784000    273.53722    317.49778    280.73259   -2.6196153    4.5513097    36.765185    40.127595 
169788000    281.77848    346.64748    272.26095   -3.1935384    4.4936354     74.38653    40.120873 
169792000    264.94562    317.46576    263.52748   -2.2528556    5.0143575    53.938281    40.117825 
169796000    271.67397    309.24733    293.65787   -1.0340886    3.6627417     15.58946    40.112897 
169800000    282.89455     331.6832    292.86897   -2.7181505    3.6304999    38.814228    40.116726 
169804000    281.79332    323.66997    297.06866   -2.2039896    2.4092101    26.601309    40.110599 
169808000    274.20536    342.35815    275.34281   -2.8214471    4.2941093    67.015338    40.104693 
169812000     274.1293    314.47513    280.58914   -1.6051463    5.0946092    33.885992    40.101598 
169816000    272.61167    323.27765    259.16855   -2.9235326    4.5323565    64.109103    40.114071 
169820000    286.54793    359.33696    288.16795   -4.2232811    3.6601093    71.169001    40.108327 
169824000     274.6197    320.85665    291.86495   -3.0325913    3.4799636    28.991701    40.119865 
169828000    287.26814    326.14745    300.56222   -1.8086789    3.0317808    25.585229    40.114882 
169832000    282.34187    338.66528    278.93785   -2.8845275    3.8164264    59.727426     40.10754 
169836000    275.20104    323.86833    263.51636   -1.9354214    4.2228145    60.351971    40.105246 
169840000    277.47053    333.91639    284.51118   -2.5411934    3.8797406    49.405211    40.096045 
169844000    283.99002    322.90766    286.33405   -3.3225883     3.083765    36.573609    40.074586 
169848000    285.51815    339.43878    282.70656   -2.4809735    3.0835636    56.732219    40.053587 
169852000    272.79553    331.25209    256.32847   -2.2268167    5.4140328    74.923617    40.056356 
169856000    267.52151    304.74203    265.61165  -0.44140936    4.0324779    39.130384    40.049746 
169860000    286.14236    350.06782    287.63499    -2.853682    4.6737103    62.432831    40.070575 
169864000    268.81442    320.45914    269.60404  -0.60279207    4.6651632    50.855109    40.076025 
169868000    276.85859    325.83655    281.49616   -1.8187557    5.5755189    44.340399    40.073913 
169872000    273.60699    332.37876    267.77864   -0.3389301    4.7310935    64.600112    40.071341 
169876000    283.29958    328.74775    295.46447  -0.89397669    4.6038892    33.283277    40.073122 
169880000    278.87541     338.2633    281.02593   -1.9493658    3.6053591    57.237375     40.06597 
169884000    277.28375    320.96386    284.65401   -1.8241332    4.6003874    36.309853    40.074302 
169888000    268.06819    334.17034    271.33496    -2.159183    4.9027685    62.835375    40.086175 
169892000    265.79136    327.45082    262.77822   -1.5535336    5.2806202    64.672598    40.095768 
169896000    287.80163    343.59243    295.22669   -1.7804738    3.7738253    48.365743    40.101113 
169900000    281.57438    344.42732    284.74625   -2.0122733    3.5151672     59.68107    40.104977 
169904000    275.80878    317.38313    285.52852  -0.62798114    3.7265544    31.854606    40.087178 
169908000    269.53379    325.34687    267.74127   -0.6706132    5.4487568    57.605603    40.079675 
169912000    279.25305    321.77766     278.3816  -0.62509373     4.673446    43.396058    40.067355 
169916000    269.62185     311.9188    266.70248   -1.0579864    4.7453298    45.216322    40.079882 
169920000    272.50642    329.58775    274.70633    -1.722466    4.2741969    54.881421    40.076612 
169924000    278.29076    330.12294    301.59607   -1.3128209    2.6674591    28.526875     40.07856 
169928000     275.8328    313.78783    280.31186   -1.0507956    4.1448327    33.475969    40.068434 
169932000    278.35246     317.6524    290.65555   -1.4183786    4.4715879     26.99686    40.079858 
169936000    274.36147     298.7723    288.55077  -0.17393031    4.1030625    10.221523    40.078457 
169940000    267.27196     301.4952     283.4345  -0.10304456    4.7140447    18.060708    40.085218 
169944000    271.74989    305.85764     274.9156    1.0492979    4.8611495    30.942034    40.077342 
169948000    275.81244    316.94389    304.40944  -0.66539468    3.2474437    12.534459    40.060891 
169952000    274.10434    312.59839    262.82121   -1.4659295    5.3524591     49.77718    40.070385 
169956000    284.00298    358.00854    292.08643   -3.3828423    3.9784208    65.922108    40.084114 
169960000    278.02331    322.47609    275.69159   -1.1488809    4.7720999    46.784499    40.096925 
169964000    273.71347    334.75016    265.18966   -1.3770501    4.9529292    69.560493    40.100581 
169968000    278.15196    337.66543    250.35091  -0.98296455    6.2002668     87.31452    40.089728 
169972000    270.38996    307.51607     278.9719   -1.0255448    4.7772238    28.544167    40.081201 
169976000    272.98748    308.19784    284.08527  -0.57248591    3.9783409    24.112571    40.091692 
169980000      277.077    321.61097    264.27243   -1.8442634    3.2798398    57.338544    40.090863 
169984000    284.82145    333.21596    296.38357   -2.0962374    3.1470849    36.832397     40.10122 
169988000    279.40303    305.31967    283.62671  -0.48321418    2.7700309     21.69296    40.095616 
169992000    268.82084    318.12713    260.31861   -1.5337441    4.2090532    57.808518    40.102986 
169996000    279.25317    333.15881    280.28791   -2.0053066     3.171992    52.870898    40.116778 
170000000    274.66308    290.59006    293.88823    1.1096988    2.6173628   -3.2981659    40.110777 
170004000    279.32131    317.18598    293.68242   -1.3442473    3.6111714    23.503567    40.123424 
170008000    283.00007    335.11129    292.39731   -1.5447369    3.0466305    42.713977    40.111167 
170012000     276.1501    326.87303    295.73852   -1.2284172    2.4821595    31.134516    40.116677 
170016000    278.16131     329.3651    276.42552   -1.2798265    2.4607152    52.939574    40.117743 
170020000     278.7164    328.15919      288.098   -1.3970924    2.6557148    40.061186    40.120191 
170024000     269.4949     326.7603    271.66439   0.13198695    5.1346706    55.095909    40.118738 
170028000    271.73977     327.8003    285.09073   0.41894427    3.7237173    42.709574    40.126317 
170032000    268.39773    308.24327     278.0974   0.17059534    4.1754143    30.145873    40.131612 
170036000    268.18244    311.14177      268.105 -0.034961552    5.6984258    43.036773    40.123435 
170040000    272.19295    323.82501    273.92445 -0.096566089    4.3545665    49.900553    40.115133 
170044000    274.78879    329.49631    277.16281  -0.55057148    3.1810733    52.333504    40.123346 
170048000    275.72069    321.45405    275.10186   -1.8802148    3.2745784    46.352198    40.123466 
170052000    278.41465    346.71676    281.69125   -3.7214379    3.8593831     65.02551    40.125842 
170056000    279.09884    315.48638    306.41033   -1.8901416    2.7560027    9.0760449    40.116835 
170060000    275.80657    338.44023    278.56176    -1.409268    3.8768026     59.87847    40.119869 
170064000    271.17701    307.39292    268.84119  -0.29057561    5.3370986    38.551731    40.104725 
170068000    270.79296    322.49425    271.92756  -0.25217537    4.5774748    50.566689    40.106974 
170072000    275.29731    330.63623    276.87618   -1.9617876     5.179871    53.760048    40.119194 
170076000     273.4443     326.5609    285.14523  -0.62489355    4.6494705     41.41567    40.119698 
170080000    272.60359    329.69337    278.34701  -0.93361077    4.2984229    51.346363    40.125072 
170084000    271.20878    303.55344    292.34522    0.7637316     2.942238    11.208219    40.124513 
170088000    270.82083     322.0838    276.94809   -1.2026899    3.2381692    45.135706     40.12191 
170092000     277.6118    333.65137    280.83495   -3.0287852    3.3013249    52.816425    40.124724 
170096000    274.45305    328.62516    275.55567     -2.00478    3.8489909    53.069487    40.126855 
170100000    275.69069    300.66534    279.64023 -0.018411745    3.9393232    21.025106    40.117115 
170104000     278.6317    332.94073    277.72954  -0.67255752    3.8571962    55.211181    40.107427 
170108000     265.1069    314.84503    263.56546  -0.47590235    4.1956518     51.27957    40.115343 
170112000    287.29214     327.5301    301.93798   -1.5949593    2.6754336    25.592127    40.113761 
170116000     270.6834    315.67718    268.29038   -1.8644785    4.3870575    47.386793    40.111965 
170120000    271.76447    300.82194    275.58045   0.38960537     4.149699    25.241492    40.098171 
170124000    279.09716    313.90429    283.76686   -0.9455151    3.6641454    30.137428    40.097779 
170128000    269.71294    328.47571    252.33737   -1.8595304    4.7282417    76.138337    40.092114 
170132000    288.53726    352.82293     286.8785   -2.0512411    3.2620005    65.944426    40.107435 
170136000    275.53264    306.55474    281.62253   0.54184431    3.8423582     24.93221    40.114953 
170140000    285.07185    320.30386    296.59564   -1.2842716      3.55203    23.708214    40.121403 
170144000    276.99458    335.12775    272.43847   -1.7796717    5.2963211    62.689283    40.116342 
170148000    277.10498    308.87175    293.61958  -0.93647516    4.0733497    15.252168    40.106986 
170152000    266.52651    306.75103    271.18793  -0.47774612    3.7888651    35.563098    40.116791 
170156000    272.62917    316.28313    283.40643   -1.6737633    3.8597427    32.876708    40.130345 
170160000    267.93502    306.52784    270.80466  -0.76462929    5.6716692    35.723184    40.140486 
170164000    268.03689    319.62021    259.67161   -1.1651727    4.7136699      59.9486    40.138033 
170168000    270.89923    315.10526    281.06167   -1.5193219    4.6257787    34.043584    40.131453 
170172000    275.92839    336.82131    270.67171   -3.4786912    5.0364275    66.149596    40.135177 
170176000    276.62135    326.16609    286.60669   -2.9448794    4.4824569    39.559404     40.14128 
170180000    280.18364    324.75568    290.90843   -2.6080047    4.1613399    33.847248    40.142091 
170184000    283.93632    332.21644    302.76319     -3.31971     2.751539    29.453244    40.155371 
170188000    265.90922    292.36506    273.41705   -1.2928676    5.1787207    18.948004    40.164632 
170192000    271.05564    312.28226      280.231   -1.8006844    4.6840137    32.051262     40.16791 
170196000    283.41115    336.03573    272.41137   -3.7344838    5.7041291    63.624355    40.159835 
170200000    259.16352      291.781    258.37568   -1.2762471    7.0636438    33.405317    40.153063 
170204000    276.55779    324.86952    287.75177   -1.9966955    4.6556979    37.117756    40.142733 
170208000    273.08748     328.6718    263.60392   -2.6979422    5.5685343     65.06788    40.148123 
170212000    281.96123    323.68298    289.07179   -2.2404537    4.8481601    34.611188    40.137225 
170216000    271.86082    304.03464     286.1425   -1.6898652      4.77635    17.892133    40.131963 
170220000    272.31004    318.59927    289.99813   -2.5740027    4.5113526    28.601138    40.123794 
170224000    261.56638    292.55725    270.49499   -2.0835669    5.0871793    22.062252    40.117565 
170228000    268.14315    320.23996    261.18564   -4.3431216     6.180821    59.054321    40.117517 
170232000    269.04847    312.14733    277.92022  -0.91574233    5.9280199    34.227101    40.116314 
170236000    267.55659    326.30895    253.24035   -3.6254496    6.2259947    73.068603    40.126727 
170240000    277.34168    333.46951    283.86221    -3.869162    5.1945125    49.607295    40.130973 
170244000    278.73283    327.39661    275.99645   -3.3172173    4.8822103    51.400155    40.143494 
170248000    281.88842    315.76656    302.59867   -1.1318444    2.7884208    13.167893    40.150726 
170252000    276.28839    310.77682    291.72344   -1.1092128    5.1971277    19.053371    40.161182 
170256000    273.35026    326.09179    278.19228   -2.1321835    4.8885744    47.899507     40.14512 
170260000    271.97735    301.80176    288.14206   -1.6383426    5.5074258    13.659702     40.13932 
170264000    270.69365    317.83379    284.28326    -3.330134    5.2450253    33.550535    40.139369 
170268000    264.10902    321.78409    262.93218   -2.8544933    6.6618315    58.851919    40.151753 
170272000    266.38086     310.5823    290.01536   -2.3696068     5.406063    20.566939    40.161922 
170276000    262.37171     309.6671    273.25834   -1.3988476    6.1590176    36.408761    40.160459 
170280000    281.55015    325.15633    300.46281   -2.0134264    4.1633449    24.693522    40.147458 
170284000    279.65868    316.41523    299.22612   -1.5043086    4.6796506    17.189107    40.148875 
170288000    276.49723    331.18069    302.32753   -2.2055722    3.3781436    28.853163    40.157404 
170292000    275.57954    320.84833     276.8144   -2.8429855    6.0726965    44.033929    40.165631 
170296000    260.53886    295.12128    276.34487   -1.0230597    4.3134536    18.776411    40.181796 
170300000    277.32655    326.85121    275.16782   -1.6188931    5.6211769    51.683386    40.183686 
170304000    270.68582    312.40498    261.95852   -1.8652088    6.0166118    50.446455    40.189122 
170308000    275.25713    338.53529     264.8984   -3.2428949    5.9438487    73.636889    40.179984 
170312000    271.22407     312.0084    275.33816  -0.76146365    5.1680514    36.670238    40.182327 
170316000    273.88524    308.17638     292.2026   -1.2079206    3.9873206    15.973777    40.168845 
170320000    274.99422    338.79828    280.59752    -2.418156     4.966603    58.200751    40.173557 
170324000     265.1778    305.52973     269.5292   -1.1213069    5.7817241    36.000533      40.1561 
170328000    274.56063    319.48319    289.61924   -2.0261191    4.4962115    29.863954    40.162622 
170332000    278.06211    328.48661    289.73352   -3.6242686    4.0540443    38.753095    40.160933 
170336000    269.98027    310.94292    271.73795   -3.2218644    5.2918358    39.204971    40.171515 
170340000     278.6163    317.07721    308.43994   -1.9855581    4.4881123    8.6372712    40.185437 
170344000    268.74046     330.3204    264.51081   -2.8028501    6.9625416    65.809589    40.195154 
170348000    272.12978    329.43137    277.14888   -2.0265427    4.8510097    52.282484    40.190307 
170352000    278.84365    331.35341     286.7094   -3.0757616     4.152315    44.644006    40.185954 
170356000    267.54312    320.42386    258.45202   -2.3362181    5.1729039    61.971838    40.187667 
170360000     271.7946    319.23847    290.49648   -1.4603886    4.3749658    28.741985     40.18844 
170364000    268.04889    322.46507    268.98985    -1.710366     4.659071    53.475222    40.193721 
170368000    278.49227    333.20768    286.12222    -2.891916    4.6815149    47.085459    40.195587 
170372000    265.29336    288.43461    294.41165  -0.16441285    4.9762017   -5.9770372    40.198862 
170376000    276.38216    320.69739    298.30393   0.11895451    4.5427438    22.393463    40.191367 
170380000    276.82575    339.49268    287.19398   -1.0457753    5.1180493    52.298692    40.198341 
170384000    273.21127    342.94011    282.66752  -0.44403031    4.7173736    60.272586    40.192855 
170388000    273.46605    323.63292    300.48177   0.38360913    3.9333924    23.151154    40.190604 
170392000     266.1114     306.8918    286.75516    1.3276788    3.8111677    20.136636    40.206364 
170396000    275.61094    322.41623     286.0428  -0.22937438     3.913219     36.37343    40.211458 
170400000    271.47067    319.64607    285.62233  -0.96795585    4.8861652    34.023741    40.203094 
170404000    272.24826    334.44715    270.08989   -1.1256786    6.8317197    64.357257    40.212221 
170408000    265.03417    312.39201    279.25652  -0.38804406    4.4544146    33.135492    40.193778 
170412000    274.05755    352.77571    273.68326   -2.1119935    4.9681729    79.092449    40.196089 
170416000    259.94307    286.41342    268.26393    1.0926728     5.150421    18.149489    40.197611 
170420000    267.21593    328.14283    272.14457  -0.42454654    4.9011601    55.998266    40.201258 
170424000    280.54243    342.73075    283.40088  -0.79241425    4.6532006    59.329872    40.196641 
170428000    269.77998    310.13871    293.01368  -0.12142134    4.0437002    17.125021    40.194771 
170432000    271.17651     318.6927     294.2542  -0.74230312    3.8843094    24.438499    40.195869 
170436000    269.12905    305.41555    294.99102   0.80759733    3.6294383    10.424529    40.175333 
170440000    272.24548    327.45668    288.28805  -0.59716336    4.0177143    39.168627    40.181552 
170444000    271.35673    312.43437    286.61038   -0.1663636    5.3137922    25.823998    40.185674 
170448000    280.19198    347.93585    273.89764   -2.4324249    5.7384311    74.038206    40.192979 
170452000    273.73383    346.50728     252.7167   -2.4987357    6.0304477    93.790575    40.198633 
170456000    275.63907    321.41487    284.71183   -2.5215941      4.14966    36.703036    40.203167 
170460000    282.89805    338.78063    306.02592   -2.7847014     3.079881    32.754705    40.205447 
170464000    274.09258    322.37399    284.92063   -1.5440014    4.0796832    37.453365    40.206622 
170468000    267.60723      299.572    282.06224  -0.37352679    4.5211834    17.509762    40.209459 
170472000    261.78588    295.19766     278.6347  -0.16540151      5.86429    16.562957    40.203123 
170476000    264.73051    315.27918    265.13923  -0.75416398    4.7807053    50.139955    40.205071 
170480000    272.79643    318.16261    286.13645  -0.54221272    4.3749816    32.026153    40.210417 
170484000    270.24287    345.45928    269.26694   -2.0833055    6.2796254    76.192335    40.207437 
170488000    277.24213    351.48873    266.86076   -3.7655509    6.3116705    84.627968    40.205886 
170492000    269.45401    293.03904    268.21795   0.11147664    6.0235584    24.821084     40.20125 
170496000    275.35377    311.56893    279.84501  -0.72541335    5.1670209    31.723914    40.198201 
170500000    273.84627    338.40684    266.80798   -2.3331038    5.0055979    71.598863    40.201989 
170504000    269.69544    311.19635    275.83177   0.12731259    4.4682652    35.364587    40.203338 
170508000    272.68862    324.29995     276.6539   -1.1962073    4.7314104    47.646055    40.205813 
170512000    269.30052    302.26621     274.6833  -0.87806182    5.4201305    27.582919    40.205616 
170516000    278.25553    332.13697    294.15832   -1.2813862    4.5346905    37.978648    40.210277 
170520000    264.14311    306.53888    270.08164  -0.22110513    5.5717427    36.457243    40.205013 
170524000    269.50764    305.50892    277.34165   0.25123885    6.1715624    28.167271    40.213727 
170528000    274.92107    320.63015    281.37961  -0.52882858    6.3624141    39.250541    40.206989 
170532000    270.69243    316.11301    289.91285  -0.21852609    5.8033534    26.200159    40.203651 
170536000    265.49815    305.28978    276.69598 -0.096608651    5.4087831    28.593799    40.210579 
170540000    275.06281     306.8532    292.65369  -0.95894188    5.3271081    14.199512    40.208923 
170544000    280.11791    362.43078    266.40519    -2.937684    6.6277028     96.02559     40.20102 
170548000    275.75761    340.93633    268.30349   -1.5428253    5.7952278    72.632844    40.204141 
170552000    276.95271    314.71834    277.06166   -2.5135901    6.3241112    37.656681    40.212859 
170556000    256.77971    317.85692    244.49767   -2.7513704    6.6454497    73.359251    40.217452 
170560000    277.56006    318.10198    280.51958  -0.63152533    5.3035878    37.582399    40.215741 
170564000     277.0957    336.25501    278.42812   -2.2723696     5.979603    57.826884    40.217343 
170568000    266.69529    303.70714    271.64738   -1.2409017     6.821745    32.059763    40.219938 
170572000    270.65802    311.38764     282.6742   -1.0674367    5.1437046    28.713432    40.214765 
170576000    278.55945    316.66329     289.5426   -1.8488754     5.631998    27.120693    40.214257 
170580000    270.29699    304.13323    269.18025   -1.3352387    5.7610689    34.952982    40.215262 
170584000    274.41659    316.97554    289.42285  0.059568793    5.2240222    27.552693    40.198035 
170588000     285.0227    352.99628    272.67584   -2.9681533    5.7505264    80.320449    40.196347 
170592000    270.52077    323.37605    271.17054   -2.1850751     6.320436    52.205508    40.197721 
170596000    269.07052    309.87952    276.96582   -1.3216289    4.5849436    32.913707    40.197507 
170600000    280.66122    336.32114    291.33425    -2.381427    4.9477234    44.986887    40.208375 
170604000    271.63763    318.43311    289.76618  -0.98465099    4.6227824    28.666933    40.195021 
170608000    275.21891    322.34231    282.40621   -1.9988596    5.6911283      39.9361    40.207562 
170612000    272.93535    326.20753     292.2527  -0.79685432    5.6458476    33.954835     40.20037 
170616000    266.97662    304.46949    283.41991    0.1224914      6.54516    21.049583    40.184992 
170620000    275.18966    328.70579     298.9337   -2.3912889    5.3190466    29.772088    40.179364 
170624000    278.85726    336.96452    301.66111   -2.3401318    5.3129961     35.30341    40.182142 
170628000    272.99995    323.32894    293.34728   -1.6541196    5.3101489    29.981663    40.180254 
170632000    275.66626     334.1329     289.1722   -2.5552822    4.9156731    44.960696    40.181396 
170636000    266.69049    307.46357     285.1465  -0.99849649    6.4644428    22.317065    40.173355 
170640000    266.30744     304.4649    262.90828  -0.45875107    6.3038231    41.556619    40.181352 
170644000    279.47712    334.94472     277.6167   -2.4759856    5.7489269    57.328026    40.187971 
170648000    278.02684    323.54223    289.72707    -2.203774    5.3031922    33.815151    40.196516 
170652000    269.85039    319.27327    290.37736   -1.4854743    5.2113628    28.895901    40.199409 
170656000     266.4665    304.09649    268.52483  -0.57328428    6.3104838    35.571666     40.20724 
170660000    275.50505    337.43394    271.94172    -1.881999    5.1931007    65.492223    40.213052 
170664000    273.49575    332.64743    270.51473   -2.2538212    4.8822443    62.132695    40.211838 
170668000    270.62664    307.43044    286.26945   -2.0934022    4.7099441    21.160991    40.212117 
170672000    282.90915    343.76979    283.50948   -3.4758429     5.160961    60.260306    40.202726 
170676000    284.71855    317.06872    288.97655   -2.2394105     5.039977    28.092168    40.197727 
170680000    280.22594    328.12445    278.36838   -2.1865868    5.7706136    49.756068    40.198651 
170684000    270.68363    327.35003    270.41473   -2.4557679    6.4833972    56.935305    40.213307 
170688000    279.68969    327.58736    295.18013   -2.4938246    3.4699226    32.407232    40.212545 
170692000     276.5647    323.72235    293.66408   -1.8492908    4.3994095    30.058265    40.214716 
170696000    279.50842    343.58821     265.3439    -2.278041    6.3322826    78.244311     40.22103 
170700000    280.82657    325.89288    290.98174   -1.1680854    5.0228423    34.911132    40.222456 
170704000     268.2339    311.20787    275.04168   -1.7979583    5.6894222    36.166189    40.219412 
170708000    268.99911    325.53078    261.28547   -2.0359025    6.0739312    64.245305    40.214078 
170712000    285.19202    345.06421    290.50543   -3.4617112    5.0480616    54.558777     40.21906 
170716000    275.65942    307.70279    294.07478   -1.3574666    5.4325489    13.628009    40.213409 
170720000    284.90255    327.79933    282.60287   -2.7385543    5.7073447    45.196454    40.217443 
170724000    277.87143    324.61685      285.203    -3.213669    4.4211352    39.413846    40.223443 
170728000    266.31503    294.99717     271.0006   -1.0941014    4.8268168    23.996568    40.218761 
170732000    282.47764    317.15827    305.47539   -2.5796526    3.5009497    11.682882    40.208318 
170736000    283.32725    345.52696    274.00423   -3.4051847    6.2116111    71.522728    40.209419 
170740000    274.72615    312.05148    273.16129   -3.3210893    6.7143902    38.890193    40.206379 
170744000     279.4789    305.39011    297.75824   -2.1083415    4.6695477    7.6318673    40.200032 
170748000    273.44716    324.65861     276.5455   -3.1668402    5.4865773    48.113113    40.206215 
170752000    273.72348     307.9737    283.30699    -2.043667    5.2397297    24.666709     40.20746 
170756000    278.54901     325.2055    293.40443   -2.3228669    4.5982776    31.801065    40.202589 
170760000    269.46437    317.65051    271.48308   -2.6254586     5.835391    46.167424    40.206553 
170764000    282.33804    329.60492     278.1679   -1.9694361    5.1680158    51.437016    40.209672 
170768000    273.69324    325.36057    284.90774   -1.6515336    4.7241157    40.452831    40.221178 
170772000    271.07141     326.9982    272.01439   -1.3665226    5.8950252    54.983807    40.226253 
170776000    276.27019    328.45957    276.24847   -2.5439699      5.94397    52.211101    40.229145 
170780000    283.34011    336.52603    265.35303   -4.2181775    5.9198088    71.172997     40.22761 
170784000    279.55333    322.58192    290.96598    -3.594418    4.5383927    31.615942    40.221297 
170788000    277.56784    345.84263    248.94575   -4.3554156    6.3162212    96.896886     40.22446 
170792000     279.8546    313.92597    284.35704   -3.4247333    5.4801743    29.568931    40.227149 
170796000    265.06656    305.09764    265.76466   -3.9618512    6.0926956    39.332981    40.219725 
170800000    276.72129    333.95593    262.92091    -4.709657    6.1800675    71.035016     40.22678 
170804000    277.97182    326.31906    280.77211   -4.0446732    5.3035486    45.546954    40.228951 
170808000     268.6237    300.60206    273.30336   -3.1210029    4.6691841    27.298707    40.224418 
170812000    269.72765    307.45622    269.88657    -3.915393    5.4097965    37.569646     40.23367 
170816000    284.30798    346.27984    264.15459    -4.606986    6.4564052    82.125249    40.236213 
170820000    278.38091    306.78529    278.22958   -2.7200655    5.3836667     28.55571     40.24157 
170824000    276.45259    309.06207      284.213   -3.4330418    4.9940891    24.849066     40.24223 
170828000    283.64465    308.65663    289.16958    -2.550367     4.896886    19.487052    40.240006 
170832000    265.69824    305.93273    265.91247   -3.6837019    5.5967088    40.020256    40.249091 
170836000    290.10965    339.00512    288.06777    -4.370331    4.8720869    50.937356    40.247802 
170840000    278.97853    335.96889    260.83664   -5.1199597    6.2801807    75.132251    40.244374 
170844000    273.24818    324.68402    291.73041   -3.8160585    4.6143826     32.95361    40.253029 
170848000    283.44203    324.96226    289.25132   -3.1900116     4.780976    35.710937    40.251907 
170852000    278.94413    327.75977    275.42541   -3.4165478    4.7207448    52.334355    40.255521 
170856000    278.18405    334.76307    274.48436    -4.312612    5.0791476    60.278709    40.271607 
170860000    279.02006    317.14966    282.37566   -3.4919719    5.0468179    34.774004    40.272854 
170864000    281.10034    328.97632    289.04974   -3.4402927    4.0006124    39.926585    40.277052 
170868000    287.14842    320.77938    289.02269   -5.1274994     4.485893    31.756688    40.266482 
170872000    267.60745    315.80937    266.65152   -3.8907021    4.5310522    49.157848    40.261318 
170876000    275.97012    318.34801    274.17254    -3.745053    5.6427497    44.175465    40.261589 
170880000     279.4668     325.8414    287.81524   -4.2500727    4.8278131    38.026166    40.264418 
170884000    283.97493    325.88485    308.45719   -3.4076758    3.6736601    17.427657    40.259373 
170888000    284.55672    314.30465    299.19012   -4.0822638    3.9848318    15.114532     40.26414 
170892000    276.71692    326.77622    278.58113    -4.220425    5.5786815    48.195087    40.266974 
170896000    274.09015    302.45117    262.16319   -2.4436423     5.280591    40.287987    40.262846 
170900000    275.96797    317.44296    268.02237    -1.968456    5.2797644    49.420589    40.259213 
170904000    274.26136    324.53307     277.5509   -4.4938724    5.4488643    46.982166    40.264232 
170908000    271.78142    329.07753    279.05254   -5.0906394    5.0721202    50.024995    40.264452 
170912000    275.03287    324.09592    265.88063   -4.1122103    5.0975339    58.215284     40.27283 
170916000    284.30025    331.55728    280.61578   -3.0955718    5.0826512    50.941507    40.274288 
170920000    274.20551    336.84554    258.42629   -3.5534103    6.8753105    78.419253    40.279588 
170924000    283.17048    337.88535    277.55284   -3.7798486    5.2481181    60.332518    40.298813 
170928000    283.72289     345.4989    274.12288   -4.4364894    5.0228286    71.376024    40.294684 
170932000    277.16688    307.44683    270.84317   -2.3864428    6.2405208    36.603664    40.291643 
170936000    275.67077    318.71652    261.11693   -2.9642626    5.1755713    57.599591    40.284699 
170940000    273.93518    319.75599    274.84437   -3.0834722    5.6663788    44.911626    40.277971 
170944000    271.55799    306.56316    269.29712     -2.89324    7.1700724     37.26604    40.274614 
170948000    274.77555    318.74912    265.16295   -4.0804449    6.0960699    53.586169    40.272148 
170952000    280.27602    304.91177     306.6086   -4.8061517    3.2050617   -1.6968381    40.273149 
170956000    279.45784    318.18335    284.70101   -3.7171749    6.0160132    33.482348    40.267069 
170960000    278.16408    323.38376     280.6313   -4.5317966    5.4324212    42.752462    40.274296 
170964000    286.51337    333.78062    295.42931   -3.9194834    4.6006017    38.351313    40.267651 
170968000    278.10725    317.41095    292.47349   -4.6174671    5.3969177    24.937467    40.260935 
170972000    284.44801    341.68032    283.76142   -5.2982168    5.7200142    57.918895    40.262357 
170976000    282.24845    340.19251    282.15904   -4.9743914    5.1168284    58.033471    40.255427 
170980000    270.81496    322.86566     250.0804   -3.0905217    6.9124714    72.785253    40.260271 
170984000    266.12074    329.92005    266.12801   -3.2074449    6.4664178     63.79204    40.253954 
170988000    268.88344    300.86006    292.15203   -1.6813962    6.3649618    8.7080306    40.258008 
170992000    276.74967    338.77818    271.12448   -4.2486386     6.118195    67.653697     40.26237 
170996000    282.39736       323.35    301.78279   -4.1981997    4.8234917     21.56721    40.253598 
171000000    267.83446    319.61661     279.4183   -3.1374218    5.5195307    40.198311    40.249471 
171004000    267.55245    320.91659    256.68925   -3.1550479    7.3036298    64.227343    40.246423 
171008000    263.50127    319.49591    282.64704   -2.9525358    6.6346813    36.848869    40.248767 
171012000    263.08699    294.14534    267.80327    -1.995025    7.6511365    26.342069    40.242333 
171016000    278.56104    303.95603    301.89137   -2.3103188    5.9720313    2.0646579    40.235133 
171020000    283.32945    334.85289    294.25697   -4.4349516    5.9479131    40.595924    40.226924 
171024000     274.7158     324.8029     261.7708   -4.3828406    7.7827678    63.032099    40.230838 
171028000    287.31002    343.06852    319.66917   -4.6276105    4.9725567    23.399349    40.227666 
171032000    276.40853    316.99331    303.84609   -3.7249603    5.5378879    13.147222     40.22702 
171036000    271.49081    324.08429    269.57541   -2.7984822    7.0424968    54.508882    40.228955 
171040000    280.47646    325.04056    300.84676   -4.2904046    5.1810322    24.193805    40.227727 
171044000    280.92226    332.17628    282.18508   -4.1697197    6.6819021    49.991202    40.229456 
171048000    269.67039    310.53538    271.83635   -2.7787779    6.4312993    38.699029    40.233043 
171052000    267.39607    297.64487    274.72707   -1.7671319     6.277849    22.917793     40.23593 
171056000    273.45616    292.83476    286.30883   -1.7401209    6.1763453     6.525937    40.228214 
171060000    281.07767    317.52541    278.25964   -4.3273274    6.3987406    39.265774    40.230311 
171064000    279.71021    321.56904    277.35583   -3.5114304    6.0095916    44.213208    40.237557 
171068000    277.36275    320.18408    281.76141   -4.3588978    6.9978177    38.422672    40.228693 
171072000    276.52076    317.07023    259.29131   -3.9361333    6.7655915    57.778912    40.230286 
171076000    285.04068    322.01036    284.48014   -4.0448348    4.6279193    37.530227    40.225241 
171080000    284.85702     309.3482    285.52887   -3.7680374    4.8579259    23.819333    40.228399 
171084000    273.98563    307.99392    274.18513   -4.6364667    6.5814133    33.808787    40.237893 
171088000    270.06798    304.31845    277.22128   -3.3135888    5.4549642    27.097174    40.238418 
171092000    284.34561    304.57754    291.97689   -4.0273688    5.2245485    12.600649    40.235821 
171096000     291.8811     326.0564    300.30265   -4.6359143    4.7100357     25.75375    40.233376 
171100000    278.82029    333.55317     269.4961   -4.4895178    6.0081123    64.057072    40.228027 
171104000    279.23143    336.37652    274.11611   -6.2201541    7.2083175    62.260401    40.229325 
171108000    280.86612    332.65286    272.02695     -5.38054    6.6826253    60.625912    40.231064 
171112000    283.64352    329.24949    284.26653   -4.8764113    6.0542512    44.982954    40.222785 
171116000    279.29473    299.42803    309.02279   -4.0923753    5.9223961   -9.5947531    40.223773 
171120000    277.81405    315.47875    296.03647   -4.1221842    6.2785777    19.442282    40.220139 
171124000     280.2218    327.22928    284.11976   -4.5209657    7.0041436    43.109522    40.230839 
171128000    283.35059    339.93045    279.65663    -3.187552    4.5790459     60.27382    40.228404 
171132000    281.73079    329.78829    294.83968    -4.105665     4.782419    34.948607    40.224771 
171136000    267.22176    284.96547    281.55285   -1.7727884    5.4105739     3.412621      40.2189 
171140000    279.06888    330.45857    284.71653   -4.0081457    6.6068336    45.742042    40.214951 
171144000     289.9077    350.55533    289.21259   -5.1209459    6.3526108    61.342747    40.224011 
171148000     266.1022    298.63219    263.05473   -1.7046387    7.8511022    35.577459    40.224343 
171152000    282.36231    347.67315    277.57414   -3.9972838    5.6121921    70.099011    40.219308 
171156000    282.30447    313.67268    293.30129   -3.3445176     4.805902    20.371391    40.226565 
171160000    279.33362    319.38158    291.11162   -2.8825953     4.721988    28.269962    40.226273 
171164000    279.65052    315.75354    280.30423   -2.4939601    5.8885226    35.449304    40.225983 
171168000    278.94674     317.3088    281.60338   -3.2412161    4.7661734    35.705418    40.221155 
171172000    278.80965    330.67581     284.6077   -5.0977562    5.2121223     46.06811    40.218249 
171176000    282.06213    338.88863    267.90617   -5.6083152     5.540284    70.982461    40.223679 
171180000    271.88023    311.48703     256.0913   -3.4756814    6.9251541    55.395733     40.21043 
171184000    281.35575    338.95344     274.2044   -4.6255672    5.8445923    64.749041    40.216613 
171188000    277.89908    330.56361    277.53053   -3.4853346    6.2751702    53.033089    40.219424 
171192000    278.20109    312.67351    305.07928   -2.3706519    3.9661856    7.5942216    40.219488 
171196000    279.52919    331.40188    278.61295   -3.6822803    5.2468635    52.788932    40.221341 
171200000    277.51153    329.10754    269.11254   -3.7995034    5.1727078    59.994998     40.22506 
171204000    282.88539    321.37299    284.13742   -5.2490729    5.5934852    37.235569    40.233736 
171208000    285.25201    344.79002    295.68241   -5.2159893    5.4313586    49.107612    40.230981 
171212000     270.7137    312.87783    264.99589   -4.1921905    7.4384816    47.881941    40.236129 
171216000    279.40153    344.41834    277.89571   -6.0950707    6.5603936    66.522631     40.24142 
171220000    271.30122    294.16855    273.51526   -3.0453215    5.4263299    20.653293    40.238445 
171224000    283.98784    325.34063    285.55471   -5.4545855    5.1485599    39.785925    40.234003 
171228000    274.52685    325.86826      273.722   -4.9790319    5.9911923    52.146259    40.238763 
171232000    284.37848    329.85559    285.18359    -5.295291    4.0017902    44.671996    40.235402 
171236000    281.29995    331.36899    277.63205   -5.6966004    5.5873224     53.73694    40.235312 
171240000    273.37653    323.00016    261.41598   -4.4943034    5.9134957    61.584178    40.238771 
171244000    275.29355    321.79484    258.38491    -3.884668    4.9435868    63.409931    40.236395 
171248000    281.11729    326.01346    285.45635   -5.1299725    5.2061116    40.557111    40.232754 
171252000     275.4464    303.14888    282.35366    -3.137625    5.4890361    20.795218     40.23202 
171256000    279.27891    332.69787    285.53254   -4.1044314     5.864118     47.16533    40.225725 
171260000    282.44069    321.99058    287.16847   -4.0391065    5.8367979    34.822116     40.21855 
171264000    275.96487    323.38868     280.7833     -2.39638    6.0291684    42.605379    40.220664 
171268000    281.05809    345.11812    274.31855   -4.8030372    6.5457989    70.799561    40.222276 
171272000     273.3198    313.75569    272.76932   -3.9237631     6.262713     40.98637      40.2266 
171276000    280.60533    332.26005    274.49605   -4.2837639    6.4105312    57.763995    40.226943 
171280000    274.38128    320.13131      275.488   -4.3341085     5.774717     44.64331     40.22576 
171284000    277.57922    330.97563    286.10358   -4.2927858    5.6670121    44.872044    40.230107 
171288000    277.18663     316.7619    290.76666   -4.2284798    5.6702633    25.995232    40.224379 
171292000    271.43209    327.62672    263.34311   -3.6044101    6.5047636    64.283607    40.226157 
171296000    284.06303    321.99426    281.31863   -2.5645132    5.2972787    40.675633    40.230779 
171300000    270.54455     322.1325    262.46384   -3.1279448    6.5055184    59.668655    40.234704 
171304000    274.44095    337.57588    271.68953    -4.129802    5.3448095    65.886353    40.234766 
171308000    289.81602     353.7947    299.52654   -5.7272924     4.513096    54.268157    40.231822 
171312000    280.10352    320.77532    295.78108   -3.7325617    5.3889913    24.994239    40.237104 
171316000    277.11902     315.2125    274.89065   -3.2673294    5.9447593    40.321846    40.227699 
171320000    280.00279    322.58065    288.39857   -4.5920109    5.1075473    34.182088    40.213995 
171324000    285.60676     329.3922    285.96347   -5.9243465    4.4397003     43.42873    40.209668 
171328000    279.01833    326.00198    291.23782    -4.717212     4.635001    34.764159    40.202013 
171332000     278.8667    349.08728    258.48409   -6.1907727    6.3599339    90.603193    40.204296 
171336000    276.89898    309.33935    288.46221   -3.9244658    5.5236032    20.877138    40.202877 
171340000    279.37333    299.03175    290.61598   -4.3259099      6.22384    8.4157745    40.200443 
171344000    276.24106    331.51117    276.70783   -6.5692544    7.3196103    54.803341    40.198793 
171348000     280.6913    324.13369    296.44572   -5.3954084    6.4204005    27.687975    40.201535 
171352000    272.07298    316.08562      276.359     -4.29593    8.3182458    39.726618    40.199356 
171356000    288.19454    352.35552    280.75491   -6.5470118    6.4676022    71.600614    40.196279 
171360000    278.95563    316.25043    293.28865   -4.4841712    6.1256971    22.961778    40.197148 
171364000    276.50295    328.03194    293.09539   -3.5409414    6.2724912    34.936557    40.191412 
171368000    272.27637    311.84565    271.06399   -4.5304644    7.0956361    40.781661    40.187023 
171372000    275.84171    338.96173    266.79447   -4.5873381    7.2478285    72.167256    40.186549 
171376000     282.9317    329.07481    285.21575   -5.2227186    6.7539369     43.85906    40.178579 
171380000    276.53484    323.39852    282.55405   -4.7888244    6.9340423    40.844469    40.180422 
171384000    271.00124    326.87793    270.59129   -4.2233642    7.2591204    56.286636    40.185808 
171388000    273.84357    320.08949    298.74982   -4.8217476    6.5570489    21.339679     40.18681 
171392000    276.35605    319.92229    274.94548   -3.8981582    6.4246383    44.976808    40.188262 
171396000    275.80907     342.5084     265.4569   -3.5575743    6.1575905    77.051503    40.192019 
171400000    274.36067    308.45963    290.58459    -3.072998    5.8471909    17.875041    40.193869 
171404000    274.76063    318.93038    289.86516     -2.07325    6.8021078    29.065219    40.193183 
171408000    274.12495    348.70473    256.00902   -6.3304182    7.6420809    92.695713    40.193457 
171412000    283.88359    315.32699    307.35063   -3.3029841    6.2772595    7.9763579    40.194762 
171416000    275.15517    299.39821     300.6862   -2.7158541    6.9579074    -1.287989    40.195839 
171420000    273.22715    330.43041    275.95757    -4.365153    7.3339433     54.47284    40.198399 
171424000    265.51857    315.29755    255.48404   -4.2356304    9.0760773    59.813505    40.202586 
171428000    281.69349    324.03301      283.474   -3.8791341    8.1147426    40.559012    40.197312 
171432000    266.29205     303.5445    255.23163   -3.2035488    8.9973712    48.312872    40.206614 
171436000     269.6389    312.86685    271.85979   -3.8597045     8.362417    41.007059    40.204895 
171440000    285.16841    342.87895    280.45173   -5.7889733    7.7177004    62.427218    40.198688 
171444000    266.81207    297.36182    273.55839   -4.3332499    8.1729253    23.803434    40.199433 
171448000     273.6974    321.44753    285.52929   -5.3059073    7.3039567    35.918243    40.199989 
171452000    280.80062    329.06426    289.85498   -6.5862089    7.0530269    39.209284    40.195574 
171456000    280.31326    319.61102    281.18747   -6.0421584    7.8405407    38.423541    40.193953 
171460000    271.41129    301.73872    281.45449   -4.8165116    6.6572473    20.284227    40.190102 
171464000    263.02071    309.68341    276.88924   -5.5479766    8.4542867    32.794169    40.185889 
171468000    277.37976     327.7111    274.01532    -6.881976    8.4551161    53.695778    40.191189 
171472000    277.98288    317.85891    280.74011   -5.7455558    7.7587652    37.118799    40.193793 
171476000    286.18515    326.74942    302.57879   -6.6029016    7.3353279    24.170628    40.189534 
171480000    278.86345      312.411    297.37123   -6.3721668    6.6720624    15.039766    40.190587 
171484000    280.06964    317.94578    274.59943     -6.64409    8.0230917    43.346352    40.189046 
171488000    281.43169    325.02969    282.82872   -6.8480007    7.6434187    42.200966    40.186466 
171492000     286.3873    331.09483    289.01561   -6.8696019    6.6859471    42.079223     40.18738 
171496000    273.51811    312.91374    274.27803   -5.5291601    8.7925552    38.635711    40.189874 
171500000    284.36185    330.53259    294.75825   -7.3110376    7.6663111    35.774342    40.190237 
171504000    269.49899    317.55314    251.94181     -6.36629    9.7481828    65.611321    40.186114 
171508000    271.52075    320.78629     294.3103   -7.0138638    6.9666999     26.47599    40.184673 
171512000    280.09723    302.10223    274.64224   -5.2045932     9.306531    27.459987    40.191731 
171516000    274.51752    313.64823    282.68164   -5.7476965    8.4298336    30.966588    40.187434 
171520000    284.62214    337.56325    288.73325   -6.9311468     7.492598        48.83    40.187834 
171524000    274.28767    309.69378    269.40701   -5.3529644    8.5644773    40.286768    40.178396 
171528000    285.58116    346.56506    277.83014   -7.1538135    8.0041309    68.734919    40.178656 
171532000    276.52035    316.09738    285.99168   -5.6680498    7.3649745    30.105697    40.180348 
171536000    278.21655    336.16865    263.80193   -6.2764835    8.6432604     72.36672    40.174988 
171540000     270.5005    293.37504    286.69211    -4.759634    7.6139684    6.6829336    40.168513 
171544000    278.22438    326.66899    284.79448   -6.1436052    7.7243952    41.874507    40.167509 
171548000    278.37944    315.40205    276.61538    -5.283456    7.0896256    38.786678    40.163572 
171552000    276.85772    336.11789    267.16954   -5.1363505    8.6906544     68.94835    40.168846 
171556000    284.28548    343.41876    293.06917   -6.3093553    7.1778232    50.349585    40.170606 
171560000    282.16406    349.65732    272.39695    -6.457435    7.8149344    77.260369    40.167071 
171564000     280.5767    341.66429     288.7976   -5.5662409    6.4816601    52.866695    40.177508 
171568000    276.76715    325.64466    287.96368   -4.7162188    8.0425673    37.680973    40.177495 
171572000    277.72808    328.51727    298.47701   -5.0651893    8.3618148    30.040258    40.185657 
171576000    272.86858    322.79474    290.57958   -4.0751327    7.6185554     32.21516    40.189774 
171580000    280.23453    315.91357    299.23821   -4.7574071    6.1166826    16.675367    40.183375 
171584000    273.17131    330.01056    264.99763   -5.2393683     8.893636    65.012929    40.185016 
171588000    279.18447    336.97522    293.21843   -6.4368657    6.9051038    43.756791     40.18564 
171592000    280.73642    327.39419    285.30983   -6.7636714    8.2999148    42.084355    40.191645 
171596000    282.45278    329.63421     299.2097    -5.907041    6.1557251    30.424514    40.198035 
171600000    272.65434    323.98407    253.45852   -5.7328677    9.2493242    70.525549    40.196976 
171604000    272.70323    304.17328    274.40691   -4.3740654    6.7865087    29.766366    40.200111 
171608000    279.47594    344.63327    284.03783   -5.0963767    6.1453331    60.595449    40.198645 
171612000     265.5736     322.2046    276.40428   -4.8440456    6.0987852     45.80032    40.200342 
171616000    268.76425    324.40003    282.41394   -4.4675505    8.3779399    41.986091    40.202855 
171620000    272.24082    313.82062    280.20015   -2.9309082    7.4612233    33.620473    40.204533 
171624000      274.835    309.08664    279.55663   -3.7393037    7.3405277    29.530015    40.213221 
171628000    278.06613    328.41349    270.35063   -3.8230877    8.0559164     58.06286    40.209786 
171632000    275.76147     329.1807    277.91829   -4.9222952    5.8174753    51.262406    40.215745 
171636000    279.24467    319.57979    289.25682   -4.9233525    6.0658425    30.322968    40.206915 
171640000    268.28616    312.52585    267.61461   -3.8719191    7.5865451    44.911233    40.212442 
171644000    277.44411    327.69073    270.76474   -4.2658822     8.251075    56.925991    40.204597 
171648000     267.9787    300.63571     271.8126   -3.5806175    8.1527972    28.823102    40.206905 
171652000    269.52566    318.91303    277.73182   -4.6276823    7.1365947    41.181209    40.212088 
171656000    268.83645    314.49383     268.5577   -4.1371557    8.8818964    45.936127    40.219192 
171660000    277.02592    340.23923    284.96393   -6.1075114    7.5778359    55.275303    40.208515 
171664000    273.33103    304.91241     283.0246   -3.2172011    7.9287742    21.887817    40.207249 
171668000    268.63291    303.88678    276.22503   -4.0546021    8.1975388    27.661752    40.203584 
171672000    279.57818    324.22985    285.63785   -5.6908281    7.5320224    38.592002    40.207869 
171676000    279.60358    326.46782    287.38033    -6.488099    7.3174897     39.08749    40.209911 
171680000    278.86157    318.77479    280.64986    -6.269759    8.5919892    38.124924    40.207528 
171684000    274.24341    312.43191    291.50588   -5.9301632    7.1395113    20.926031    40.210105 
171688000    280.16208    311.57192    310.63072   -4.9412614    6.5127457   0.94119631    40.210233 
171692000    273.86932    308.25182    278.29639   -4.9464137    7.4618259    29.955437    40.214103 
171696000    273.50235    340.62971    282.01745   -6.6585982    8.0535331    58.612256    40.220709 
171700000    279.34236    324.38254    297.26493   -6.7814907    7.7363633    27.117609    40.215467 
171704000    281.49316    317.90037    288.18696   -5.7167078    7.9109174     29.71341    40.213285 
171708000    278.65162    300.48875    300.62534   -5.7144411     6.965807  -0.13659628    40.205621 
171712000     273.9498    303.60734    279.20498   -4.4399286    8.3492595    24.402362    40.200946 
171716000    281.33201    329.59917    277.04461   -5.7957916    8.1684799    52.554554    40.198022 
171720000    272.10045    302.47357     272.3858   -4.8219322    8.4595627     30.08777    40.199965 
171724000    286.41331    334.21781     307.2692   -6.8983342    6.6258987     26.94861    40.196934 
171728000    277.35313    309.49675    288.69641   -3.7985332    8.8723674    20.800338    40.205181 
171732000    286.45182    354.91796    283.76881   -6.0400852    7.1041107    71.149153    40.206539 
171736000    278.93598    328.02637    290.54034   -6.0746345    7.9541889    37.486029    40.207946 
171740000    283.62845    320.89585    285.13021   -4.9022083    7.9902899    35.765644    40.209457 
171744000    266.73393      316.774    265.35311   -4.7337399    9.5258348    51.420889    40.201004 
171748000    271.38403    322.40265    276.91695     -5.12162    8.7717846    45.485703    40.201843 
171752000    270.39492    309.86151    277.78455   -3.3011124    9.9397199    32.076955    40.208706 
171756000     275.0033    334.48781      269.581   -4.8906288     9.106511    64.906816    40.212852 
171760000    268.33102    320.56451    280.94368   -4.2374813    9.2707151     39.62083    40.212612 
171764000    281.14105    323.78138    298.30779   -5.7923439    7.5701398    25.473595    40.214253 
171768000    282.12525    347.60845    292.04801   -7.1236827    8.1648438     55.56044    40.218077 
171772000    278.98499    342.01332    287.01603   -6.2178798    9.1771715    54.997286    40.216568 
171776000    278.61933    323.01595    306.05858   -5.7867925    8.3445776    16.957366    40.214645 
171780000    275.71264    334.66965    287.80615   -5.6118462    8.6286294    46.863494    40.213884 
171784000    275.12421    343.73044    293.16274   -6.8617955    8.4739529    50.567699    40.216422 
171788000    277.46103    355.37842    276.79502   -6.3808766    9.0529819    78.583404    40.216887 
171792000    271.29669    290.01939    291.90276   -3.4414162    8.4488505   -1.8833737    40.209949 
171796000    267.07847    294.77978    294.85465   -3.3765163    8.5306882  -0.07487368    40.206831 
171800000    266.93278    318.81566    277.68288   -5.3185238    9.3808843    41.132782    40.208843 
171804000    270.45284    331.83317    294.67732   -4.5913542    8.0580261    37.155853    40.209847 
171808000    279.36092    325.01521     301.5367   -2.9998152    9.0354048    23.478508     40.20523 
171812000    268.13225    341.00874    270.13666   -5.0899972    10.112375    70.872082    40.209161 
171816000    255.39275    299.86273    261.22583   -2.9520624    10.167374    38.636909    40.207633 
171820000    269.22825     333.5781    266.43542   -4.5288897    10.770025    67.142675     40.21451 
171824000    277.35937    343.64611    284.50324   -4.5706546    9.1849859    59.142871    40.216327 
171828000    276.08429    325.06553    295.87866    -4.438743    7.1599363     29.18687    40.211343 
171832000    262.49785    319.97311    271.59618   -4.5157065     10.49934    48.376931    40.209803 
171836000    266.75759    323.94483    263.58133   -4.3793594    10.309246    60.363494    40.213356 
171840000    264.34179    304.03365    260.58502   -4.7149145     11.25619    43.448631    40.209737 
171844000     264.2219    318.11189      275.949   -4.8957816      10.5231    42.162889     40.20946 
171848000    276.90593    319.30948    299.07664   -4.0667161    9.5957109    20.232843    40.215165 
171852000    263.39926    308.49406    262.97143   -3.3380398     11.33808    45.522631    40.214071 
171856000    270.63352    327.73157     266.4482   -5.2035308    10.261835    61.283369    40.207987 
171860000    276.54523    320.31626    280.24664   -6.1547645    8.7051484    40.069622    40.206742 
171864000    269.14469     304.2704    274.47282   -5.1580304    10.024495    29.797575    40.214207 
171868000    274.39726    351.68438    249.96774    -6.014276    10.609001    101.71664    40.216773 
171872000    285.14687    319.72015    313.06192   -5.2265333    6.9057633    6.6582344    40.215554 
171876000     262.1868    314.91246    262.61889   -5.9486635     9.714978    52.293576     40.21807 
171880000     274.4553    314.48353    282.39849   -5.6193774    7.8350961    32.085043    40.214621 
171884000    279.82773    337.16511    286.78978   -7.1344954     8.333424    50.375327    40.209073 
171888000    275.71743    329.72006    297.32629   -5.3834163    8.6064753    32.393767    40.209283 
171892000    266.83154    307.26699    276.63588   -4.1251372    9.0232351     30.63111    40.207938 
171896000    278.50899     340.9768    288.73078   -6.6301507    8.9419221    52.246019    40.212765 
171900000    266.07802     311.4798    260.84362   -5.5633141    10.515475    50.636185    40.212193 
171904000    262.11641    299.39203    277.26989    -3.845406    9.0514792    22.122143    40.203762 
171908000    272.24749    325.08351    285.40566   -4.9868964    8.1273345    39.677848    40.207292 
171912000    277.21926     341.7369    282.43248   -6.1305402     8.630862    59.304412    40.209864 
171916000    269.80294    325.44251    274.83865   -5.9076176    9.3161559    50.603863    40.209398 
171920000     270.6821     310.3775    281.67802    -4.705464    8.0874544     28.69948    40.207709 
171924000    276.16174    338.89554    280.29734   -7.5842207     8.318872    58.598201    40.209699 
171928000    277.20685    332.84458    261.48177   -4.6935793    9.9700027    71.362816    40.212666 
171932000     277.4947    316.79714    281.84859   -5.1029478    9.6002682    34.948544    40.208294 
171936000    276.45305     323.8337    292.24517   -5.7237593    8.4023724    31.588539    40.210182 
171940000    274.59168    327.72173     276.3965   -6.2099683    10.289403    51.325224    40.204695 
171944000    280.33774    340.29184    283.96005   -7.0254709     8.962737    56.331797    40.205554 
171948000    274.88077    312.09005    291.08232    -5.926762    8.4655355    21.007731    40.207958 
171952000    282.74223    332.86948    286.09296   -7.7295278    8.8274863    46.776515    40.206995 
171956000    272.08239    303.34902    292.57242   -5.8596946    8.5363387    10.776601     40.21038 
171960000    267.58996    313.74548    251.67646   -5.7634349    11.191603    62.069018     40.20949 
171964000     275.0743    322.30085    288.41278   -4.4838281    8.8270294    33.888064    40.206898 
171968000    282.09939     333.2543    291.70155   -6.1951959    7.9347483     41.55275    40.211015 
171972000     279.4492    333.06466    290.79382   -5.8410683    7.7513165    42.270838    40.210716 
171976000    274.99257    328.89059    289.83458   -4.9934405    7.6098116     39.05601    40.213443 
171980000    268.57194    323.28561    266.89287   -4.8589525    9.1896417    56.392743    40.217434 
171984000    265.79379    317.55178    276.02012   -4.4926582    8.5235893    41.531659    40.217095 
171988000    278.69275    339.56632    290.49002   -6.2155297    8.1856647    49.076292    40.213699 
171992000    271.82625    329.29499    263.38394   -5.6663468    9.5651272    65.911047    40.211283 
171996000    274.00334    313.03705    289.56142   -5.1322085    7.8367573     23.47563     40.21807 
172000000    280.66184    341.48597    289.49279   -5.8869326    7.2175761    51.993181    40.219501 
172004000    270.83732    314.71439    261.08436   -5.8328983    8.7695017     53.63003     40.21941 
172008000     276.5103    324.30831    287.71023   -5.1698989    8.6854412    36.598078    40.229654 
172012000    271.30416    320.38738    262.34918   -4.6552444    9.0535879    58.038195    40.227474 
172016000    280.55684    326.12319     268.3015   -5.5603164    8.8852353    57.821681    40.232161 
172020000    271.83862    311.09349    276.80747   -4.9353247    8.2861877    34.286024    40.226021 
172024000    268.97662    315.94686    281.05472   -5.0041544     7.493244    34.892142    40.224092 
172028000    273.51174    325.77157    276.70553   -5.4183099    8.2834033    49.066049    40.222113 
172032000    279.89294    320.87128    286.30184   -5.0507055    8.9682142     34.56944    40.220461 
172036000    264.52059    305.56893    294.43301   -3.0992538    8.3941912    11.135921    40.216916 
172040000    275.92558    329.52317     282.5995   -5.6889739    8.6192731     46.92367     40.21104 
172044000    267.75411    331.99632    271.39431   -5.1979546    8.6372378    60.602012    40.214178 
172048000    272.35711    316.85386    298.08455   -5.0203606    8.4437663    18.769315    40.211688 
172052000    274.91966    322.92618    305.59835   -3.9721621    7.8728965    17.327828    40.211353 
172056000    270.37928    313.04769    277.86841   -3.2228228      9.05616    35.179276    40.206528 
172060000    262.54056    313.72233     264.0885   -2.9277169     9.742478     49.63383    40.204979 
172064000    275.78321    337.87806    279.11052   -4.8145213    9.2267946    58.767533     40.19967 
172068000    272.84015    300.92692    297.18485   -3.4348849    6.9853419    3.7420683    40.200247 
172072000    269.80483    317.27326     279.0208   -3.5047457    8.2167435    38.252453    40.200163 
172076000    271.65888    333.46709    269.90484   -4.3026885    9.7527296    63.562249    40.197753 
172080000     267.3436    304.95891    279.79185   -1.9463503     8.738083    25.167058    40.200531 
172084000    269.24334     309.7599    272.80286   -3.6678847    8.8343029    36.957042    40.199338 
172088000    266.81665    306.92542    264.03853   -3.1790084    9.4096486    42.886891    40.196636 
172092000    269.41382    307.21792    284.35495   -4.9468979     8.773523    22.862969    40.203411 
172096000    279.37281    320.14981    303.12536   -5.3993272    7.9897852    17.024447    40.204413 
172100000    272.66596    325.06047    277.15728   -5.8046489    9.4584929    47.903186    40.203589 
172104000    263.48436    287.57772    288.95399   -2.8758146    8.1330376   -1.3762681     40.20129 
172108000    278.75107    339.72535    285.84789   -6.4109981    8.1240426    53.877463     40.20095 
172112000    277.01655    328.82258    277.69308   -5.6880022    9.7969091    51.129493    40.205306 
172116000    278.19064    340.60365    287.39434   -5.8586301    10.102535    53.209309    40.206671 
172120000    264.34583    337.75476    267.86211   -5.2561433    11.301103    69.892649    40.206134 
172124000    269.11494    328.98029    282.21157   -4.9325894    10.504684    46.768722    40.208263 
172128000    268.53905    320.63614    278.24392    -4.091593    10.128029     42.39222     40.21345 
172132000    272.50208    342.78146    269.87099   -5.4923274    9.9205621    72.910478    40.214924 
172136000    273.87252    322.99325    289.68578   -5.8719442     9.141819    33.307471    40.220339 
172140000    273.90453    317.83274    275.27516   -5.5215774    10.894732    42.557579    40.219825 
172144000    271.51404    337.80743    279.88363   -6.4220789    9.8040733    57.923807    40.227017 
172148000    278.81571    323.08809    289.51574   -6.6137556    9.1002739    33.572355    40.224165 
172152000    268.53363    312.55589    274.57921   -5.0288434    9.5003771    37.976676    40.228244 
172156000    276.10644    343.60676    287.33877   -4.8931939     10.47534    56.267986    40.230797 
172160000    266.54957    308.55834    275.00029   -3.3483935    9.8377407    33.558052    40.227878 
172164000    273.55781    334.08282    269.19857   -5.9389978    11.360476    64.884255    40.222886 
172168000    276.40431     337.9121    287.16819   -5.9242781    9.6118491    50.743909    40.222756 
172172000    282.93116    332.11165    307.69263   -6.4301493    8.5926253     24.41902    40.225815 
172176000    263.75175    319.86122    268.02922   -5.1070815    11.288322    51.832003     40.22926 
172180000    272.50651    323.01787    267.05604   -5.8958841    10.698118    55.961831    40.230924 
172184000    276.48112    357.30524    295.84436   -7.1552683    9.5717424    61.460877    40.238445 
172188000    270.72949    305.75143    283.83946   -5.0545183    9.5633966    21.911966    40.238468 
172192000    276.83491    315.90176    277.03067   -6.8304316    9.6543283    38.871088    40.240956 
172196000    278.00313    313.04578    286.61462   -6.9508205    9.0757004    26.431165    40.238063 
172200000    282.46329    338.40901    292.78607   -6.2078449    9.1817323    45.622939    40.242645 
172204000    271.84515    315.39004    282.93313   -5.5631293    10.167442    32.456917    40.242034 
172208000    275.67758    319.01265    291.13267   -6.2284833    8.9672302    27.879976    40.247402 
172212000    279.76213    341.91827    288.56263   -7.8411968    7.9403806    53.355635    40.240204 
172216000    282.49789    345.86192    270.16318    -8.784627    9.8159142    75.698739    40.241056 
172220000    268.18438    314.54909    269.28374   -7.0427918    9.5330029    45.265349    40.240318 
172224000    273.76032    299.17255    274.45767   -6.3137246     9.543237    24.714875     40.24328 
172228000    272.45196    310.64213    287.17649   -6.0030525    8.5355266     23.46564    40.242617 
172232000    274.67279     328.4389    269.72655   -7.9880546    9.8023776    58.712348     40.24634 
172236000    277.53582    302.35669    289.76618   -7.4471943    9.1110607    12.590515    40.251351 
172240000    271.58022    326.41582    271.14779   -7.7147865    10.257503    55.268028    40.245566 
172244000    275.24391    315.73885    278.90178     -6.91721    9.8977251    36.837074    40.239063 
172248000    280.59312    319.60014    299.30577   -6.4812744    8.6189189    20.294366    40.246937 
172252000    268.65001    321.45039     269.3412   -6.8039161    11.206916    52.109188    40.246285 
172256000    269.56911    306.97452    268.00013   -7.2864925    10.566288    38.974397    40.244785 
172260000    279.50016    327.84342    277.40889   -7.3475009    9.9099633    50.434533    40.246795 
172264000    272.13834    321.91035    268.80253   -8.4242785    10.387922     53.10782    40.244043 
172268000    264.71213    300.82812    265.32304   -6.0364051    10.951208    35.505081    40.247445 
172272000    268.07278     306.8094    277.47575   -6.7909372    10.277474    29.333651    40.245662 
172276000    263.37684    292.05906    259.15462   -5.7098009    11.471776    32.904445    40.242642 
172280000    280.29602    313.01141    299.16117   -6.2031212    9.3059646    13.850243    40.245499 
172284000    285.87865    322.33952     300.7308    -6.656393     8.875249    21.608719     40.23863 
172288000    274.47624    331.16643     286.4137    -7.771316    9.8697164    44.752724    40.238385 
172292000    274.97805     302.0887    297.42203   -5.6008071    8.8018715    4.6666772    40.239151 
172296000     273.8327     322.8086    282.60268   -7.6815035    9.0430325    40.205924    40.239717 
172300000    278.61403    319.78468    298.18945   -6.7045725    8.5766681    21.595229    40.237036 
172304000    266.35397    315.81515    260.46868   -4.5936214    9.5335951    55.346473    40.242582 
172308000    276.87392    324.05226    304.41751   -4.3513452    9.3227069    19.634757    40.235848 
172312000    271.15871    329.03067    289.26608   -5.8929009    10.591638    39.764585    40.238501 
172316000    274.25597    326.52783     279.3823   -6.5046604     10.71587    47.145525    40.238412 
172320000    268.15923    312.25464    281.69879   -5.5137653    10.368306    30.555846    40.241426 
172324000    270.51613    316.58266    284.40243   -6.1416253    10.905622    32.180233    40.247336 
172328000    275.59872    341.55781    275.86922   -7.1715005     12.18577    65.688591    40.248341 
172332000    273.65357    309.85622    291.86184   -6.6378126    10.066594    17.994373    40.245358 
172336000    271.04558    325.89898    288.28776   -7.6841833    10.958466    37.611222    40.243634 
172340000     280.4061    332.47093    293.10722   -6.6053934    10.936643    39.363704    40.248441 
172344000    273.25179    313.11263    290.46519   -6.1600005    10.546152     22.64744    40.249838 
172348000    271.34789    329.58716    259.95422    -6.137427    12.598089    69.632937    40.253574 
172352000    271.86694    325.25037    292.96815    -6.359212    11.344905    32.282222    40.251877 
172356000    269.61005     323.5735    278.08142   -7.3300387    10.075174    45.492082    40.257186 
172360000     281.5863    346.13646    275.50439   -8.6147604    10.359276    70.632065    40.254592 
172364000    277.65501    325.97474    278.08717   -7.0797617    11.122976    47.887566    40.258121 
172368000    277.39445    331.96473    284.41642    -9.597735    10.309373    47.548306     40.25938 
172372000    274.99191    322.28417    282.16877   -8.1458787    10.050454    40.115402    40.259034 
172376000    266.21928    297.25076      271.231   -7.6350681    9.7853983     26.01976    40.258112 
172380000    266.98054    291.38124    282.60929   -6.8597996     10.33413    8.7719477      40.2511 
172384000    276.27829    338.27817    275.76699   -8.4541283    9.9598638    62.511179    40.248621 
172388000    273.73314    324.64857    286.03621   -7.4627768    10.560457    38.612363    40.246833 
172392000    269.79089    314.79272    255.29783   -7.3349572    11.893546    59.494886     40.24459 
172396000    271.96449    313.43338    288.98036   -7.5812817    9.2644402    24.453017    40.244144 
172400000    267.26914    313.65342    268.31364   -7.0877629    11.564845    45.339779     40.23893 
172404000     264.5499    327.10373    247.49715   -7.9951627    11.548985    79.606583    40.238482 
172408000    270.52492    290.65779    259.85896   -5.8355768    10.881596    30.798825    40.238772 
172412000    292.76479    324.45237     306.4567   -7.3719519    8.9071944    17.995675    40.236071 
172416000    272.03549    315.64749     269.4326   -8.5786238    10.834786    46.214888    40.234288 
172420000    270.03644    306.81098    264.54488   -7.4527336    11.342028    42.266099    40.229041 
172424000    265.86072    305.44134    271.77418    -6.583403    10.944008    33.667158    40.229355 
172428000    276.18526    322.83291    285.54025   -7.2335236    8.6700838    37.292666    40.232796 
172432000    275.95516    325.59573    271.61465   -7.9829752    9.9212688    53.981086    40.235709 
172436000    273.96115    336.10384    260.00377   -10.047653    10.934247    76.100063    40.237629 
172440000    260.64803    295.41858    274.95907   -7.2564235    11.217513    20.459509    40.227387 
172444000    268.66103    304.44038    267.88477   -8.0172282    11.715708    36.555601    40.225667 
172448000    273.49001    301.11443     301.0751   -6.4273546    10.371579  0.039329638     40.22922 
172452000    276.53176    335.68908    272.20543   -8.8529663    10.413021    63.483655     40.23137 
172456000    276.48078    309.98938    287.14651   -8.9815182    10.575404    22.842871    40.231972 
172460000    273.91395     322.6305    269.71233   -8.3074847    10.436136     52.91817    40.231874 
172464000    273.01627    306.81768    286.50319   -8.4309902    10.539755    20.314483      40.2341 
172468000     272.4672    320.85182    261.02239   -8.3993364    11.505528    59.829424      40.2346 
172472000    276.97144     289.8712    294.07206   -7.4574431    9.5869474   -4.2008625    40.232644 
172476000    274.10691    311.58722    265.18097   -8.8950867    10.390947    46.406245    40.236195 
172480000    278.50056    339.64933     263.2466   -8.7193478    10.455514    76.402732    40.242865 
172484000    271.15551    294.35416    293.72968   -6.2752501    9.8414204   0.62448551    40.244294 
172488000     283.1911    321.58418    301.41804   -9.3681797    9.1858491    20.166142    40.243233 
172492000    276.90223    342.98591    271.55053   -9.5270304    10.100104    71.435389    40.246992 
172496000    274.16648    323.99476     284.5032     -8.12842    11.037949    39.491565    40.246971 
172500000    274.13622    315.21357    286.91322   -8.2862658    10.842404    28.300346    40.255196 
172504000    277.82568    322.80466    281.85619   -8.5149257    10.820271    40.948467    40.258555 
172508000    274.44147    320.65997    278.63976   -8.2619822    10.146044    42.020211    40.262347 
172512000    270.11471    299.37698    282.44496   -8.4255452    10.695286    16.932022    40.263203 
172516000    279.31981    334.60656    287.82011   -10.211397    9.6874848    46.786453    40.267717 
172520000    266.48735    309.53529     272.5273   -8.8550183    11.322231    37.007993    40.271816 
172524000    274.04295    321.88144     283.3868    -8.041206    9.7612268    38.494646     40.27538 
172528000    269.37949    305.87192    263.64267   -6.9563079    11.372635    42.229249    40.274506 
172532000    269.13537    311.00159    273.35911   -7.1934612    11.528484     37.64248    40.270685 
172536000    272.51278    332.35004    261.96834   -9.1893363     12.67044    70.381701    40.271694 
172540000    278.02122    323.75062     282.9446   -7.9379531    11.249106    40.806022     40.27542 
172544000    268.37521    301.13292    262.11889   -7.1361899    11.984051     39.01403    40.276558 
172548000    278.23494    311.81826    285.15871   -7.8508174    9.9434863    26.659551    40.277212 
172552000    274.91221    346.46564    270.86025   -9.4871156    11.081081    75.605392    40.277919 
172556000    279.51906    315.79413    278.22191   -8.0555392    9.9144455    37.572211     40.27921 
172560000    274.28115    320.90022    274.23408   -8.8904676    10.505337    46.666139    40.282637 
172564000    268.75043    308.29459    284.44757   -8.4204557    11.272537    23.847017    40.286406 
172568000    270.38821    317.59186    269.19288    -7.968836    11.971726    48.398984     40.29074 
172572000    269.79003    286.73805    291.16075    -7.091349    11.230521   -4.4227051    40.289012 
172576000    275.93628    329.73335    269.09364   -7.7611394    12.776154    60.639715    40.285113 
172580000    279.51769    341.89919    287.72876   -9.3771869    12.182591    54.170434    40.282874 
172584000    273.91732    335.63534    259.35205   -9.3725508     12.30503    76.283293    40.283353 
172588000     271.8409    322.02594    272.06245   -8.8785044    11.039743    49.963492    40.282798 
172592000    276.31954     324.8142     268.4687   -7.7827699    11.961624    56.345501    40.285974 
172596000    261.11732    302.59561    266.79552   -7.0425144    13.517344    35.800095     40.28547 
172600000    266.59704    305.20427    284.49986   -7.0877245    11.871498    20.704411    40.287933 
172604000    270.94763    304.17055     288.6771   -7.3802121     10.63688    15.493453    40.284995 
172608000    271.05425    318.76536    267.23534   -8.1837187    12.617573    51.530017    40.286756 
172612000    273.35154    302.91591    274.99345   -7.0077948    12.260827    27.922459    40.285522 
172616000    269.53968    327.67031     277.6826   -8.8341031    12.134537    49.987711    40.286142 
172620000    278.98408    336.70962    287.90707   -7.5165027    11.645885    48.802542    40.284979 
172624000    267.47787    321.91258    274.82997   -7.2832383    12.165637    47.082614     40.28593 
172628000    264.99706    325.68253    276.34828    -6.843246    12.993107    49.334244    40.288234 
172632000    266.14851    345.49217    262.34982   -7.7101278    13.482985    83.142347    40.288663 
172636000     268.8999    319.09328    303.98965   -7.4117085    12.027885    15.103634     40.28431 
172640000    269.91904    308.42965    291.61626   -6.9324754    12.382118    16.813389    40.283062 
172644000    260.81434    285.44013     299.8496   -4.8686291    10.629101   -14.409466    40.279651 
172648000    265.34477     319.2617    266.71007   -6.8227965    12.741412    52.551627    40.284668 
172652000    268.77219    316.43038    300.93077   -5.9618282     10.84947    15.499611    40.288938 
172656000    271.89454    318.08824    305.68057   -6.1526233    12.064335    12.407668    40.287893 
172660000    281.03846    342.70029    294.95874   -8.0398078    12.244217    47.741556    40.287346 
172664000    267.92781    327.10736    282.16911   -8.0980496    12.573248    44.938254    40.286249 
172668000    267.24551    311.55058    297.27755   -7.2384011    11.757013    14.273029    40.283061 
172672000    271.32632    337.78121    280.86454   -7.1194352    12.287176    56.916679    40.283178 
172676000    272.47368    335.37355    281.57808   -8.3217407     11.53851    53.795474    40.287357 
172680000    265.50007    308.42752    264.43298   -8.0893521    12.135592    43.994543    40.287868 
172684000    276.89968    335.76527    291.13752   -9.3589269    11.656581    44.627752    40.289016 
172688000    267.16427    316.65693    278.52571   -8.0697336    13.178235    38.131221    40.285816 
172692000    270.15404    328.51339    283.51286   -7.4939942    12.212789    45.000527    40.286372 
172696000    271.29849    322.34342    271.10429   -6.3009851    12.426504    51.239132    40.287303 
172700000    269.95429    324.26877    267.77558   -6.6722878    12.929598    56.493192    40.286527 
172704000    263.57864    294.80347    276.73699   -7.2257891     12.46414    18.066482    40.287079 
172708000    276.18164    319.87701    297.31694   -7.2017523    10.898416    22.560063    40.288899 
172712000    265.20288    327.30222    250.41377   -8.4407553    14.639214    76.888452    40.296699 
172716000    270.01921    316.14793    273.27714   -8.9140242    12.937353    42.870789    40.297485 
172720000    274.06803     325.7996    283.10963   -9.0555902    12.261574    42.689972    40.299416 
172724000    276.40555    324.13789    284.00543   -8.3813469    12.328626    40.132462    40.300138 
172728000    267.33439    321.33669    276.10725   -8.2624411    12.538143    45.229444    40.302067 
172732000    273.77435    315.91204    276.07873   -8.6477526    11.980231    39.833309    40.301562 
172736000    281.47047    329.00702    282.73789    -8.656882    12.454285    46.269134    40.298572 
172740000    269.49613    327.01427    277.45808   -8.9080352    11.959235    49.556185    40.293287 
172744000    268.27986    317.77367    268.43433   -9.5948504    12.524856    49.339345    40.292501 
172748000     279.1581    320.47267    291.98474    -9.937605    11.225705    28.487931    40.292901 
172752000    279.63128     334.7405    285.95416   -9.8823055    11.528807    48.786334    40.294894 
172756000    277.85054    324.35284    297.37743   -8.9633463    11.544631     26.97542    40.298814 
172760000    275.29411    308.84995    287.60739    -7.892665    11.338311    21.242559    40.300691 
172764000    273.44422    310.54321    276.06242   -8.0670668    12.501493    34.480787    40.298293 
172768000    278.38783    336.35325    288.91542   -9.9944146    11.308673    47.437833    40.300088 
172772000    280.07803    336.06392    273.52676    -9.440017    12.313931    62.537164    40.301736 
172776000    276.62628    321.18813    301.78997   -7.5717514    11.222502    19.398163    40.297439 
172780000    270.24113    307.31304    279.42433    -8.296184    13.263831    27.888712    40.295934 
172784000    272.28971    318.19064    281.74695   -8.5679995    12.748588    36.443691    40.298222 
172788000    279.28536    318.68435    292.37601   -9.3127213    11.670309    26.308348    40.298177 
172792000     283.9501    319.30725    300.38518   -8.0015158    11.420102    18.922071     40.29643 
172796000    273.64381    308.90163    282.80478   -8.3506421    11.402726    26.096849    40.295658 
172800000    270.92421     301.0185    284.49793   -8.8233978    11.675818    16.520569    40.297441 
172804000    279.30507    317.09117    281.38798    -9.829439    11.834204    35.703193    40.290261 
172808000    277.66202    317.14078    278.44375   -9.5491497    12.076819    38.697036      40.2879 
172812000    268.96384    330.14538    254.37246   -10.141081     13.74565    75.772922    40.290194 
172816000    275.47149    305.03359    303.80162   -9.2336099    10.886481    1.2319705    40.288426 
172820000    270.60031    308.27838    262.58349   -8.4572904    12.237562     45.69489    40.291996 
172824000    269.78666    297.08121    286.15684    -7.760232    11.398776    10.924376    40.296487 
172828000     269.3705    310.76831    278.96346   -9.6966698     12.54035    31.804851    40.292418 
172832000    288.11354    359.79633    293.33275   -10.890269    11.501412    66.463576    40.294144 
172836000    280.15021    317.98943    302.36637    -9.724272    11.174438    15.623065    40.285348 
172840000    282.08468    326.58761    277.20239   -9.8296987    11.208788    49.385214    40.284599 
172844000     276.9107    325.53353     263.7015   -10.544032      11.4158    61.832038    40.288746 
172848000    269.13621    320.17199    273.89186   -9.8171514    12.204041    46.280131    40.288522 
172852000    273.66043    328.73194    269.65355   -9.7553026    13.144503    59.078386    40.289721 
172856000    275.55396    342.60193    258.69282    -10.50846    12.501429    83.909114    40.291279 
172860000    280.57182    304.41407     291.3249   -7.9099033    12.275089    13.089167    40.288989 
172864000    281.35345    332.76565     282.2476   -10.024983     12.29866     50.51805    40.288397 
172868000    279.82099    322.96666     300.7304   -10.485146    11.208938    22.236254    40.286159 
172872000    272.90463    328.23523    279.66927   -10.580672     11.93964     48.56596    40.298647 
172876000     282.7545    331.65483    284.63428   -9.3033387    11.005177    47.020544    40.298017 
172880000    285.38968    339.06073    294.39645   -9.5366991    12.017349    44.664277     40.30063 
172884000    275.15739    323.04327    277.36918   -9.2231904    12.759979    45.674087    40.294164 
172888000    285.57381    332.98949    288.92108   -8.0073534     11.95376    44.068411     40.29312 
172892000    287.66183     342.5228    305.65924   -8.3709386    10.565722    36.863556    40.293232 
172896000    264.45599    315.09959    281.08394   -8.8584341    12.397496    34.015654    40.296018 
172900000    275.16624    319.60026    280.08084   -8.3778168    12.780499    39.519421    40.297851 
172904000    278.60322    334.14261    280.96868   -9.1712752    13.250543    53.173935    40.291062 
172908000    269.48306    303.02646    279.53259   -8.8273674    12.604494    23.493866    40.287748 
172912000    281.78687    334.65606    289.48449   -9.7709117    11.763733    45.171569    40.287704 
172916000    271.53572    304.92248    288.55501    -8.220041    12.390283    16.367465    40.287508 
172920000     269.8228    317.17567    261.91741   -8.3156574    13.438784    55.258264    40.286161 
172924000     280.5518     300.5677     301.9848   -7.9964025    10.945808   -1.4170968    40.282771 
172928000    269.22452    291.98305    274.75786   -8.3633184    12.485799    17.225181    40.280152 
172932000    281.93154    342.06278    286.38481   -10.282658    11.465357    55.677972    40.278359 
172936000    265.07261    298.92043    257.95782   -8.0548717    13.459953    40.962615     40.28346 
172940000    264.75795    302.66178    254.43911   -8.5318984     13.19722    48.222668    40.285197 
172944000    274.40205    315.90232    274.07363   -9.3645176    12.651733    41.828693    40.285553 
172948000    277.47881    324.74595    288.87459   -8.6486827    11.755938    35.871361    40.283798 
172952000    274.81675    318.13257    275.80955   -8.7971493    12.534441     42.32302    40.287025 
172956000    269.66344    328.49735    249.42643   -10.189089    13.800316    79.070923    40.286597 
172960000     268.1595    318.76694    270.49104   -8.9518159    13.115149    48.275901    40.287878 
172964000    278.95284    346.73765     268.5151   -10.902359    12.731406    78.222548    40.287241 
172968000     264.5548    316.66159    268.15583   -8.9031609    13.079678    48.505761     40.28358 
172972000     277.2485    338.71158    278.72603    -9.296414    12.426377    59.985546    40.287885 
172976000    277.13717     311.1403    276.56481   -8.1471766    11.774851    34.575489    40.288293 
172980000    279.72585    331.82507    274.63065   -9.3842846    12.403371    57.194426    40.284543 
172984000    274.78607    325.23539    274.52544    -8.823698     11.81693    50.709948    40.284836 
172988000    271.52198    323.70972    280.48746   -10.457206    12.399078    43.222257    40.282747 
172992000    278.31995    340.06065    274.23168   -10.928846    12.992353    65.828975    40.285318 
172996000    275.74244    321.29851    280.67285   -10.582631    11.907879    40.625657    40.284926 
173000000    270.66827     311.0707    274.65402   -8.0901796    12.282128    36.416677    40.283181 
173004000    271.02791    302.68891    264.33372   -8.5271224     12.69517    38.355194    40.287965 
173008000    274.45044    341.40487    267.60254   -9.7680993    12.610506    73.802333    40.288058 
173012000    273.08699    308.59493    284.16251   -9.7261242    11.985534    24.432424    40.290146 
173016000    273.01355    326.50737    288.24715   -8.9980935    11.607935    38.260223    40.291716 
173020000    271.45441    314.18021    276.53967   -9.4761887    12.258544    37.640544    40.288648 
173024000     276.5792    322.69352     277.0073    -10.12339    12.248762    45.686226     40.29009 
173028000    282.64701    331.03755    303.92809   -11.315349    10.493826    27.109463    40.288918 
173032000    278.02242    309.77595    292.81244   -8.9945463    10.935975    16.963507    40.289458 
173036000    283.46377    331.89432    296.11588     -10.7896    11.507373    35.778441    40.294726 
173040000    271.74289    315.83341    263.81283   -10.401244    12.808386    52.020576     40.29796 
173044000    277.87056    308.08432    293.63851    -9.035297     11.32496    14.445816    40.304612 
173048000    273.85464    316.60019    281.27938   -8.0784013    10.746917    35.320813    40.308682 
173052000    271.53459    328.73137    258.79166   -8.2796602    12.345075     69.93971    40.307141 
173056000     269.4879    317.30503    265.83062    -9.419002    12.131726    51.474408    40.303796 
173060000    273.23254    324.52828    279.21212   -8.7349941    11.397398    45.316155    40.303797 
173064000    269.12311    306.81111    283.75149   -8.7804954    11.879793    23.059621    40.304588 
173068000    281.51906    302.46252    298.75343    -7.852299    10.013873    3.7090848    40.302322 
173072000     274.1111    317.65435    268.32978   -8.1704219    11.422253    49.324573    40.300424 
173076000    286.57896    344.87197     282.3474    -9.405087    11.147396    62.524568    40.296959 
173080000    275.09944    306.26628    279.67843   -8.9233631     11.03699    26.587845    40.294533 
173084000      277.066    324.90548    267.57203   -9.3636296    10.499747    57.333447    40.296056 
173088000    284.60999    329.32901    299.08514     -9.16203    9.3831524    30.243872    40.295622 
173092000     270.9806    295.47146    273.92735   -7.4655401    10.866056    21.544109     40.29551 
173096000    273.97886    312.48213     287.7713   -7.8013701    11.803701    24.710836    40.292332 
173100000    285.30331     340.0481    283.20977   -9.8099112    11.490594    56.838329    40.292769 
173104000    265.77824    315.22749    266.17681   -8.8771487    12.861202    49.050679    40.288749 
173108000    276.16502    321.75234    278.51619   -8.0098817    11.253505    43.236154    40.284523 
173112000    276.55693    320.57192    272.45009   -8.0722209    11.164411     48.12183    40.285231 
173116000    278.78857    328.41071    272.93155   -8.7995698    10.576779    55.479158    40.283821 
173120000    276.08726    307.67711    303.36019   -7.9274303     9.681264    4.3169222    40.286613 
173124000    273.14315    312.64554    270.56457   -8.0153023    10.848718    42.080976    40.285422 
173128000    279.56361    327.88752    293.77886   -9.0811117    10.574138    34.108663    40.289026 
173132000      271.254    311.92104    277.18605   -8.8560099    11.455305    34.734986    40.288687 
173136000    276.97122     302.8644    278.53565   -8.7397501    12.121477    24.328755    40.285341 
173140000    275.08599    318.21956    284.72201   -9.0807605    11.720423    33.497549    40.283204 
173144000    275.43525     315.7716    280.43768   -9.5952652    10.852955    35.333921    40.279168 
173148000    264.86036    303.77722     254.8433   -7.8004353    11.842708    48.933918    40.281268 
173152000    278.82767    346.04224    262.47153   -8.2473003     12.26163    83.570709     40.28368 
173156000    272.73073    335.03764    262.42877   -10.235574     12.24747    72.608877    40.284625 
173160000    281.10342     312.5031    287.79851   -8.3519962    9.8243107    24.704591    40.286483 
173164000    276.41523    325.69936    267.48865   -8.1175707    11.644476    58.210712    40.286966 
173168000    275.69307    319.65853    293.79291   -7.9626421     10.79209     25.86562     40.28528 
173172000    267.67798    312.30066    269.27686   -7.2929914    11.766021    43.023797    40.287819 
173176000    270.49434    329.72282    286.70874   -8.3561263    10.345576    43.014076    40.287356 
173180000    266.53632    296.94346    275.11185   -7.3090276    11.377476    21.831609    40.282875 
173184000    272.11661    318.30612    277.04755   -8.0578852    12.371541    41.258576    40.285813 
173188000    281.80286    342.30542    270.75073   -7.9508375    12.881758     71.55469    40.286629 
173192000    278.78304    336.83795    287.19321   -8.1146599    11.532386    49.644742    40.287774 
173196000    278.47887    339.27067    297.60336   -7.8882787    11.612512    41.667305    40.292948 
173200000    266.69744    321.16321    281.18009   -7.4473189    12.089203    39.983126    40.292176 
173204000    276.76852     335.1391    298.60166   -6.5545576     11.92392    36.537436    40.290744 
173208000     263.7549    288.42772    287.76387   -5.6341348    12.865666   0.66384401    40.287424 
173212000    269.47989    305.38112    297.57094   -7.0300589    11.041271    7.8101752    40.288755 
173216000    273.63835    299.88917    298.81883   -6.1657263    11.196334    1.0703363    40.287437 
173220000    291.46246    352.87764    306.27825    -8.648878    11.419952    46.599387    40.284899 
173224000    268.39655    311.23584    279.17088    -6.775268    11.148011    32.064952    40.287141 
173228000    283.88063    351.31783    281.04872   -9.9874685    10.833999    70.269105    40.288179 
173232000    280.00564    314.53479    312.12941   -7.5366788    9.6831627    2.4053779    40.288304 
173236000    275.84065    319.83773    288.99533   -8.1724891    10.525254    30.842402    40.292267 
173240000    269.08211     314.3784     274.0284   -6.9557282    12.690982    40.350001     40.29176 
173244000     274.1076    335.30207    262.68533   -9.0909668    12.369337    72.616742    40.294841 
173248000    270.38221    297.89714    284.52042   -9.1387114    12.018965    13.376721    40.287059 
173252000    269.03913    300.84217    283.27637   -8.2333787    11.033903    17.565808     40.28293 
173256000    270.65465    306.42363    278.29547   -7.5621217    12.057631    28.128163    40.281324 
173260000     270.1572    298.84727    287.15514     -7.77389    12.264399    11.692132    40.279975 
173264000      278.501    324.62739    286.71393    -8.554658     11.69581    37.913466    40.278598 
173268000    272.81844    336.84067    282.08727   -8.1511788    11.747605      54.7534    40.276938 
173272000    280.10402    327.80053    302.34562   -8.0253404    10.954759     25.45491    40.277299 
173276000    270.28752    320.29791    270.80126   -8.6668241    12.049548    49.496649    40.270551 
173280000    275.16919     345.4945    268.63965   -8.9837653    11.905104    76.854848    40.273582 
173284000    266.75447    315.29835    266.51501   -7.8145325    11.863592     48.78334    40.271201 
173288000    281.94481    367.88404    291.15046    -10.29132    10.490544    76.733574    40.270482 
173292000    275.06595     306.5879    290.81043   -8.1188204    11.776919    15.777471    40.271822 
173296000    268.23616    308.37818    283.45724   -7.6670746    12.012882    24.920943    40.274572 
173300000    277.04708    314.52289    285.47456   -7.7942321    11.903972    29.048334    40.268923 
173304000    260.60378    292.22585    268.39708   -7.8886658    12.798072    23.828765    40.266081 
173308000    275.08898    334.67799    295.67189   -8.1697216    11.607541    39.006103    40.266488 
173312000    265.00467    309.31559    279.21777   -7.9336463    12.014947    30.097812    40.265385 
173316000    274.60243    325.50521    285.55813   -8.6187675    12.153105    39.947082    40.264099 
173320000     263.3621    319.36578    269.54726   -9.0252964    13.769696    49.818526     40.26471 
173324000    266.80516    306.92758    269.39412   -6.9994338    14.370386    37.533453    40.264754 
173328000    270.73691    324.58822    274.70823   -8.8232913    13.446693    49.879996    40.269606 
173332000      273.673    316.53816    296.86653   -8.7366062    11.675741    19.671623    40.270739 
173336000    274.80895    333.31783    274.14694   -9.2207647    13.179381    59.170899    40.264823 
173340000    269.50977    310.75287    265.60888   -8.3447675    12.901867    45.143988    40.262991 
173344000    267.25792    319.35469    275.42517   -8.3593573    13.024422    43.929516    40.261093 
173348000    265.41352    299.34466    280.83673   -7.9132396    12.954886    18.507934    40.260128 
173352000    267.38516    332.98511    252.41695   -8.5484656    13.192495    80.568164    40.264777 
173356000    280.61316     363.5192    255.37981   -10.517181    12.760895    108.13939    40.260647 
173360000    268.65427    318.05579    256.99151   -8.5510474     13.44094    61.064284    40.257751 
173364000     273.5644    331.53638    280.43436   -8.8180277    11.849951    51.102014    40.259282 
173368000    277.68128    319.68119     288.2811   -8.5964696    11.260136    31.400088    40.262391 
173372000    280.58082     324.1396    289.96111   -9.8127983    11.262839    34.178494    40.268081 
173376000    276.39789    318.01726    296.08663    -9.701017    10.344828    21.930628    40.270408 
173380000     276.2054    316.95543    276.19212    -9.363956    10.533863    40.763315    40.268825 
173384000    281.17753    316.82699    310.48186   -10.250162    9.2823853    6.3451312    40.267032 
173388000    274.20561     321.2126     298.6431   -9.0354567    9.7262456    22.569492    40.267282 
173392000    286.76904    350.26328    286.05945   -10.501925     10.82167    64.203832    40.270324 
173396000    279.16481    349.61387    287.01536   -11.042973    11.272838    62.598516    40.271439 
173400000    276.62337    311.75517    284.93066   -10.346331    10.827389    26.824509     40.27098 
173404000    287.74781    349.18838    311.03188   -11.119821    10.492562    38.156499    40.268151 
173408000    276.13711    328.27977    270.86317   -9.6664888    12.078777    57.416601     40.26685 
173412000     276.2132    300.37267     303.9639   -7.7161006    10.937618   -3.5912241    40.268839 
173416000    273.74219    296.07522    278.74876   -8.7486303    11.756315    17.326465    40.268466 
173420000    271.48031    329.77739    264.54448   -9.2494797    13.293786    65.232911    40.271876 
173424000    279.04522    322.96892    306.10297   -9.2754262    11.694444    16.865947    40.272269 
173428000     283.0261    346.00632    279.25919   -10.659327     11.02933     66.74713    40.265877 
173432000    268.22786    312.77537    263.34484    -9.718805    12.024722    49.430531    40.267012 
173436000     272.8055    328.46181    271.63623   -10.046512    11.540636    56.825583    40.263353 
173440000    274.25871     328.7887    282.76535   -9.6361414    11.124081     46.02335    40.264318 
173444000    276.96845    310.73813    301.32906   -7.9022072    9.7127849    9.4090668    40.262323 
173448000    278.32251    316.61144    285.12012   -9.3177791    11.788051    31.491314    40.265309 
173452000    271.52879    312.38327     278.9136   -8.8415173    11.845312    33.469673    40.260156 
173456000    277.65814    329.29992    284.31091   -9.1382226    11.542543    44.989006     40.26001 
173460000    275.91009     319.5762    287.82098   -8.6534766    10.296882    31.755222    40.254477 
173464000    264.95582    298.00307    265.32965     -7.50518    12.599368    32.673417    40.256937 
173468000    276.08183    332.10194    288.46395   -9.7707561    11.459465    43.637986    40.252893 
173472000     277.5751    326.88175    276.14243   -10.240458    11.553514    50.739315    40.253646 
173476000    273.90381    330.79584    274.32431   -9.2795158    12.313112     56.47153    40.255642 
173480000    275.67768    321.47798    282.66781      -9.7899    11.259723    38.810171    40.257846 
173484000    276.76551    333.87384    282.88276   -9.6771534    12.008977    50.991076    40.256735 
173488000    272.08241    310.31628    279.03766   -9.4765312    12.244022    31.278612    40.256847 
173492000     274.7561    341.47344     264.9256   -11.742073      14.0415    76.547844    40.260081 
173496000    278.56167    335.79858     270.3783   -9.7828706       12.608    65.420281    40.260853 
173500000    273.26875    322.79455    271.63309    -10.02005    11.637316     51.16146    40.261732 
173504000    277.81724    322.07482     284.8334   -10.091635    11.757832    37.241421    40.262401 
173508000    277.24231    303.26972    281.33548    -9.094532    12.098842    21.934239    40.261602 
173512000    276.83043    321.52284    277.18411   -10.087933    12.649507    44.338729    40.260951 
173516000    282.71291    317.59505    303.77999   -10.055847    11.219448    13.815069    40.260936 
173520000    274.45977    311.42214    294.21475   -9.7392107    11.962201    17.207389    40.257858 
173524000    280.02853    348.08282    286.41843   -11.540032    12.396941    61.664389    40.262686 
173528000    277.36539    332.72038    271.58997   -9.6824644    12.492073    61.130407    40.261089 
173532000    279.08655    331.70775    286.14535   -10.083746    11.877102    45.562402     40.26147 
173536000    276.24133    341.33841    261.94832   -11.425142    12.370979    79.390088    40.260344 
173540000    271.51466    318.22123    264.86913   -8.7785277    12.111363    53.352102    40.258079 
173544000    275.23807    312.65755    278.00063    -8.857309    11.787272    34.656913    40.258537 
173548000    286.90477    345.15942    296.30681   -10.625116    10.781291    48.852612    40.259261 
173552000    290.51511    325.77022    319.32739   -10.445453     10.93662    6.4428284    40.254295 
173556000    273.21647    318.22915    279.29823   -9.2882543    11.806495    38.930921    40.255131 
173560000    286.48842    343.86764    291.82727   -10.863665    13.214322     52.04037    40.258205 
173564000    274.05745    315.59157    294.14479   -10.824983     11.48761    21.446778    40.258145 
173568000    276.21581    312.85029    282.25628    -8.962889    11.974475    30.594013    40.257912 
173572000    273.00646    320.71695    279.39203   -9.1930717    11.713969     41.32492     40.25389 
173576000    274.91754    324.61967    276.95401   -8.9976007    12.212953    47.665659    40.250592 
173580000    286.17852    349.90295    298.09261   -11.553934     11.06677    51.810341    40.252797 
173584000    277.81321     317.8241    290.38669   -9.9785102    11.319121    27.437407     40.24967 
173588000    266.63271    288.70425    278.05251   -7.2452455    11.634569    10.651746    40.247447 
173592000    270.21608    309.05371    285.38345   -8.9781478    12.117472    23.670266    40.250786 
173596000    266.63456    317.98719    265.37617   -10.076153     12.88976    52.611015    40.252327 
173600000    279.85392    340.23691    275.56091   -9.7878262    12.348307    64.675994    40.254277 
173604000    274.34971    338.02832    267.32226   -10.160405    13.055445    70.706062    40.254816 
173608000    271.72915    329.25681    271.09479   -10.133665    12.947704    58.162026    40.252952 
173612000     280.1251    316.58081    290.13282   -9.7716568    11.784493    26.447994    40.253993 
173616000    276.97758     320.6277     283.0272   -8.4410256    11.677912    37.600501    40.250656 
173620000    260.35427    316.17329    255.65298   -8.7219207    12.838723    60.520309    40.252693 
173624000    274.51856    325.36896    276.14075   -9.3356611    11.900199    49.228215    40.253742 
173628000    270.04117    303.38023     281.6275   -8.8310238    12.124173    21.752734    40.255473 
173632000    283.40949    321.01123    283.55548   -10.053995    11.271687    37.455754    40.255398 
173636000    280.88685    349.23863    278.46586   -10.634771    12.345762    70.772775    40.254537 
173640000    269.09414    306.69546    280.73676   -9.7461956    10.983134    25.958693     40.25174 
173644000    284.61385    330.83268      290.779   -11.050476    11.304731    40.053681    40.251556 
173648000    282.39069    346.11872     299.3849   -11.134531    11.425524    46.733824    40.249174 
173652000    268.17058    308.23155    270.34128   -9.8629599    11.589652     37.89027    40.247456 
173656000    287.04889    330.70664    274.42117   -9.8766164    11.782901    56.285476    40.253185 
173660000    264.33481    307.15944     261.2375   -8.5937833    13.133739    45.921946    40.250721 
173664000    277.14071    314.43966    290.54732   -9.5438038    10.742244    23.892339     40.25129 
173668000    267.54499    314.52581    279.58656   -9.9714643    12.035355    34.939245    40.252085 
173672000     274.8944    308.66143    302.02427   -9.3099087    12.440119     6.637161    40.252239 
173676000    274.30918    323.56335    268.77345   -11.413014     12.69525      54.7899    40.252043 
173680000    275.62323    313.87421    291.58861   -9.6064857    11.236381    22.285603    40.255285 
173684000     274.2072    315.79128    261.67149   -10.378107    12.282618    54.119782    40.255494 
173688000    274.64793    307.78806    296.56851   -9.5363256    10.948655    11.219557    40.254111 
173692000    280.77587    316.25515    291.80075   -10.351449    12.255158    24.454405    40.257233 
173696000    271.42718    325.28769    275.15894   -9.5064566    12.237338    50.128752    40.255515 
173700000    272.55627    324.93514    261.21408   -8.9963557    14.298658    63.721058    40.259039 
173704000    286.42136    341.51568    301.54278   -11.383522    12.169066    39.972896    40.255557 
173708000    275.14033    344.37399    289.56409   -12.194002    11.639182    54.809905    40.254322 
173712000    265.38562    318.25672    254.26329   -9.5692393    14.921851    63.993433     40.25329 
173716000    271.28315    320.89196    283.42749   -10.367872    13.098325    37.464476    40.256686 
173720000     264.5274    331.41476    257.57671   -10.727519    14.297169    73.838046    40.257821 
173724000    276.38365    341.67607     290.2285   -10.328906     13.70568    51.447572    40.260732 
173728000    272.69561    316.99906    296.10219   -9.7281998    13.767899    20.896873     40.26462 
173732000    264.95829    323.30131     280.2148   -9.4961985    14.833125    43.086502    40.265911 
173736000    266.07304    309.33668    262.20811   -9.3691274     14.87569    47.128564    40.265477 
173740000    268.24531    321.65386    279.85097    -9.373722    13.888567    41.802884    40.267839 
173744000     267.3715    323.20607    282.19432   -9.2776356    13.810575    41.011746     40.26697 
173748000    269.82782     301.5909    285.74074   -8.3732853    13.901204    15.850162     40.26508 
173752000    280.95265    335.97773    282.63002   -10.922597    13.968381    53.347705    40.270543 
173756000    278.69184    328.49046    298.61704   -9.5312164     13.80214    29.873421    40.272184 
173760000    277.05312     334.0378    273.80335   -8.3828375    13.995749    60.234447    40.270826 
173764000    269.77703    308.83048    272.54963   -7.9150643    13.199371    36.280842    40.272129 
173768000    262.36836    307.86152    266.25303   -8.2794416    14.092501    41.608497     40.27057 
173772000    273.90874    323.25286    279.55964    -9.443878     12.63174    43.693218    40.269766 
173776000    274.68345    342.99247    266.39092    -10.21659    12.997261    76.601551    40.271789 
173780000    274.21595    317.77866    285.49762   -9.1509679    11.711575    32.281039    40.269174 
173784000      278.565    337.25673    288.27377    -9.480776     12.36188    48.982967    40.270375 
173788000    278.54839    334.80524    285.95784   -8.7404534    12.578338    48.847401    40.270817 
173792000    263.69955    312.81475    263.06776   -8.5129904    13.017587    49.746985    40.276008 
173796000    270.33769    331.47862    268.05235   -9.7501167    14.114013    63.426271    40.275533 
173800000    273.09501    313.10058     286.0983   -9.5913131     11.69705    27.002277    40.278411 
173804000    269.46148    310.19512    277.41477   -8.6179845    13.041747     32.78035    40.276665 
173808000    280.34589    354.95656    277.97878   -10.493846    13.426431    76.977782    40.277707 
173812000    283.57142    321.41854    301.01873   -9.3278847    11.058341    20.399805    40.276105 
173816000    276.74091    347.65192    271.04068   -9.1953044    12.796639    76.611232    40.276205 
173820000    278.94294    355.92547     266.7674   -10.220161    12.830321    89.158077    40.277469 
173824000    272.01362    302.03153    292.06323   -8.3680972    10.571488    9.9683032    40.277364 
173828000    270.76679    321.79044    269.04091   -10.132262    12.087897    52.749527    40.273244 
173832000     275.4884    329.93238    279.84127   -9.1339847    12.277279    50.091113    40.267733 
173836000    268.84152    312.04822    268.95815   -8.7720101    13.538499    43.090069    40.267855 
173840000    270.24533    329.47832    277.71126   -8.6600536    13.437949    51.767052    40.264589 
173844000    269.39478    316.70616     269.0125   -9.1075097      14.1775    47.693657     40.26626 
173848000    267.10787    307.08301    268.53235   -8.3583552    13.833803     38.55067    40.268409 
173852000    270.68218    319.25457     284.1666   -8.7669767    13.282199    35.087972    40.268045 
173856000    269.59338      321.668    288.31281   -8.5469685    12.730517    33.355185    40.265236 
173860000    266.03105    311.54317    270.77559   -8.4870148    13.932258    40.767578    40.260568 
173864000    272.22917    310.59946    280.03186   -8.2726464    12.272638    30.567596     40.26133 
173868000    268.06772    296.80299    271.69089   -7.4392743    13.277908    25.112105    40.260646 
173872000    271.53944    338.15308    266.91639   -9.5852282    14.266258    71.236685    40.258804 
173876000    274.90735    321.63706    276.66682   -8.5153461    13.107225    44.970245    40.256867 
173880000    269.09783    300.86018    280.90756   -7.7493604    13.849191    19.952617    40.252543 
173884000    264.90268    291.41818    286.07845   -8.6138969    13.114489     5.339728    40.252805 
173888000    276.34359    319.38645    295.09658    -8.302038    12.199429    24.289868    40.252192 
173892000    270.59183    306.58873    284.37326   -8.2742718    13.148878    22.215472    40.254237 
173896000    277.83913    312.90668    291.64836   -10.327934    12.388689    21.258318    40.252842 
173900000    271.95018    307.31728    279.45374   -8.2575068    13.323883    27.863539    40.252453 
173904000    278.76901    339.70018    271.98043   -10.457197    12.612888    67.719753    40.251246 
173908000    281.02505    346.11412    278.90671   -11.052323     12.79416    67.207407     40.24439 
173912000    277.32738    334.15927    277.80637   -10.375545    12.160656    56.352903    40.248528 
173916000     274.5062    337.00898    265.42208   -10.515989    12.101026      71.5869    40.248049 
173920000    277.14553    321.69089    285.93848   -9.6885783     12.33787    35.752415      40.2467 
173924000    280.14191    335.10015    287.09335   -10.255613    11.479608      48.0068    40.247813 
173928000    274.03239     340.3943    266.02089   -10.747244    13.237739    74.373412    40.248141 
173932000    275.00674     320.5575    284.35664   -9.7371433    13.011146    36.200858    40.252227 
173936000    279.08473    309.48976    291.06903   -9.7388718    12.003055    18.420739    40.249342 
173940000    271.15967    311.75336    280.59486   -9.2402414    13.039711    31.158503     40.24983 
173944000    274.89667    326.27022    298.73698   -11.059302     12.27343     27.53324    40.248789 
173948000    269.76201      324.386    256.05575     -10.3046    13.882674     68.33025    40.244846 
173952000    274.11135    316.98714    283.92258   -8.2119262    12.701958     33.06456    40.245327 
173956000    275.33927    321.14507    282.46296   -9.0242955    13.504074    38.682104    40.245299 
173960000    274.73963    323.76617    279.40792    -8.926977    12.255282     44.35825    40.243529 
173964000    275.77516    326.79711    278.86942   -8.1452434    12.757247     47.92769    40.246577 
173968000    267.10174    312.73128    285.05945    -10.42287    12.924234    27.671826    40.248154 
173972000    267.41607    328.38043    254.34401   -10.399703    13.376644    74.036418    40.245281 
173976000    271.37147    309.33351    287.94566    -9.426068    13.269987    21.387859    40.244243 
173980000    270.79285    328.07209    276.86358   -9.2547584    13.677128    51.208508    40.248373 
173984000    268.25119     319.7396    273.19061   -9.5983904    13.258776    46.548992    40.251875 
173988000    272.08857    319.59356    277.18748   -9.5888736    13.226939    42.406083    40.252941 
173992000     269.7694    315.64855    262.85823   -9.1885589    12.633917     52.79032    40.253872 
173996000     277.3542    319.68628    290.39869   -10.031281     11.97101    29.287584    40.251973 
174000000      276.819    351.62001    249.00084   -11.187715    14.088983    102.61916    40.255179 
174004000    275.87567    328.32597    285.45567   -8.9527544    12.584308    42.870294    40.255011 
174008000    269.19922     300.7233    277.04651   -8.5081209    13.617787    23.676792    40.256043 
174012000    274.68885    329.41701    265.36931   -10.801559    13.769768    64.047705    40.258935 
174016000    274.89752    306.35718    298.78512   -10.009065    12.623854    7.5720605     40.25785 
174020000    267.85439    304.31052    272.59105   -8.7353195    13.559158    31.719472    40.255403 
174024000    276.47402     337.7437    274.03474   -9.7875391    13.389495    63.708954    40.257461 
174028000    280.76768    323.13928    292.14723     -10.4355    13.171824    30.992046    40.258052 
174032000    274.96019    327.90509    275.56345   -10.406346    13.265011    52.341647    40.259764 
174036000    272.78025    310.76526    274.45233   -10.355796    13.297762    36.312932    40.262951 
174040000    282.32688    339.91805    281.17595   -11.636063    12.599639    58.742093     40.26779 
174044000    273.96296    337.23662    286.87375   -11.545138    12.471894    50.362872    40.268473 
174048000    274.68662    329.45028    283.88177   -10.452705    12.776513    45.568507    40.269684 
174052000    273.06651    301.75144    270.70141   -8.5163386    12.537199    31.050025     40.26945 
174056000    260.41173    307.73676    256.12328   -8.6581125    13.840175    51.613488    40.270624 
174060000    272.46415    344.18382    287.80322   -10.308215    12.137718    56.380595    40.268492 
174064000    264.16188    331.83361    267.83304   -9.4754747    14.421079    64.000571    40.269802 
174068000    275.38611    333.80176    287.10258   -9.7687299    13.790367    46.699175    40.266912 
174072000    273.90765    333.96449    285.34232   -9.4452522    12.162397    48.622172    40.265933 
174076000    261.56098    304.35913    262.75349   -7.4615544    14.173534    41.605643    40.269602 
174080000    265.79427    324.96067    261.70937   -9.0285869     13.91061    63.251306    40.270032 
174084000     271.5367    313.86836    272.79023   -8.6209655    13.965013    41.078128    40.273437 
174088000    270.43696    332.34221    268.94317   -8.6142329    15.599913    63.399038    40.273282 
174092000    265.65957    322.03174    260.87276   -9.4372178    15.028042    61.158983    40.271299 
174096000    273.50209    332.75428    282.08145   -9.4629656    13.986218    50.672836     40.27119 
174100000     279.6731    345.76954    286.27822   -9.7309721    13.526447    59.491325    40.272409 
174104000    267.38372    327.09298    276.68205    -8.998726    14.273122    50.410926    40.274827 
174108000    266.81243    326.31127    273.66509   -8.3177165    14.331134    52.646179    40.271635 
174112000    266.10528    306.10019    283.84451   -8.7265265    14.467206     22.25568    40.271244 
174116000    268.77017    308.18435    301.37514   -8.3896344    13.727502     6.809215    40.267582 
174120000    258.87639    307.43128    259.67201   -8.6276688    16.047031     47.75927    40.266883 
174124000    270.67594     316.3456     297.4962   -9.3344928    13.172284    18.849403    40.265236 
174128000    267.53528    332.94134    288.40333   -8.6583697     14.25285    44.538008    40.264382 
174132000    270.97823    338.28514    264.55116   -7.9469715    14.563634    73.733972    40.264317 
174136000    273.15335    320.99032    287.71567   -7.8047094    13.323696    33.274647    40.264161 
174140000    267.14071    310.46995    285.09668    -8.250076    14.211115    25.373267     40.26304 
174144000    259.87711    311.13999     266.3832   -7.6337515    14.185652    44.756799    40.263911 
174148000    270.49481    323.23628    294.31796   -8.8507997    12.501156    28.918318    40.262762 
174152000    267.80456    312.24417    271.77492   -7.7022287    15.137651    40.469243    40.265628 
174156000    268.47492    350.29266    275.01545   -10.238613    14.009338    75.277209    40.264433 
174160000     273.2405    340.35955    279.12885   -10.556081    13.334548    61.230696    40.263612 
174164000    264.26244    301.07595    273.67904   -7.0506499      14.0896    27.396905    40.261881 
174168000    266.10799    293.50702    287.73969   -8.4077841    12.265725    5.7673369    40.260466 
174172000     270.2215     309.7409    292.54837   -9.4789517    13.786813     17.19253    40.260553 
174176000    287.42878    339.14147    303.43972   -10.360924    12.320684    35.701752    40.260536 
174180000    272.97617    324.24604    278.53334   -8.9123976    13.582494    45.712697    40.258985 
174184000     273.6663    312.15192    308.07756     -9.30834    12.306812    4.0743605    40.256666 
174188000    270.88009    329.90254    268.02251   -9.8338822    14.200688    61.880027    40.259512 
174192000      277.021    322.31916    285.84481   -11.042276    13.509438    36.474354    40.260983 
174196000    277.84272    330.33894    286.47794   -9.6259532    13.214342    43.860997    40.264855 
174200000     278.7759    326.85133    286.72767   -8.6100527    13.088025    40.123656    40.262681 
174204000     267.4879    320.80715     269.8595   -8.8118824     14.30345    50.947644    40.262199 
174208000    263.05362    319.44244    247.67815   -9.2078979    14.771057    71.764296    40.261861 
174212000    256.74981    296.14916    264.99272   -7.9453219    14.911582    31.156443     40.26419 
174216000    266.36988    291.62856    288.51703   -7.6221293    13.394947     3.111536    40.260456 
174220000    277.51104    339.59491    296.99515   -9.8210788     12.44665    42.599759    40.264089 
174224000     268.8918    319.55412    285.14909   -9.4197664     12.78945     34.40503     40.26064 
174228000    271.74067    325.77588    297.38027   -9.6450423    12.666353    28.395607    40.258461 
174232000    271.41143    341.37241    278.02968   -10.178406    13.876905    63.342726    40.258109 
174236000    263.71363    317.78045    267.47278   -9.5786348    14.584719    50.307663    40.259062 
174240000    272.02157    313.44912    288.97941   -9.5967706    12.608779    24.469717    40.257448 
174244000    272.02167    306.10893     285.3046   -8.7971181    12.691767    20.804323    40.257672 
174248000     266.2621    319.96027    288.55676   -8.4159537    12.497856    31.403507    40.254077 
174252000    265.32439    308.83767    264.89316   -8.6707584     12.37537    43.944504    40.257715 
174256000     268.9918    312.23407    284.75838   -7.7777541    12.382806    27.475691    40.260087 
174260000    276.52971    322.23921    294.30767     -10.4413    11.508474    27.931543    40.259057 
174264000    280.97357    341.42972    293.77048   -10.015435    13.191047    47.659239    40.257579 
174268000    275.91494    307.02721    277.20005     -9.44376    13.109367    29.827152    40.259438 
174272000    262.03301    295.26633    270.39804   -9.6170453    13.378861     24.86829    40.259365 
174276000    269.83909    320.61852    275.47977   -9.7914853    13.698371    45.138752    40.266545 
174280000    270.54604    310.21149    287.15839   -8.4380008    12.776725    23.053104    40.267053 
174284000    271.49705     309.1222    290.65639   -9.1946284     12.61263    18.465812    40.265882 
174288000    266.85881    315.98559    261.71043   -9.8349615    13.788797    54.275155    40.264962 
174292000    271.39498    318.67684    286.28431   -9.9425992    11.233925    32.392522    40.260199 
174296000    280.20526    337.17026    290.99166   -11.088482    12.272534    46.178602    40.260767 
174300000    280.75948    350.70594    282.58138   -11.466599    12.529197    68.124551    40.261883 
174304000    267.64044    297.09295    270.38026   -9.2262663    13.772341    26.712699    40.261437 
174308000    274.54304     303.3154    281.89839   -10.375297     13.07652    21.417011    40.260543 
174312000    276.33169    304.74064    298.03931   -9.2486251    12.013631    6.7013299    40.261518 
174316000    277.51825    311.58898    281.94465    -9.522122     12.65944    29.644331    40.258756 
174320000    279.35195      334.944    276.70599   -10.426728    11.828601    58.238008    40.259899 
174324000    269.83977    308.15738    270.83081   -9.0016312    11.860981    37.326569    40.257274 
174328000    284.41195    341.03724    301.09791   -10.869291    11.111736    39.939333    40.258323 
174332000    275.16189    338.68083    263.40814   -10.983716    12.875801    75.272692    40.255927 
174336000    281.35666    315.18249    308.01725   -9.4893757    11.887294    7.1652353    40.253952 
174340000    267.47705    322.39627    279.22697   -9.1635728    12.650263    43.169298    40.254579 
174344000     262.8236     305.4354    272.29824   -9.1241256     13.52958    33.137161    40.254392 
174348000    268.19906    297.79904    280.73959   -7.5527596    12.945726    17.059455    40.257178 
174352000    270.43685    310.98769    277.36413   -8.1589575    13.674381    33.623559    40.258466 
174356000    274.68729     337.9779    278.22087   -10.623482      13.0297    59.757021    40.260065 
174360000    281.12577    331.39343      284.103   -8.8723865    12.517654    47.290431    40.261926 
174364000    271.67242    324.94972    270.05631    -8.293687    13.616531     54.89341    40.259064 
174368000    263.05615    304.35269    275.38368   -7.7495924     13.08886    28.969005    40.259612 
174372000    271.77017    311.70638    278.52206   -10.219523    14.230241    33.184318    40.259136 
174376000    264.38033    302.53353    257.03195   -8.5787183    13.820629    45.501588    40.263472 
174380000    282.60627    334.04776    308.62948   -10.533773     10.14411    25.418277    40.264281 
174384000    268.75263     306.1741    266.24958   -8.4619529    12.841144    39.924523    40.264793 
174388000    274.70643    331.07776     266.2522   -10.459089    13.475144    64.825555    40.264293 
174392000     263.6552    304.93847    257.99545   -8.9025137    14.063194    46.943012    40.263965 
174396000    279.32092    327.15765    284.95535   -9.8413067    13.157678    42.202307    40.262709 
174400000    272.32429    327.69497    293.67869   -10.653151    12.455222     34.01628    40.263573 
174404000    269.32749    325.40015    276.13082    -10.12165    12.758847    49.269334    40.266444 
174408000    275.11137    324.42311    264.35533   -10.186358    13.772621    60.067786    40.267131 
174412000    271.24055    318.49327    274.84971   -9.1490188    14.395935    43.643564    40.265305 
174416000    274.79749    329.14886    279.84266   -10.460089     13.63055    49.306199    40.268203 
174420000    267.06478    330.65639    268.60215   -11.222001    13.067479    62.054235      40.2681 
174424000    272.42278    319.21696    278.24511    -9.340068    12.565765     40.97185    40.269802 
174428000    277.74289    329.58124    263.69864   -9.3828455    13.196766    65.882607    40.269703 
174432000    275.29512    325.49904     290.4075   -8.8753521    12.087883    35.091534     40.26728 
174436000    261.81021    297.24652    276.45087   -7.1599608    12.369567    20.795651    40.262785 
174440000    275.61478    313.62653    271.52176   -8.2041337    11.799339    42.104765    40.262549 
174444000     278.5276    332.32449    286.02127   -10.756198    11.449329    46.303211    40.262294 
174448000    270.77174    312.07535    271.46691   -7.9791209    12.529394    40.608436    40.259094 
174452000    267.49791    315.19675    274.93134    -8.692518    13.576231    40.265416     40.25684 
174456000    259.13203     296.4131    256.48731   -8.2926769    13.150318    39.925785    40.257199 
174460000    262.62399    301.13552    273.32065   -8.7489192    12.174971    27.814875    40.256483 
174464000    277.16519     328.9153     277.1492   -9.1967628    13.187414      51.7661    40.258976 
174468000    262.17568    289.77755    277.38087    -7.423363    13.127692    12.396682    40.261432 
174472000    267.43718    298.84166    284.55883   -7.2492123    12.529985     14.28283    40.260204 
174476000    272.95221     332.8536    289.81523   -9.4557352    11.753324    43.038374    40.260014 
174480000    274.79735    322.22279    289.25644   -8.2613038    12.532789    32.966349     40.25899 
174484000    283.03517     332.7498    292.99693   -9.9071928    13.044447    39.752861    40.257284 
174488000    273.96913    308.75207    285.78413   -8.7728854    13.397657    22.967938    40.256867 
174492000    273.76075    327.81313    281.92904   -8.5588269    14.062173    45.884085    40.256656 
174496000    269.48169    323.94056    266.90128   -8.7665267    13.488782     57.03928    40.255456 
174500000    263.15524    321.24701    266.93604   -7.9908615    12.728601    54.310968    40.255036 
174504000    269.42993    315.39847    274.86156   -8.2747602    12.490231    40.536909    40.255581 
174508000    267.41336    308.88599     263.3292    -8.294195    13.460398     45.55679    40.252137 
174512000    270.97808    323.49871    268.86601   -9.0931571    13.222553    54.632705    40.249898 
174516000    279.15279    350.33321    283.19868   -10.813221    11.877047    67.134532    40.251945 
174520000    274.73636    319.88963    292.97023   -8.7611309    11.647146    26.919405    40.247779 
174524000    258.10683    288.90747    261.54059   -7.7552375    13.722749     27.36688    40.252484 
174528000    285.51586      342.698    284.34647   -9.6317991    11.680886    58.351537    40.253398 
174532000    267.54704    342.36388    250.74879   -9.7898719    12.783826    91.615091    40.254411 
174536000    270.20857    324.66307    281.55858    -8.832109    11.971954    43.104489    40.255748 
174540000    270.00574    310.25606    282.41326   -8.2149929     11.10896    27.842801    40.255419 
174544000    284.07123    360.23197     272.1818   -10.651817    12.752774    88.050179    40.256538 
174548000    271.21177    332.54758    268.23787   -10.132733     12.91184    64.309709    40.260014 
174552000    279.38462    345.48389    295.53085   -10.683854    13.379775    49.953038    40.263898 
174556000    272.07539    313.46046    311.59922   -8.7277107    12.169115     1.861247    40.266239 
174560000    263.77536     341.7735    257.19835   -8.3743717    15.025415    84.575145    40.268439 
174564000    262.94942    316.49059    264.96297   -8.3557435    14.902693     51.52762    40.266281 
174568000    265.93499    311.86257    278.42104   -9.0319191    14.117911    33.441528    40.268121 
174572000     272.4501    327.94307    284.05705   -10.021501    13.525297    43.886021    40.267752 
174576000     272.0693    311.95349    308.38187   -8.6844566    13.017936    3.5716211    40.267982 
174580000    277.18098    345.93077    276.61549   -9.5249757    13.908721    69.315275    40.267892 
174584000    264.25982    325.01636    247.74351   -9.0251294    14.896102    77.272846    40.270759 
174588000    260.87801    315.63568    282.61058   -7.5784945     12.47078    33.025097    40.271573 
174592000    271.50283    317.90045    291.20775   -8.0796917    12.450114    26.692704    40.270927 
174596000      275.792    345.50251    276.23503   -8.1209168    13.050256    69.267475    40.271273 
174600000    283.10678    350.91409    300.26952    -10.19794    11.486667    50.644577    40.272499 
174604000    272.48312    328.39934    266.68848   -9.4480426    13.910706    61.710855    40.272192 
174608000    266.99101    311.52062    276.18376   -7.3600339     11.36004    35.336864    40.274413 
174612000    272.80725    329.05224    295.86301   -7.6748775    11.578136    33.189226    40.269198 
174616000    277.28039    319.08256    282.41986   -7.7476087    12.579791    36.662705    40.269725 
174620000    272.24272    327.37417    281.49424   -8.4756103    13.653244    45.879932    40.267455 
174624000    270.73113    296.64046    293.18053    -5.738741    12.121954    3.4599359    40.265761 
174628000    270.06342    312.30545    289.67969   -7.7412594    12.627116    22.625759     40.26521 
174632000    278.17924    336.03881    283.24822   -9.9229269    12.710982    52.790595    40.267285 
174636000    271.85041    311.89216     283.4878   -7.3834005    12.642152    28.404368    40.269392 
174640000    265.29476     308.2693    258.03229   -8.6418975    12.310887    50.237008    40.271325 
174644000    265.74427    318.71364    267.78287   -8.2526548    12.239754     50.93077    40.271982 
174648000    275.54718    338.65911    282.75693   -10.455728    11.816516    55.902182    40.271795 
174652000    274.06161    302.40924    300.63387   -7.4207968    10.489833    1.7753677    40.267337 
174656000    276.99724    343.75123     280.3858   -10.744983    11.800629    63.365426    40.271052 
174660000    275.35598    330.24561    296.65491   -9.0078301    10.979038    33.590702     40.26795 
174664000    270.31144    294.24071    304.96067   -6.3417804     10.51819   -10.719964     40.26878 
174668000    265.91373    312.64643    277.34915   -8.4052202     12.50547    35.297283    40.267758 
174672000    281.77408    360.69377    282.06074   -10.804428    13.648596    78.633036    40.266494 
174676000    271.93672    304.23841    287.82777   -9.0857574    12.270629    16.410643    40.264338 
174680000    280.08451    325.71527    301.12787   -9.7000797    12.449824    24.587402    40.265852 
174684000    280.80493    317.57104    297.27883   -8.7455962    11.431655     20.29221    40.262907 
174688000    277.26891    339.64232    272.10914   -10.146223    12.812472    67.533183    40.264401 
174692000    274.27967    313.42141    296.62656   -8.3583117    13.072622    16.794857    40.263071 
174696000    276.14707     320.9819    283.50007   -9.0604093    11.475666    37.481837    40.268132 
174700000    266.79586    303.63744    286.54047   -8.5308489    11.766331    17.096968    40.268671 
174704000    271.96165    295.16773    295.53465   -8.2489075    10.985287  -0.36692289    40.263857 
174708000    272.50298    309.26304    274.87196   -8.6487189    12.471629    34.391075    40.264019 
174712000    271.08334    329.29556    269.25745   -8.8159697    12.362465    60.038114    40.265392 
174716000    271.88201    303.26379    289.43004   -7.7410066    11.750639    13.833757    40.265155 
174720000    274.89298    317.22683    270.98374   -9.7144727    13.733368    46.243096    40.266031 
174724000    274.48919    340.71684    269.18354   -9.7571954    14.166268    71.533299    40.266004 
174728000    273.58748    318.57016    281.13867   -9.3742093      12.3364    37.431496    40.268014 
174732000    281.83645    315.19938    305.48793   -8.2315678     10.44212    9.7114453     40.26808 
174736000    280.10987    339.90694    280.34837   -10.571071     12.94852    59.558575     40.26705 
174740000     279.0665    338.16485    274.85442   -9.9101918    12.461869    63.310433    40.269376 
174744000    274.64695    341.98705    280.55109   -10.159155    12.629044    61.435956    40.269518 
174748000     271.1125    333.01075    260.92174   -8.7087356     13.28611    72.089011    40.273619 
174752000    265.05914    317.21869      277.259   -8.5440267    13.877088    39.959687    40.273098 
174756000    272.91877    310.93182    294.53523   -8.5050102    12.029196     16.39659    40.276484 
174760000    267.53615    309.66873    278.64729    -8.274481    12.734958     31.02144    40.279672 
174764000    272.66735    321.51846    286.25209   -8.9395029    13.900267    35.266367    40.282858 
174768000    283.63434    335.35689    302.07664   -10.271019    12.062847     33.28025    40.283326 
174772000    276.37303    316.10587    299.64292   -9.7379988    11.874985    16.462946    40.282997 
174776000    270.44707     321.7535    276.98619   -9.9336977     11.13479    44.767305    40.281123 
174780000    274.35172    320.65648    289.44937   -9.7537539    11.348049    31.207108    40.279539 
174784000    268.01008      324.338    268.33122   -9.6513239    12.938094    56.006789    40.275321 
174788000     277.7943    322.56078    285.33934   -9.4176062    11.914799    37.221432    40.272282 
174792000    277.52492    320.21021    278.06381    -9.318936    12.169143      42.1464     40.27438 
174796000    276.75045    339.20806    274.95562   -11.205482     12.19408    64.252439    40.275296 
174800000    258.55861    285.55974    265.89235   -7.1162121     12.14793    19.667387    40.275822 
174804000    269.34824    323.56809    261.05486   -9.2216548    12.551352    62.513232    40.275887 
174808000     280.3397    324.92303    288.28425    -10.12108    11.620415    36.638774    40.275652 
174812000    274.18526    333.20513    276.27703    -9.573725     12.46979    56.928098    40.275399 
174816000    281.91511    341.72911    288.22412     -9.95208    11.948312    53.504985    40.274469 
174820000    283.69359    345.97695    304.74405   -11.199494    11.793578    41.232902    40.272645 
174824000    271.81002    326.15963    279.32333    -9.871398    12.320592      46.8363    40.272011 
174828000    268.82018    332.35744     270.2442   -9.6162896    13.633876    62.113235    40.271496 
174832000    262.62878    304.85214    266.40254   -7.8089699    12.682202    38.449607    40.271534 
174836000     272.5092    320.27725    290.13421   -9.9510796    12.205074    30.143047    40.270207 
174840000     276.1586    342.16801    267.83031   -10.102549    13.284242    74.337697    40.273274 
174844000    275.34332    308.74334    307.89786   -8.7449888    10.705712   0.84548402    40.272173 
174848000    273.27291    338.91908    268.19331   -9.4045063      12.9487    70.725776    40.272239 
174852000    282.48122    335.29151    281.46618   -8.9551434    12.130059     53.82533    40.275281 
174856000    275.74532     348.1365    261.55886   -9.5609578    13.270457    86.577639    40.277542 
174860000    279.75272    298.93012    318.81781   -8.3309693    10.033928   -19.887693    40.274751 
174864000    261.71915     296.7539    261.39115   -8.5737703        12.29    35.362747    40.272604 
174868000    276.18789    324.45741    296.68813   -9.1908439    11.004853    27.769275    40.273237 
174872000    275.85816    336.32622    259.36967   -11.056015    14.091919    76.956549    40.271064 
174876000    272.85621     327.3349    270.90513   -11.080912    12.309492    56.429763    40.271655 
174880000    272.20603    335.65873     274.3966   -10.260225    12.358021    61.262126     40.27042 
174884000    267.90365     313.4622    270.32234   -9.2276832    12.612265    43.139867     40.27104 
174888000    273.02081    319.95989    291.36726   -9.5491865    11.024863    28.592635    40.271504 
174892000    270.20655    308.79041    273.42859   -8.5735968    12.108035    35.361816      40.2748 
174896000    276.05991    310.84167    285.95416   -10.653756    11.734077     24.88751    40.276272 
174900000    267.68858    292.99749    291.07947   -7.8840002    9.7195668    1.9180269    40.274399 
174904000    284.45893    332.38703    324.92277   -10.317314    10.617896    7.4642635    40.275634 
174908000    269.12929    318.75073    269.86086    -9.382367    13.126273    48.889872    40.273994 
174912000     277.5508    326.70075    273.40528   -9.4529377    12.203562    53.295466    40.274934 
174916000    277.98165     324.0687    276.20269   -9.4597652    12.437666    47.866011    40.276641 
174920000    268.45984    310.63008    258.77329   -10.279049      13.5616    51.856797    40.279146 
174924000    270.74797    307.90877    278.82008   -9.0072816     13.01306    29.088695    40.278339 
174928000    268.46092    316.57482    272.48536   -9.5035379    12.767512    44.089463    40.278735 
174932000    271.22626    293.78883    273.35932    -8.873172    13.535559    20.429512    40.279088 
174936000    272.17698    325.76311    274.35076   -10.773074    13.290281    51.412352    40.281995 
174940000    272.72142    310.90856      262.156   -9.2968645    14.082337    48.752553    40.281409 
174944000    278.21197    326.54427     287.1382   -10.067533    11.989181    39.406068    40.284879 
174948000    272.00161    302.86449    278.94356   -11.361917    12.607428    23.920926    40.284833 
174952000    280.67458    327.97751    286.05221   -11.718295    12.255984    41.925298    40.285458 
174956000    280.07931    327.83102     306.1317   -10.136473    10.730633    21.699323    40.286688 
174960000    274.04245     317.2586    279.55683   -9.7338631    12.420368    37.701769    40.284521 
174964000    279.31169     328.9831    295.26076   -9.7144687    11.368602    33.722341     40.28092 
174968000    277.06052    329.43365    280.33449   -10.750209    12.170536    49.099165     40.28326 
174972000    273.09283    311.97409    293.97361   -8.7044928    11.964143    18.000478    40.286319 
174976000    275.99082    315.47531    293.40738   -9.2074878    12.690665    22.067923    40.287598 
174980000    272.45184    312.77008    293.13574   -8.6717634    12.362977    19.634338    40.286147 
174984000    273.75487     307.1494    300.02042   -8.6640015    11.474139    7.1289713    40.284158 
174988000    265.07659    337.08798    239.03491   -10.512444    13.192744    98.053069    40.284942 
174992000    271.59475    323.15938    283.22306   -10.249745    13.130374     39.93632    40.286593 
174996000    279.34852    316.83053    305.31715   -10.000699    10.757791    11.513375    40.284539 
175000000    278.73957    347.44628    285.27978   -10.692557    12.106372    62.166497    40.282306 
175004000    272.96649    317.22217    286.58209   -8.2873994    12.062414    30.640084    40.284951 
175008000    282.27871       335.89    275.05891   -10.429794    12.356276    60.831091    40.284727 
175012000    267.20204    306.39963    279.41691    -8.313544    12.370666    26.982714    40.283905 
175016000    279.37031    326.46644    280.40899   -9.3699887    12.709149    46.057451    40.284057 
175020000    269.28983    306.48703    274.01601   -8.4339249    12.847509    32.471017     40.27916 
175024000     279.8802    321.86004    293.67875   -9.3989827    11.096808     28.18129    40.280551 
175028000    272.14241    317.62523    268.54028   -8.4516425    13.943778    49.084949    40.278341 
175032000     281.8458    327.72906    274.18896   -10.336655    13.206988    53.540109    40.280307 
175036000    279.49648    330.04058    284.36577   -10.497029    11.527451    45.674811    40.277874 
175040000    276.72199    329.36861    271.80378   -11.089337    13.226292    57.564836    40.280581 
175044000    282.78275    333.79148    294.44278   -12.440638    12.480602    39.348701    40.281315 
175048000    281.61683    319.30809    279.62094   -10.313221    13.497589    39.687152    40.280787 
175052000    275.25025    338.59591     277.0374   -12.176144    13.189245     61.55851    40.278493 
175056000    285.32293     337.4116    284.70948      -11.458    12.809036     52.70212    40.278317 
175060000    276.05535    323.96898    272.80046   -11.744133    13.971266    51.168519    40.280967 
175064000    275.49097     315.8783    272.88467   -11.071105    13.404456    42.993631    40.282352 
175068000    280.22449    326.07974     284.4823   -11.524446    12.084187    41.597435    40.284387 
175072000     280.9007    324.87037    275.59845   -11.157907    12.608803    49.271923    40.285846 
175076000    272.16992    307.40364    279.93983   -10.350349    12.219877    27.463804    40.286559 
175080000    272.85797    316.27619    273.85263   -10.273236    12.806712    42.423565    40.285723 
175084000    278.60962    312.89318    279.35652   -10.033822    12.774696    33.536663    40.283798 
175088000    278.97623    314.10864    288.01761   -9.7478469    12.989636    26.091036    40.281662 
175092000    266.19886     304.6661    278.03325   -9.9127568    12.734086    26.632853    40.282299 
175096000    265.55154    287.44269    272.80409   -9.7198921    13.287672    14.638603    40.284422 
175100000    289.17648     339.7572    298.64412   -11.796941    13.013673     41.11308    40.285879 
175104000    278.85008    344.47713    284.30246    -11.36985     13.13763    60.174664     40.29009 
175108000    273.83786    316.18967    279.95956    -10.61944     12.48232    36.230108    40.288605 
175112000    272.46323    321.42307     267.8822   -10.345863    12.827875    53.540877    40.289846 
175116000    274.46579    311.09818    280.31198   -9.5330397    13.234864    30.786205    40.290143 
175120000    273.04386    326.14744    262.45351   -9.7734872    13.720826    63.693925    40.292079 
175124000    276.56969    317.30109    288.09334   -10.705077    13.277455    29.207749    40.290559 
175128000    274.47539    327.13189     282.4245   -10.759108    12.893917    44.707391    40.293491 
175132000    282.36738    351.39032    273.70865   -12.175902    12.049198    77.681668    40.294659 
175136000    277.79668    333.18387    269.92101   -11.615542    13.037683    63.262864    40.295169 
175140000    276.21109     315.9101    283.68981   -10.342618    12.483012     32.22029     40.29641 
175144000    275.25932    334.20819     272.3007   -12.608153    12.276014    61.907493    40.296261 
175148000    280.33496    327.81403    291.99229   -11.046811    12.205883     35.82174    40.293867 
175152000    269.08402     298.6717    264.56506   -8.8498591     13.09471    34.106639    40.293524 
175156000    276.63781    318.94017    289.44427   -10.372242    11.815669      29.4959     40.28859 
175160000    267.03025    311.06127    276.95188   -9.6595827    12.553432    34.109387    40.289276 
175164000    274.96691    319.52127    278.69364   -11.154736    12.568969    40.827624    40.289486 
175168000     273.5637    307.96272    287.86305   -10.188009    12.134057    20.099672    40.289068 
175172000    284.50855     335.3819    280.94911   -10.065573    13.335081     54.43279    40.289217 
175176000    271.14206    312.40618     289.2084   -9.6507423    12.742983    23.197776    40.288202 
175180000    273.06563    331.85051     268.6626    -9.868792    13.717667    63.187909    40.286841 
175184000    269.69537     302.7662    271.52489   -9.5241328    13.341297    31.241311    40.288058 
175188000    278.62651     321.5801    275.58484   -11.159103    12.682702    45.995258    40.288857 
175192000     268.8142    306.91652    279.65092   -9.6605649     13.43986      27.2656     40.28913 
175196000    277.57992    343.33723    266.46526   -11.542216    13.123617    76.871978    40.288871 
175200000    282.23339    319.23659    281.54717   -10.651391    12.200111    37.689421    40.287259 
175204000    275.82427    332.54262    286.27493   -11.536024    11.340508    46.267684    40.288745 
175208000    286.81956     332.6216    282.75422   -11.662615    11.588023    49.867382    40.287878 
175212000    272.98025    301.27271    288.01724   -9.6944468    11.769715    13.255469    40.284885 
175216000    276.53881    322.94042    279.88685   -12.229867    13.097896    43.053567    40.283473 
175220000    278.86283    326.10858    275.47057   -11.465123    12.819231    50.638018    40.286683 
175224000    270.93194    315.28926    270.03256   -10.677576    12.894928    45.256699    40.286127 
175228000    279.73182    346.63346    276.33598   -12.014653    12.997585    70.297484    40.283112 
175232000    272.44953    323.04196    283.65123   -11.584702    11.912603    39.390733    40.282527 
175236000    280.30562    341.08248    290.68051   -12.682924    12.001672    50.401966    40.282057 
175240000    275.88182    311.12385    271.99152   -11.492555    12.348679    39.132334    40.281639 
175244000    270.90524    324.38973    261.55863   -10.418679    13.791971    62.831102    40.282914 
175248000    277.87723    310.44769    284.48476    -10.53928    12.573353    25.962931    40.284383 
175252000     272.5638    314.83734    281.86569   -10.555266    12.813686    32.971653    40.283143 
175256000    281.00739    329.84302    291.25507   -11.582031    11.758837    38.587946    40.280181 
175260000    262.69842    303.36724    276.47922   -9.7857063    12.939115     26.88802    40.280199 
175264000    278.36382    308.93494    290.56757   -11.193232    12.174207    18.367375    40.279314 
175268000    268.39848    324.48405    258.41167   -12.344926    13.862429    66.072378    40.279814 
175272000    276.35842     329.7218    274.17964    -11.51464    13.303928    55.542155    40.278024 
175276000    279.81824     321.3795     269.8762   -10.797406    13.242679    51.503297    40.276904 
175280000    276.60878    325.09621     273.2927   -9.7354436    12.769878    51.803513    40.275289 
175284000    291.52068     335.5305    301.19179   -11.910009    11.454364    34.338712    40.279689 
175288000    280.14318    310.77194     296.3589   -10.214914    12.577095    14.413036     40.28175 
175292000    277.58187    316.70609    290.88803   -10.085843    12.424227    25.818059    40.282724 
175296000    272.57604    318.87299    276.34937   -9.0093215    13.451807    42.523612    40.280329 
175300000    278.98497    322.49448    278.76883   -10.692476    13.773617    43.725646    40.283349 
175304000    282.19562    322.82584    282.12703   -10.127066    12.742488    40.698805    40.285845 
175308000    274.42553    300.31055    293.55113   -8.5540737    12.524432    6.7594157    40.284633 
175312000    286.53421    349.79866    296.58275   -11.664811    12.152499    53.215904    40.283172 
175316000    270.58401    309.72135    288.85099   -10.028974    11.857481    20.870358    40.284161 
175320000    275.26501    342.72835    260.06318   -11.019794    13.738569    82.665168    40.282596 
175324000    275.30431    327.91176    283.68603   -10.577193     12.91223    44.225728    40.282192 
175328000    274.19457    323.10989     273.5851    -10.67835    13.072842    49.524789    40.279229 
175332000    269.44678    306.89055    274.40288   -8.5495516    13.481535    32.487672    40.278753 
175336000    276.32328    330.89284    295.42945   -9.7188469    12.485628    35.463384    40.277616 
175340000    271.53996    310.19929    273.32822   -9.1205958    12.689542    36.871072    40.277177 
175344000    279.25249    332.31457    284.97172   -10.894452    12.173604    47.342842    40.278806 
175348000    268.97594    326.50208    261.73693   -9.9032413    13.062327    64.765153    40.279328 
175352000    275.50445    323.45904    267.15441   -9.9286174    13.034325    56.304628    40.280972 
175356000    275.53361    303.16434     300.2252   -9.7679413    11.511583    2.9391312    40.279238 
175360000    284.01969    328.71315    291.40942   -10.493611    11.749092    37.303731     40.27929 
175364000     272.3219    328.25184    283.44046    -10.19067    13.466299    44.811381    40.279152 
175368000    280.50185    331.32254    283.39228   -9.3695711    12.133107    47.930264    40.276615 
175372000    274.18291    314.74835    273.57564    -9.894575    13.599476    41.172711    40.276844 
175376000    271.98451    320.65631     275.4821   -9.6743274    14.172098    45.174212     40.27762 
175380000    269.91944    315.74496    286.51782   -9.5133389    12.676172    29.227138    40.276444 
175384000    270.26312    319.71571     261.2003   -9.9691545    13.430109    58.515406    40.274794 
175388000    286.88125    336.19803    304.26672   -11.149539    10.505633      31.9313    40.275573 
175392000    278.60736    319.32954    295.18673   -10.251633    11.895356    24.142813    40.277476 
175396000    273.00163     318.9128    276.02525   -10.493276    13.230047    42.887553    40.279674 
175400000    279.09527    329.76061    269.89366   -10.432477    13.374995    59.866951    40.279896 
175404000    283.63195    320.32372    296.57603   -9.8593212    11.137804    23.747684    40.280703 
175408000    281.84094    335.04915     282.6753   -11.327535    11.244532    52.373846     40.28511 
175412000    275.47559    320.48789    285.89571   -11.583973    11.555648    34.592179    40.283273 
175416000    280.50667    332.34625    278.86979   -10.871489    12.242238    53.476457    40.281359 
175420000    286.57749    345.30158    270.77688   -12.315211    11.681705    74.524697    40.283532 
175424000    276.26783    297.24582    282.43348   -10.657174    12.648921    14.812339    40.283116 
175428000    282.14845    312.46129    277.95107   -11.306562    12.874436    34.510221    40.284279 
175432000     282.4772    300.39062    297.22392   -9.1354321     11.80092    3.1666908    40.281433 
175436000    282.32094    326.28022    290.20994   -11.084449    12.942052    36.070282     40.28342 
175440000    281.01648    325.55292    291.32313   -10.446566    12.956475    34.229791    40.279169 
175444000    281.57823    336.99272    292.25877   -11.057775    13.204675    44.733948    40.280958 
175448000    275.94235    321.03209     279.9871   -11.475404    13.478787    41.044989    40.279848 
175452000     272.1665    321.78457    259.86894   -11.023002    14.586593    61.915629    40.277703 
175456000    276.54344    333.70433    272.98689   -11.268789    13.451777    60.717433    40.280464 
175460000    273.17313    334.46283     261.2454   -10.349882    13.767492    73.217426    40.278346 
175464000    278.99651    326.44161    268.18978   -10.060219    13.493333    58.251829    40.278795 
175468000    280.04249    350.88127    289.87456   -10.710144    13.539208    61.006709    40.281475 
175472000    278.91967    313.07313    304.07157   -10.603987     12.88411    9.0015554    40.278171 
175476000    277.54898    335.39396    285.43318   -11.453375    13.274267    49.960779    40.280185 
175480000    275.81548    319.39945    264.15322   -10.758008    13.848324    55.246233    40.281508 
175484000    278.18917     336.7297    270.20908   -10.982829    13.237947    66.520616    40.286712 
175488000    274.80202    304.62628    285.67742   -9.7436674    13.623784    18.948858    40.286462 
175492000    272.79865    315.22378     269.3868   -10.855798    14.443881    45.836976    40.286173 
175496000    273.04083    327.97901    269.98202   -10.559741    14.030268     57.99699    40.289498 
175500000    276.33481    326.65194    280.67687   -10.807436    13.728322    45.975073    40.287874 
175504000    278.86686     347.8719     280.9923   -12.597712    12.007061    66.879605    40.290785 
175508000    276.96217     317.6858    272.88729   -10.780826    13.852745    44.798514    40.291679 
175512000    272.85036    310.87442    282.03258   -9.9409769    11.985475    28.841844    40.288488 
175516000    281.80553    331.58476     295.8606   -10.877882    12.673082    35.724159    40.285994 
175520000    275.04472    319.44487    281.74472   -11.027268    12.880956    37.700148    40.286374 
175524000    282.83204    346.33804    277.82727   -11.711684    12.790934    68.510774    40.287581 
175528000    275.38249    316.77951    264.27655   -9.7079616    13.956272    52.502961    40.289537 
175532000    275.09648    289.32396    289.63426   -9.5973545    12.614495  -0.31029823    40.288998 
175536000    275.35469    304.57626    289.19206   -9.0803819    12.411157    15.384201    40.285958 
175540000    266.88687    309.09238    263.09142   -8.8019793    14.084457    46.000963    40.283258 
175544000    267.99652    312.02912    268.15525   -9.9754672    13.988124    43.873871     40.28258 
175548000    271.14063    286.50789    300.30674   -8.6707225     12.42263   -13.798848    40.279609 
175552000      281.748    333.07148    287.80063   -11.977235    13.184155    45.270845    40.280064 
175556000    282.89622    329.19623    288.49852    -12.00583    12.828885    40.697706    40.281665 
175560000    273.71238    305.96254     259.2216    -10.39008    13.282616    46.740942    40.281058 
175564000    283.16025    337.80484    285.70549   -11.918732    11.647696     52.09935     40.28026 
175568000    270.67993    335.41072    258.70307   -11.728276    13.687278    76.707646    40.281023 
175572000     280.0195    322.14346    274.61529   -12.781666    12.839045    47.528173    40.278707 
175576000    288.49626    353.24964    275.83415   -13.268879    13.146849    77.415487     40.27948 
175580000    285.92559    326.32515    286.32456   -11.442624    12.633375    40.000593    40.277994 
175584000    271.63672    311.87346     274.2792    -12.89836    13.367688    37.594262    40.277849 
175588000    283.87155    311.10099    290.95535   -12.496561     11.23562    20.145647    40.278157 
175592000    271.44828    312.55476     275.1234   -12.203026    13.273133     37.43136    40.277556 
175596000    285.88766    311.19617    303.26816   -12.257431      12.8971    7.9280134    40.277373 
175600000    281.03959    327.91548    282.11878   -12.964931     12.92717    45.796704    40.274691 
175604000    275.93073    327.01655    270.46097   -12.489644    13.458416    56.555578    40.273524 
175608000    272.88454    339.67743    277.75654   -12.904297    12.991532    61.920888    40.271408 
175612000    284.80981    339.29834    297.85437   -13.914906    12.505027    41.443976    40.273465 
175616000    273.58918    317.43619    276.76695   -12.536872    14.040757    40.669244    40.277177 
175620000     281.1538    313.10733    305.56534   -11.811615    11.977532    7.5419948    40.277512 
175624000    268.08615    295.94972    288.61009   -9.7795416    12.431482    7.3396356    40.279623 
175628000    275.94844    308.85975     276.2865   -9.4146359    12.518002    32.573258    40.280536 
175632000    275.57696    322.80244    271.34244   -10.513599    12.396578    51.460005    40.278881 
175636000    269.45885    321.14472     256.3801   -10.998117    12.951896    64.764624    40.280558 
175640000     276.0302    310.14126    275.06801   -9.6770707    12.171388    35.073249    40.281888 
175644000    284.52658    312.84333    302.77411   -10.116707    10.396498    10.069222    40.280199 
175648000    281.64809    315.86099    290.54926   -9.5890265    11.012919    25.311733    40.278741 
175652000    280.53018    304.40387    288.78791   -9.8806031     11.89918    15.615954    40.280397 
175656000    275.58738    305.30391    289.49084   -9.5789456    11.630154    15.813065    40.279672 
175660000    282.44765    312.10688    300.22753   -9.5598949    10.661713    11.879352    40.276661 
175664000    278.49971    319.09764    268.85082    -10.41715    12.179926    50.246822    40.274611 
175668000    281.45031    302.49745    288.58673   -10.448362    11.272212    13.910725    40.272999 
175672000     271.1558    302.95895    266.59625    -9.768785    13.253565    36.362707    40.273152 
175676000    286.65582    361.60142    278.30429   -12.776331    11.846968    83.297131    40.271751 
175680000    279.22051     341.4178     270.3165   -11.457813    11.665868    71.101303    40.273573 
175684000    274.28734    300.07008    285.87767   -9.3923841    12.147413    14.192412    40.274811 
175688000     286.1712    345.31804    289.15556   -11.639013    13.056637    56.162482    40.272813 
175692000    271.42042    285.33757    290.69299   -9.4639344    13.284482   -5.3554193    40.271638 
175696000    278.75109    312.91401    280.68837    -12.53934    13.437053    32.225639    40.273156 
175700000    276.15152    335.70551    267.21294   -12.163146    13.788087    68.492577    40.273451 
175704000    286.36429    344.92954    295.14358   -12.540133    12.773435    49.785954    40.272281 
175708000    277.76447    312.24312     287.4913   -11.119072    12.987413    24.751826    40.269257 
175712000    283.33576    332.17104    281.71403   -12.335156    12.305369    50.457014    40.269239 
175716000    282.52554    329.52548    292.81483   -12.420467    12.200333    36.710657     40.26936 
175720000    282.50772    323.09077    283.84858    -10.87019    12.452569    39.242186    40.270794 
175724000    275.31381     329.9182    254.40864   -10.475664    12.847173    75.509564    40.269665 
175728000    276.36124    318.84907    285.30722   -10.431134    12.167203    33.541855     40.26841 
175732000     279.2573    321.07418    279.08796    -10.97726    13.310542    41.986226     40.26698 
175736000    273.06456    320.71682    271.26063   -10.845469    13.136251    49.456188    40.267582 
175740000    281.54475    292.26851    299.47321   -9.6726365    11.588842   -7.2047028    40.265858 
175744000    284.41819    323.34187    294.39798   -12.290947    11.990687    28.943886    40.263109 
175748000    272.33639     308.1847    278.21857    -11.16304    12.422928    29.966132    40.259616 
175752000    272.54944    299.46078    286.43882   -10.116826    12.365443    13.021956    40.259234 
175756000    271.63058     309.5274    287.98927   -10.148325    12.677058    21.538131    40.259004 
175760000    280.01981    334.66873    281.62708   -12.376229    13.093931     53.04165    40.260464 
175764000    280.92681    338.93575    285.66993   -12.529659    13.135334    53.265823    40.260874 
175768000    274.42609    301.34722    279.39032    -11.24741    12.430975    21.956902    40.258774 
175772000    273.95759    311.95382    264.61445   -11.730948    13.369061    47.339367    40.261373 
175776000    280.68644    326.02045    276.82739   -11.265551    12.756589     49.19306    40.260946 
175780000    274.24374    296.16348    299.24048   -10.087114    13.043126   -3.0769974    40.260197 
175784000    278.37454    328.66462    276.53443   -10.633197    13.650241    52.130185    40.261744 
175788000    277.99631    350.80714    256.98314   -12.558067    16.240684    93.824001    40.263386 
175792000    265.24769     324.0774    255.48849    -11.13694     15.40619    68.588917    40.264086 
175796000    281.76288    309.67612    274.27492   -12.319147    14.613045    35.401209    40.264923 
175800000    278.43327    320.09487    283.66743   -12.364831    14.670815    36.427439    40.266068 
175804000    279.01609    319.50285    288.49492   -11.222712    13.966507    31.007932    40.264427 
175808000    274.39887    322.29167    280.00784   -11.911055    14.940326    42.283832    40.265066 
175812000    275.41193    334.71091    277.02379   -11.822015    14.369319    57.687121    40.266448 
175816000    276.20017    308.06257    267.93927   -10.140572    14.444213    40.123303     40.26558 
175820000    274.25616    306.13312    286.55543   -11.172192    13.483394    19.577694    40.262645 
175824000    275.61832    309.93442    284.97443   -12.097863    14.338083    24.959988    40.262147 
175828000    283.52198     325.2863    293.68407   -12.918117    14.268727    31.602234    40.261891 
175832000    281.70988    326.88124    288.80053   -12.339477    14.194869    38.080705    40.264293 
175836000      280.276    315.42692    289.33336   -12.242065    14.532883     26.09356    40.263908 
175840000    267.96639    307.14938    279.94109   -11.337995    15.292378    27.208286    40.264692 
175844000    277.20903    323.31912     276.3358   -12.052799    14.438092    46.983321     40.26381 
175848000    276.90592    324.95878    269.38064   -13.288662    15.311645    55.578135    40.265878 
175852000    273.24512    319.90926    271.69957   -12.324246    15.641776    48.209689    40.265096 
175856000    282.79598    324.06805    286.70507   -13.432907    14.032036    37.362978     40.26553 
175860000    271.49176    306.35906    284.29956   -11.951294    13.407692    22.059493    40.266875 
175864000    266.58484    298.05237    258.78491   -12.205942     15.38649    39.267457    40.269606 
175868000    279.40584    339.82276    277.75933    -13.61793    13.968322    62.063433    40.268718 
175872000    277.35874    316.50224    285.22191   -11.527581    13.678629    31.280335    40.270138 
175876000     276.8735    308.16181     302.1306   -12.070634    12.690291    6.0312176    40.268676 
175880000    287.61543    338.71215    283.89267   -13.962279    13.704859    54.819483    40.269609 
175884000    277.01606    320.86038    287.28746   -11.633713    13.852701    33.572923     40.27034 
175888000    278.03455    317.81185    282.21699   -10.528838    15.187409    35.594862    40.270408 
175892000    265.90086    308.97791    262.33184   -11.182196    15.552535    46.646062    40.270397 
175896000    281.94847    333.54384    299.28385   -12.660107    13.499882    34.259996    40.268791 
175900000    284.48695    316.52618    284.08065   -12.338521    14.238634    32.445524    40.267928 
175904000    276.56932    319.97641    275.06981   -12.510362    15.058399    44.906599    40.266954 
175908000    279.01543    310.15963    282.50714   -11.558479    14.562447    27.652492    40.265224 
175912000     287.5672     348.4809    299.36248   -13.676237    13.470477    49.118416    40.262013 
175916000    281.98326    347.95587    272.92974   -13.551101    14.827675     75.02613    40.262073 
175920000    276.36456    298.15133    280.39097    -11.75427    14.693641    17.760362    40.261635 
175924000    276.29282    324.69272    280.12716   -12.513724    14.307727    44.565554     40.26175 
175928000    275.70429    336.33654     260.6147   -13.511579     15.87672    75.721842    40.262239 
175932000    278.54441    335.25399    275.53825   -12.924268    15.113737    59.715738    40.259535 
175936000    279.78949    320.33017    287.67851   -13.170527    14.712717    32.651663    40.256308 
175940000    284.63128    307.70568    301.86049    -12.29001    13.660884    5.8451888    40.255396 
175944000    276.74253    330.96567     285.3998   -12.844714     14.31931    45.565871    40.252806 
175948000    285.29135    303.91353    315.86675   -11.343105     13.02365   -11.953214    40.251404 
175952000    281.24798    336.20581    273.92229    -13.91162    14.754476    62.283525    40.253651 
175956000    269.45648    311.39314    275.87418   -12.591572    13.579013    35.518952    40.253947 
175960000     282.5713    339.59486      268.006   -13.123855    14.190573    71.588859    40.254325 
175964000    272.60687     304.6029    274.29762   -11.899169     13.91374    30.305277    40.254356 
175968000    280.96571    341.22504    267.59724    -14.42837    13.755421    73.627792    40.253737 
175972000    270.96427    292.43913    278.53195   -11.613581    14.864632    13.907179    40.254177 
175976000     277.1181    319.81259    266.30966   -12.470301    15.381661    53.502934     40.25385 
175980000    278.02358    324.41157    264.67259   -13.354119    14.324724    59.738977    40.255777 
175984000     272.7523    328.69083    279.60217   -13.035677    14.505964    49.088658    40.252855 
175988000    276.03614    319.89647    289.61463   -12.416361    14.927737    30.281845    40.252414 
175992000    273.94886    320.58428    281.27346   -12.144827    13.881188    39.310815    40.252484 
175996000    282.29318    336.68496    293.24721   -11.752906    13.390528    43.437747    40.251718 
176000000    273.43836    323.88186    278.07338   -11.650701    14.714237    45.808483    40.249322 
176004000    277.91556    322.94709    285.16184   -12.969242    14.747631    37.785249    40.247242 
176008000     267.0596    297.90495    289.42053   -10.164181    14.499954    8.4844173    40.247333 
176012000    276.10791    326.68393    276.47457   -11.541718    14.257424    50.209354    40.249052 
176016000    266.00368    323.31779    263.42432   -12.017367    15.195457    59.893464    40.249895 
176020000    278.40593    314.75773    281.39086   -11.821513    15.069736     33.36688    40.250031 
176024000    278.72602    319.13436    294.14548   -11.560439    13.709703    24.988875    40.249113 
176028000    279.57892    330.78129    282.49925   -13.024564    13.377507    48.282044    40.249895 
176032000    277.34433    307.16383     293.3798   -11.276103    13.622302    13.784032    40.253258 
176036000    277.80634    300.02327    288.89189   -10.821508    13.354098     11.13138    40.251914 
176040000    274.10534     335.3458     257.7317   -13.624576    14.859879    77.614099    40.250004 
176044000    282.19835    334.49033    280.74142   -12.946808    13.862958    53.748918    40.252986 
176048000    279.22276    317.31808    296.06659   -12.414151    12.911662    21.251493    40.251979 
176052000    277.53522     314.2684    285.75761   -10.850268    13.466544    28.510792    40.248952 
176056000    284.69836    331.97436    280.76622   -12.647677    14.349284    51.208136     40.24778 
176060000    281.99601    324.20217    276.91445   -12.007992     14.02813    47.287717    40.250272 
176064000    286.87961    335.76577    298.68719   -12.210665    12.964243    37.078585    40.249029 
176068000    276.27577    318.93793    287.43424   -12.005823    13.104643    31.503681    40.249639 
176072000    280.26184    319.59163    287.76313   -12.377244    11.888506    31.828499    40.249882 
176076000    273.64203    299.84755    274.21347   -11.958827    12.935376    25.634076    40.250395 
176080000    261.20293    314.72517     248.2861   -10.480622    14.487573    66.439065    40.249477 
176084000    276.57201    330.64028    285.17026    -12.67746    13.626291    45.470021    40.247646 
176088000    282.34531    329.42075    282.10743   -12.489811    13.996842     47.31332    40.248223 
176092000    271.78992    320.19235     277.9868   -12.320944    14.871012     42.20555    40.249526 
176096000    269.57386    291.62256    272.66685   -10.571154    14.701422    18.955704    40.251029 
176100000    278.43889    318.46942    288.84744   -12.601694    13.863263    29.621981    40.250273 
176104000    275.94722    349.27381    244.62812   -13.872432     15.63821     104.6457    40.250707 
176108000    287.00522    362.96424    272.66031   -14.424252    13.814649    90.303922    40.251237 
176112000    275.20629    319.59056    289.55727    -12.65067    13.270432    30.033287    40.250663 
176116000    271.45688    300.91738    275.97437   -10.954587    15.479199    24.943008    40.249944 
176120000    267.36767    315.28269    270.60599   -12.141315    14.655242    44.676701    40.248273 
176124000    277.97845    303.58444    278.93401   -11.106541    13.829848    24.650435     40.24708 
176128000      294.236    361.45006    300.42048   -15.149177     12.30505    61.029575    40.245807 
176132000    280.16458    333.64273    274.63956   -12.863531    13.385407    59.003172    40.247081 
176136000    272.84433    304.94975    273.08818   -12.671897    13.352248    31.861571    40.246266 
176140000    274.24382    339.78147    276.21895    -12.34394    13.652879    63.562518    40.247523 
176144000    271.16094    302.94717    262.61908   -12.369025    14.524024    40.328083    40.248247 
176148000    290.29583    348.59222    309.22323   -14.266733    11.719036     39.36899    40.248938 
176152000    278.29733    333.50736    273.31865   -12.006081    13.180306    60.188703    40.248446 
176156000     283.1957    349.17878    275.65879   -12.988875    12.801078    73.519994    40.249393 
176160000    279.92322    327.59732    283.08758   -11.438584    11.899711    44.509743    40.247087 
176164000    291.46106    335.60874    309.63711   -11.962565    11.659371    25.971637    40.246182 
176168000     289.3914    359.69891    297.18766   -14.480885    12.684179    62.511243    40.247129 
176172000    278.67037    322.36341    286.78994   -12.017587    12.850962    35.573467    40.247319 
176176000    279.66507    326.50272    292.67306   -11.428339    14.083778    33.829664    40.247758 
176180000    275.40278     314.2118    284.95287   -12.294506     13.36765    29.258934    40.248303 
176184000    272.77025    315.39669    276.52386   -10.951175    12.270663    38.872828    40.247554 
176188000    277.02764    303.78596     283.1489   -11.886689    13.777352     20.63706    40.246975 
176192000    272.07863    307.77941    273.49013   -11.549926    14.640239    34.289276    40.247216 
176196000    268.63842    319.88569    266.33411   -12.812767    15.218011    53.551585    40.243201 
176200000    276.68351    320.62786    272.91633    -12.80104    14.675054    47.711533    40.243516 
176204000    278.28234    314.68572    273.33876   -12.974115    14.880639    41.346961    40.245304 
176208000    272.63799      315.006     289.6219   -12.530313    12.885892    25.384095    40.247029 
176212000    281.68299     311.8285    297.24494    -12.32173    12.564214    14.583561    40.246538 
176216000    273.98858    302.18035    287.63513   -12.274223    14.066442    14.545222     40.24616 
176220000    273.42854     322.8248    270.25412   -11.806382    14.371456     52.57068    40.244235 
176224000     273.3616    325.25061    270.16726   -12.492042    15.021714     55.08335    40.245401 
176228000    279.89454     303.2186    284.52092   -11.417926    14.385654    18.697689    40.246114 
176232000    286.24366    323.61782    289.35814   -12.468469     13.83642    34.259677    40.245686 
176236000    276.86352    321.16539    273.81695   -13.575372    14.753515    47.348448    40.245309 
176240000    280.40796    336.97604    278.98713   -12.799719    13.602744    57.988907    40.244026 
176244000    274.52776    311.78881    290.95501    -13.17418    13.941948    20.833805    40.244836 
176248000    270.33689    308.79086    266.01038   -11.819125    14.985488    42.780486    40.243624 
176252000    278.03542    309.10702    276.53517   -11.647212    15.854112    32.571849     40.24521 
176256000    268.08897    317.25512    273.61614   -12.247082    14.657955    43.638977    40.245064 
176260000    279.93337    319.13737    281.60074   -12.264674    14.441245    37.536634    40.244738 
176264000    278.97739     319.6547     293.7002   -11.407793    13.405341    25.954498    40.243929 
176268000    280.15005    332.33576    289.33821   -14.143308    14.274308    42.997558    40.243607 
176272000    273.73161    333.08829    265.81563   -13.703895    14.759262    67.272657    40.246169 
176276000     285.7986    341.79496    282.15991   -14.176516    14.573604    59.635058    40.245952 
176280000    274.87574    314.82476    267.37164   -12.975225    13.983574    47.453119    40.246345 
176284000    273.18804    290.10916    301.12847   -12.127118    12.829051   -11.019303    40.244291 
176288000    279.53148    331.54104     276.8509   -13.569765    14.147849    54.690141    40.243524 
176292000    291.51594    346.12999    273.89686   -13.770066    13.556401    72.233137    40.244722 
176296000    278.61689    327.51709    274.24122   -12.340663    14.473937    53.275863    40.243587 
176300000    281.36198    326.87837    272.69774   -11.994721    13.736172     54.18063    40.244096 
176304000    283.85946    333.78352    295.01056   -13.061831    13.081402    38.772955    40.241474 
176308000    277.98849    328.86787    278.27318     -12.1735    14.236356    50.594693    40.241334 
176312000    281.56552    318.13413    292.01387   -12.184301    13.361816    26.120263    40.242262 
176316000    278.52777    314.36115    290.34323   -10.996253    13.403111    24.017919    40.241899 
176320000     278.0596     316.3189    288.18111   -11.964881    13.998017    28.137788    40.244085 
176324000    275.30351    313.78945    296.85421     -11.8991    13.414615    16.935247     40.24405 
176328000    277.05993    312.39219    297.19377   -10.630285    12.811834    15.198419    40.242764 
176332000    276.58923    320.82341    297.13988   -10.558737    14.431768     23.68353    40.242113 
176336000    284.32928    348.85813    283.86226   -12.994103    14.022905    64.995872    40.242299 
176340000    266.72895    326.92591    282.33959   -12.188158    13.865763    44.586318    40.242841 
176344000    282.13774    319.52928    276.99604   -11.695975    14.634784    42.533236    40.245664 
176348000    271.24574    307.94627    263.19938   -11.211482     14.87483    44.746892    40.243345 
176352000    277.28654    323.85639    280.56622   -12.820714    14.704944    43.290175    40.242847 
176356000    279.77365     346.1589    278.65209   -13.485065    15.119295    67.506805    40.243652 
176360000    280.57918    328.64566    289.70336   -12.425728    13.601247    38.942309    40.244473 
176364000    280.15751    334.85597    285.38951   -11.835446    14.336958    49.466458    40.244181 
176368000    272.85134    317.81134    280.41182   -11.753526    14.405879    37.399517    40.242452 
176372000    272.63169    315.99899    268.37184   -12.131898    15.359301    47.627146    40.245433 
176376000    284.50333    312.41473    304.99143   -11.777125    13.873364    7.4233013    40.246958 
176380000    276.64237    307.60179     278.4579   -10.826491    14.849359    29.143894    40.244447 
176384000    271.81022    309.50445    302.12112   -10.962346     12.84134    7.3833341    40.242955 
176388000    284.96875     348.2576     284.5314   -11.837634    13.585462    63.726205    40.242702 
176392000    280.10037    315.84843    293.65677   -10.653401    13.169118    22.191655    40.241653 
176396000    268.39429    316.00577    275.62029   -9.9542412     15.05677    40.385471    40.241212 
176400000    274.80725    317.73275    300.38909   -10.765041    14.491945    17.343659    40.241311 
176404000    272.46119    307.40647    276.49927   -11.391224    15.894653    30.907203    40.241754 
176408000    275.08117    308.89133    282.28206   -10.491879    14.985391    26.609269     40.24296 
176412000    261.79413    296.31116    266.19178   -9.9708485    15.793521    30.119383    40.242549 
176416000     272.8734    312.20409    286.35333   -11.061941     14.97113    25.850759    40.238737 
176420000    266.09724    286.17825    284.91817   -10.159369    14.405298     1.260084    40.239774 
176424000    267.48869    304.72409    275.77133   -11.557098     15.20487    28.952757    40.241902 
176428000    269.20193    306.06763      283.463   -10.632758    14.412783    22.604631    40.242146 
176432000    279.21015    344.77549    285.03467    -13.01546    14.701361    59.740821    40.239847 
176436000    274.66905    346.09153    272.12886   -12.605005     15.53285    73.962669    40.241287 
176440000    278.10731    352.76217    268.79701   -12.134816    15.469122    83.965159    40.240323 
176444000    274.36731    330.61831    276.43608   -11.328232    15.859205    54.182232    40.238926 
176448000    271.63095    312.68677    281.10215   -11.915686    13.505908     31.58462    40.240337 
176452000    268.10108    311.14861    302.11444   -11.191142    15.666371    9.0341767    40.242169 
176456000    272.00932    301.67323    286.52561   -10.829971    15.750657     15.14762     40.24016 
176460000    269.32341    308.60546    290.01312   -11.919518    15.609986    18.592348    40.237731 
176464000    266.59909     299.9995    269.96009   -9.7808064    16.275591    30.039417    40.236877 
176468000    274.95167    338.14625    275.81082   -11.715048     16.10122    62.335426    40.235061 
176472000    272.45933    328.63017    296.52835   -11.685332    15.342968    32.101815    40.239233 
176476000    271.64483    322.61101    268.17367   -11.519036    16.275589    54.437344    40.238414 
176480000    260.86152    288.63486    267.59861   -10.351463     16.19651     21.03625     40.23864 
176484000    269.39006    313.00812    268.24431   -11.398663    15.474555    44.763808    40.240214 
176488000    268.85691    315.16694    269.78427   -10.796236    15.874098    45.382672    40.237325 
176492000     261.8958    312.11376     266.1903   -11.140878    15.758298    45.923464    40.239855 
176496000    270.89181    317.50386    289.55054    -12.33178     13.92567    27.953322    40.240473 
176500000    274.39263    326.39706    278.43083   -12.370738    14.623048    47.966234    40.238146 
176504000    277.57214    327.85497    277.71083   -12.925228    15.696965     50.14414    40.239274 
176508000     267.7685    312.57727    283.02403   -11.495237     15.54349    29.553243    40.242215 
176512000    269.08908    316.25796    272.47682   -10.650491    16.717765    43.781141    40.241138 
176516000    272.47522    330.05137    273.41781   -12.861769    15.556742    56.633559    40.239676 
176520000    271.36337    323.57281    280.47252   -12.076965    15.431146    43.100293    40.240793 
176524000    265.09702    305.00309    286.27074   -11.213804     14.90946    18.732348    40.236541 
176528000    263.77092    291.89322     295.9509   -9.9779833    15.487964   -4.0576801    40.234649 
176532000    275.55409    313.38433     288.1519   -10.126431     14.62033    25.232437    40.232788 
176536000    276.52198    316.09185    298.88642   -11.929878    15.053947    17.205422    40.232654 
176540000    269.31688    298.37331    276.83865   -11.141545    15.468114    21.534655    40.231939 
176544000     278.4582    350.71375    276.18471    -14.22656    16.425822     74.52904    40.231215 
176548000    279.64678    329.36186    283.12254   -12.626574    15.945422    46.239323    40.231167 
176552000    275.10756    328.21793    292.73013     -10.8274    15.701323      35.4878    40.232947 
176556000    264.93899    318.78587    266.84777   -11.151047    16.897833    51.938095    40.230469 
176560000     275.0756    330.82183    287.42635   -12.987328    16.399475    43.395478    40.231335 
176564000    268.11144    340.89175    261.87182   -11.852355    16.906979    79.019936    40.233011 
176568000    264.16629    298.16389    286.30365   -9.8369973    15.231656    11.860243    40.232478 
176572000    267.00038    298.62777    270.87774   -9.9193335    16.883172    27.750028    40.231815 
176576000    265.83231     318.7098    266.87581   -12.025671    16.227397    51.833991    40.234167 
176580000    273.58503     322.5053    289.99637   -12.473551    15.993323    32.508927    40.233911 
176584000    273.99863    331.23006    278.83029   -13.337371     16.27159    52.399762    40.234463 
176588000    269.47319     328.6655    281.52507   -12.539404     15.79488    47.140435    40.233978 
176592000     273.6525    328.86489    262.45528   -12.012114    16.937974    66.409607     40.23315 
176596000    269.58786    328.71248    277.64598    -13.72263    16.235169    51.066503    40.236315 
176600000    277.82053    332.66651    281.83661   -13.580111    16.857486    50.829899    40.236206 
176604000    277.81158    333.51024    298.55322   -12.790308    14.724075     34.95702    40.236633 
176608000    270.77784    327.99905    280.82558   -11.262897    15.632594    47.173469    40.236993 
176612000    271.32254    323.59695    263.12115   -10.270548    17.446054    60.475805    40.238411 
176616000    268.70687    305.60137    285.20628   -10.276735    16.024964    20.395098    40.238747 
176620000    272.77283     341.2571    269.18636   -12.615516    15.996934    72.070747    40.240811 
176624000    274.23417    341.78203     265.4175   -13.263908    16.877157    76.364536    40.240968 
176628000    258.99998    285.59208    260.17224   -9.7472591    16.423463    25.419832    40.242832 
176632000    264.97837    309.60694    280.94748   -10.348514    15.680459    28.659458    40.245359 
176636000    266.87954    314.17901    271.72891   -11.538099    16.083573    42.450098    40.245485 
176640000    260.50909    286.80884    269.66169   -10.361673    15.681598    17.147151    40.247147 
176644000    269.48614    306.23182    281.97236   -11.053996     15.56444    24.259464    40.246594 
176648000    272.26931     321.5915    291.84955   -12.831698    15.321826    29.741945    40.244741 
176652000    271.45826    332.03269    279.49598   -13.083825    16.237969     52.53671    40.246502 
176656000    271.69703    327.80597    265.63451   -12.814091    16.355756     62.17146     40.24762 
176660000    274.67641     322.6612    276.13623   -12.021092    15.362292    46.524972    40.247158 
176664000    274.96638    319.32337    294.24883   -11.919384    14.459379    25.074534    40.246922 
176668000     264.4136      314.394    264.98272   -12.523117    16.423191    49.411289    40.246444 
176672000    280.72463    337.89962    286.57236   -12.779225    15.356123    51.327263    40.245249 
176676000    277.71451     342.2364    277.71514   -12.118052    16.724719     64.52126    40.244611 
176680000    267.03708    301.12672    283.13434   -11.514153    16.914479     17.99238    40.244197 
176684000    258.27227    293.65971    255.70973   -10.807509    18.055177    37.949983    40.245993 
176688000    265.79555    301.74874    275.79237   -11.941452    17.521312     25.95637     40.24554 
176692000    263.63422    301.12477      282.568    -11.55881    16.886164     18.55677    40.245414 
176696000    276.39274    334.57151    288.33935   -13.025436    16.963643    46.232157     40.24421 
176700000    267.56565    304.58694    278.63839   -11.644991     16.66474    25.948552    40.241631 
176704000    272.57601    330.86383    267.58373   -14.946215    16.715997    63.280099    40.243139 
176708000    275.82915    328.85332    274.04305   -14.211074    16.020085    54.810272       40.246 
176712000    280.25857    344.92732    282.74634    -15.86783    16.818005    62.180984    40.246629 
176716000    269.48425    309.79425      275.257   -12.237793    16.761781    34.537251    40.245977 
176720000    281.39078    331.97811     279.1533   -13.327096    15.912277    52.824808    40.243402 
176724000    277.08514    331.19851    276.44335   -13.091617    16.654051    54.755155    40.244845 
176728000    276.05454     337.1816    280.15784   -13.636932    16.239571    57.023762    40.245887 
176732000    278.97404    323.09951    284.24279   -13.626957    16.361971    38.856721    40.245915 
176736000     271.0365    353.19008    270.94255   -14.972649     18.08199    82.247533    40.246156 
176740000    271.01391    330.76932    267.68533   -12.977111     17.74576    63.083991    40.247006 
176744000    275.63452    328.53263    287.95185   -12.503193    17.356424    40.580781    40.247983 
176748000    274.72219    313.57711    306.21348   -12.888396    16.737642    7.3636359    40.244635 
176752000    262.52556    298.40874    289.77389   -12.366316    17.572253    8.6348478     40.24262 
176756000    265.72556     307.5341    283.55897   -12.396193    17.402187    23.975127     40.24331 
176760000    267.88428    295.29809    287.04369   -11.456542    17.296734    8.2543994    40.244767 
176764000    276.33661    305.56287    298.66285   -11.961816    16.992501    6.9000266    40.244694 
176768000    273.27769    316.48744     273.8391   -11.889035     17.91799    42.648334     40.24566 
176772000    273.79224    324.48271    284.29802   -14.244127     17.46564    40.184696     40.24527 
176776000     286.6006    336.89211    316.20107   -15.607334    15.348061     20.69104    40.244997 
176780000    277.04241    322.41791    285.65741   -14.020935    17.225329    36.760499    40.242255 
176784000    291.80461    372.48469    285.97826   -16.703866    15.993262    86.506423    40.243826 
176788000     274.4457    306.85809    268.70689   -14.053764    16.412318    38.151204    40.243016 
176792000    258.69153    302.33751    253.28007   -13.145217    17.518114    49.057441    40.242101 
176796000    282.63218    325.20102    321.37255   -14.794394    14.431834    3.8284726    40.240319 
176800000    281.40157     308.1693    280.56154    -14.52031    16.309696    27.607756    40.239456 
176804000     274.8911    324.95971    253.10709   -15.474841    18.685034    71.852621    40.240768 
176808000     270.3877    317.73056    261.31979   -14.839811    17.200159    56.410773    40.241433 
176812000    275.77822    340.11483     269.3975   -14.988447     17.00335    70.717334    40.244104 
176816000    270.91884    333.34227    269.66815   -14.182233    16.360093    63.674114    40.245084 
176820000    281.53136     322.2885    299.41866   -14.259159    15.627421    22.869844    40.245092 
176824000    275.75964    305.35386    288.25959   -13.064509    16.446605    17.094276    40.244432 
176828000    269.45692    328.90593    265.02602   -14.303918    17.215228    63.879916    40.243964 
176832000    259.48772    298.13734    260.79018   -14.537803    17.723518     37.34716    40.243196 
176836000    272.56933    297.47767    282.51362   -12.281849    16.738823    14.964049    40.243872 
176840000    290.04822    327.24588    307.08708   -13.125268    15.554746    20.158799    40.242442 
176844000    266.31447    316.91077    258.05994   -12.853428    18.764332    58.850827    40.244741 
176848000    274.61798    313.40944     299.3838   -13.240202    16.771853    14.025634    40.245144 
176852000     271.1888    325.78096    269.38246   -14.555333    17.543114    56.398496    40.246018 
176856000    280.03814    327.53517    302.74947   -13.780287    16.578423    24.785696    40.243404 
176860000    276.14566    323.04772    278.93504   -13.881476    17.014445    44.112682    40.241734 
176864000    272.09971    323.81757    263.74824   -12.690703    18.161825    60.069334    40.241395 
176868000    269.93577    319.84189       282.99   -12.839996     17.84568    36.851892    40.239843 
176872000    263.50657    301.91719    261.79271   -12.785521    18.350727    40.124476    40.239693 
176876000    272.27914    315.02973    270.13749   -11.171613    17.177623    44.892243    40.241108 
176880000    264.47388    296.16234    266.14718   -11.363187     18.24983    30.015159    40.241341 
176884000    272.59237    322.21367    283.04801   -13.504746    15.546783    39.165668     40.24138 
176888000    275.52424    341.09249    283.39195   -13.906865    15.046252    57.700538    40.242475 
176892000    272.59303     318.0346    283.97536   -13.612215    15.255113    34.059239    40.243422 
176896000    281.11323    320.55891    289.92626   -13.945301    15.417686    30.632647    40.242588 
176900000    270.21078    311.89913    296.55864   -13.651748    15.224211    15.340497    40.241614 
176904000    279.35688    324.56082    308.80533   -14.045111    13.322735     15.75549    40.242575 
176908000    278.32692     328.2773    284.27174   -14.436998    15.381757    44.005554    40.241024 
176912000    284.14162    335.20358     299.3932   -15.092497    14.098286    35.810384    40.241786 
176916000    280.37252    308.53637    289.65779   -12.528208    15.237084    18.878581    40.240872 
176920000    273.01223    299.81445    274.55665   -12.479017    15.401398    25.257807    40.242243 
176924000     285.3998    333.32742    279.83682   -14.480434    15.087746    53.490608    40.242033 
176928000    275.04934    291.83427    301.14804   -12.089357    13.088602   -9.3137682    40.242313 
176932000    285.35006    324.21352    276.74959    -13.79888    15.805662    47.463933    40.243555 
176936000    270.98847    299.14365    271.40362   -13.705664    16.009278    27.740033    40.244049 
176940000     276.4917    314.38593    273.26528   -12.807468      15.7413    41.120653    40.244912 
176944000    273.09205    311.87194    268.12986   -13.718659    16.806006    43.742077    40.243093 
176948000    288.78536    350.49585    288.01092    -15.07969    15.854155    62.484936    40.241813 
176952000    267.27518    300.90131    285.94043   -12.672925    16.120052    14.960882    40.242637 
176956000    272.32327     325.6389    272.38463   -13.455902    16.243625    53.254266    40.244187 
176960000    271.31461    325.68943    270.66608   -13.485473     16.54105    55.023342    40.244522 
176964000    271.39389     319.9949    281.57704   -13.343786    16.399432    38.417865    40.246691 
176968000    273.52364    294.60015    285.00312   -13.403297    16.463084    9.5970328    40.246575 
176972000    276.91254    332.23521    272.98533    -13.86616    16.984573    59.249887    40.245883 
176976000    277.83153    324.31863    276.45253   -13.276341    16.181451    47.866094    40.245506 
176980000    278.05871    325.95738      281.649   -14.116281    16.101887    44.308382    40.245716 
176984000    278.68359    303.55737    283.08022   -12.216063    17.309149    20.477158    40.246744 
176988000    276.61694    317.48279    281.77022   -13.105125    15.874605    35.712566      40.2483 
176992000    287.09756    343.56343    289.83579   -15.027882    14.653261    53.727642    40.247876 
176996000    265.25064    308.58898     270.0099   -13.279966    15.741963    38.579078    40.250775 
177000000      279.453    341.31289    264.11575   -15.776255    16.637394     77.19714    40.250327 
177004000    276.80406    331.92849    274.07864   -13.955982    16.119355    57.849854    40.253724 
177008000    280.86826    325.03154    296.76923   -14.149406    15.831372    28.262314    40.253727 
177012000    274.43146    313.97697    286.64348   -13.944608    15.351568    27.333485    40.254819 
177016000     277.0007    330.05202    288.57723   -13.564441    16.058499    41.474786    40.253676 
177020000    284.49907    340.73157    283.11526    -14.18313    14.997639    57.616314    40.253952 
177024000    274.03824    332.21662    277.69773    -13.95484     16.17474    54.518889     40.25688 
177028000    291.23434    349.86347    295.01299   -16.023971    15.840292    54.850484    40.256493 
177032000    290.37753     347.2078    280.02656   -16.940896    16.458661    67.181234     40.25604 
177036000     289.9519    341.98033    282.14893   -15.512101    16.642475    59.831403    40.256106 
177040000    277.99001    299.62982     267.9534   -13.499973    17.622425    31.676415       40.256 
177044000    274.26679    305.63148    276.81076    -14.12134    17.147626    28.820724    40.258621 
177048000    280.41445    314.55559    290.12434   -15.034125    15.808432    24.431243    40.257724 
177052000    279.94901    320.48446     289.2327   -15.027153    15.833943    31.251755    40.256005 
177056000    286.03666    325.02552    287.73159   -15.488424    16.436768    37.293929    40.256589 
177060000    279.27939    322.03134     282.5321   -16.349597     16.52461    39.499242    40.257027 
177064000    282.65099    313.28073    288.43782   -15.292442    16.339865    24.842912     40.25735 
177068000    272.31852    315.48377    262.68045   -16.030635    17.128907     52.80332    40.256046 
177072000    291.09461    338.00975    284.57319   -16.780583     16.48256    53.436553    40.256282 
177076000    282.35556     314.9749    300.28368   -15.296935    15.768351     14.69122    40.255082 
177080000    273.83713    303.03587    281.22609   -14.465649    17.110974     21.80978    40.255972 
177084000    287.85145    313.55212     306.9577    -16.03143    15.084873    6.5944239    40.255887 
177088000    274.51165    308.38733    281.23965    -13.63496    16.595031     27.14768    40.255913 
177092000    278.84675    313.59337    268.45432   -14.366953     16.55727     45.13905    40.255264 
177096000     273.3633     334.9308    265.71228    -16.06476    17.746213    69.218519    40.256666 
177100000    280.38955    308.56782    289.02917   -14.499811    16.684833    19.538656    40.255857 
177104000    283.80212    335.62255    276.20965   -15.263912    16.971724    59.412899    40.255441 
177108000     273.5346    322.76672    286.32435   -15.074748    17.288776    36.442371    40.257794 
177112000    272.97325    332.58649    270.76917   -14.709945    18.007555    61.817316    40.257515 
177116000    271.52418    317.99175     271.3056   -14.715353    18.330069    46.686149    40.254052 
177120000     268.2829     303.4501    281.69881   -13.458446    16.833132    21.751286    40.250845 
177124000     272.5483    308.87981    260.85252      -15.505    18.238908    48.027296    40.249784 
177128000    274.61449    311.29971    285.97232   -14.508839    16.442159    25.327391    40.248576 
177132000    271.62091    304.67461     270.8302   -14.324175    16.723819     33.84441    40.249279 
177136000    269.55951    291.34401    273.36065   -13.068116    16.892504    17.983362    40.248417 
177140000    277.04405     331.3841    283.07465   -15.704779     16.96784    48.309446    40.248834 
177144000    273.07441    325.41536    274.50802   -14.069069    17.060474    50.907333    40.250069 
177148000    282.28577    315.54691    301.91098   -13.534849    15.381109    13.635925     40.25041 
177152000    281.35046    320.97273    285.94096   -14.197236    16.273378    35.031774    40.250412 
177156000    269.34971    295.31165    277.22551   -13.485723    16.105412    18.086139    40.249945 
177160000    282.40514    319.94112    298.38242   -16.070034    15.122936    21.558699    40.252373 
177164000    274.47326    316.12635    273.74788   -15.139337    16.804076    42.378471    40.251063 
177168000    269.82162    331.38859    264.38185   -15.233096    17.668359    67.006734    40.253624 
177172000    284.22752     322.3335    294.35685   -16.577053    16.595759     27.97665    40.254734 
177176000    281.44993    314.69461    284.87985   -15.458697     16.87825    29.814755    40.252574 
177180000    285.31054    306.11955    300.01119   -15.781743    15.656233    6.1083584    40.251714 
177184000    291.51744    332.44771    290.35399   -16.190673    16.042426    42.093721    40.252748 
177188000     282.9342    330.68088    285.26472   -16.299547    16.651354    45.416158    40.253776 
177192000     278.5868    326.65826    259.97951   -15.643018    17.534265    66.678754    40.252556 
177196000    288.85579    320.98422    286.99769   -16.370803    16.388107     33.98653    40.253428 
177200000    285.17256    332.55852      278.402   -15.236452    15.841664     54.15652    40.253566 
177204000     281.8288    314.01664    285.42119   -16.530402    16.195465    28.595446    40.253765 
177208000    285.21986    321.31995    268.38174   -16.159618    17.846679    52.938213     40.25316 
177212000    274.10515    293.53874     287.4482   -15.238064    16.192318    6.0905372    40.252043 
177216000    277.88088    325.68927     269.3794   -15.062754    15.522765    56.309876    40.250278 
177220000    282.49329    315.88217    309.88019   -15.999979    14.825472    6.0019868    40.251245 
177224000    275.79353    325.09108     284.4086   -16.955129    17.041656    40.682475    40.251133 
177228000    284.25564    314.65713    283.82798   -16.788091    16.511231    30.829149    40.250425 
177232000    283.33467    313.66177     291.0046   -16.938808     15.99268    22.657171    40.251289 
177236000    290.24553    331.42356    282.04968   -17.643355    16.776841    49.373879    40.250659 
177240000    277.55271    311.45355     277.4809    -15.70651    16.104362    33.972652    40.249542 
177244000    291.45526    333.97467     281.5004   -16.939404     16.45821    52.474275    40.250821 
177248000    278.98332    300.68364     277.8616   -16.420579    16.581181    22.822048    40.250318 
177252000    286.42277    317.07439    271.71422   -16.399216    16.246027     45.36017    40.250621 
177256000    278.96401    301.35392    294.16859   -16.308127    16.285401    7.1853369    40.250207 
177260000    279.64976    296.83516    280.06326   -15.578478    17.228944    16.771903     40.24954 
177264000     282.1877    308.49159    281.84064   -15.339135    17.120055    26.650955    40.246612 
177268000    289.03077    333.08774     296.0455   -16.778495    16.708462    37.042237     40.24609 
177272000    287.44065    333.57174    287.15082   -17.447192    16.411798     46.42092    40.246224 
177276000     286.5804    328.35216    282.32717    -16.01966     16.66377    46.024992    40.247166 
177280000    285.52634     332.6986    265.65099   -16.295316    18.244188    67.047612    40.248184 
177284000    279.56077    315.25518    266.87513   -15.813226    17.563126    48.380057    40.248468 
177288000    282.36716    317.48128    265.87569   -16.451462    17.060426     51.60559    40.247959 
177292000    283.86198     304.2829    286.10461   -15.169572    16.863996    18.178284    40.246262 
177296000    282.11551    323.57597    287.29161   -17.109178    16.878261    36.284356    40.247561 
177300000    286.80678    318.87492    313.48136   -17.291433    15.610851    5.3935621    40.246257 
177304000    288.31874    341.62609    292.88191   -18.669762    17.729202    48.744181    40.245126 
177308000    281.98261     321.5842    290.45923   -17.743142     17.29641    31.124967    40.245554 
177312000    280.73971    303.82528    274.96849   -16.035011    18.686768    28.856787     40.24662 
177316000    283.36646    328.35152    279.38078   -17.430957    17.089879    48.970736    40.247151 
177320000    285.29263    310.89251    294.34127   -15.774792    15.744251     16.55124    40.246134 
177324000    272.76113    300.94278    286.84591   -17.025204    15.529726    14.096877     40.24431 
177328000    279.80897    323.72254    284.14943   -17.229517    16.961107    39.573112    40.246903 
177332000    273.12932    319.26317    266.36601   -17.322431    18.838916    52.897161    40.245101 
177336000     273.9586    305.59695    274.92603   -15.488558    16.978439    30.670923    40.245419 
177340000    286.97044    329.96979     304.9837   -16.681538    15.788894    24.986093    40.244309 
177344000    279.91631    323.40202    276.86517   -15.323905      16.7381    46.536846    40.243586 
177348000    283.51959    312.34959    277.13521   -17.264932    17.753098    35.214378     40.24405 
177352000    275.07749    301.19758    282.22781   -15.777346    18.261819    18.969775    40.242962 
177356000     281.8302    309.48118    289.41583   -14.937067     17.56147    20.065351    40.243899 
177360000    281.68897    335.08985    273.14464   -16.794332    17.078863    61.945209    40.244646 
177364000    276.83412    323.55408     269.5373   -17.192291    17.137237    54.016787    40.245018 
177368000    279.90341    336.43517    275.77094   -16.796024      17.3773    60.664227    40.245489 
177372000    285.09348    347.62265     276.6249   -17.659072    16.483698    70.997748    40.245764 
177376000    285.96013    334.74534    282.77911   -17.546938    16.748565    51.966231     40.24533 
177380000    277.78528     323.2851     272.0593   -15.958079    17.442544    51.225802    40.245377 
177384000    284.91739    333.03377    288.74817   -17.416114    16.755245    44.285601    40.245281 
177388000    285.82368    353.81171    267.52429    -18.62032    17.532137    86.287417    40.245375 
177392000    278.32093     330.3416    284.48211   -17.083741    17.250715    45.859489    40.245693 
177396000    284.87545    335.28342    290.43361   -17.258141    16.493584    44.849815     40.24624 
177400000    272.94552    308.60862    262.85871   -17.204881     18.66628    45.749909    40.245905 
177404000    277.79736    304.09624    271.87569   -15.856793    18.557011    32.220556    40.247139 
177408000    280.82041     313.9416    287.71112   -17.148515    16.807657    26.230482    40.246688 
177412000    283.29815    327.89241    296.55809   -18.318283    17.226621    31.334323     40.24459 
177416000    291.70228    358.90817    292.72506   -18.248516    16.198682    66.183117    40.247494 
177420000     276.4595    317.31459    271.81623   -16.634479    18.610825    45.498364    40.247955 
177424000    283.44111    335.68088    285.94621   -18.111956    15.875787     49.73467    40.246877 
177428000     282.3954     327.4556    291.23921   -16.820741    16.922058     36.21639    40.246121 
177432000    267.07459    306.22243    271.92309   -16.287803     17.86594    34.299348    40.246711 
177436000    282.61804    325.06426    286.52203   -18.030858    17.750881    38.542229    40.248755 
177440000    269.16844    283.36484    286.69943   -15.636506    17.691857   -3.3345949    40.247013 
177444000    282.58776    328.72553    295.29869   -17.615849     17.05903    33.426846    40.245932 
177448000    280.30859    324.63164    278.76933   -16.426655     17.26282    45.862303    40.247108 
177452000    271.33801    324.32235    267.11837    -15.95137    18.552974    57.203978    40.246748 
177456000    272.36301    311.12006     265.8854    -16.33228    19.218885    45.234664    40.247714 
177460000    271.01924    302.53018    274.81847   -15.210089    19.069351    27.711708    40.246984 
177464000    277.56739    329.14615    276.93848   -15.518568    18.379927    52.207676     40.24719 
177468000    281.81688     326.0049    295.70449   -16.644303    16.854039    30.300412    40.247602 
177472000    285.39297    339.47302    284.56899   -17.589745    17.376945    54.904037    40.245884 
177476000    274.56211    318.82283    281.94288   -17.256558    19.373838    36.879952    40.245987 
177480000    279.53433    306.14367    301.25499   -16.976036    18.642647     4.888675    40.244797 
177484000    283.27073    347.02524    282.87107   -18.079576    18.556213     64.15417     40.24639 
177488000    279.65469    338.24417    297.55249   -17.804727    17.570611    40.691682    40.245073 
177492000    280.97958    318.21486    292.18464   -16.366043    17.438655    26.030218    40.247257 
177496000    276.44689     307.7591    311.38417   -16.668446    17.115616   -3.6250757    40.247965 
177500000    274.07584    312.55817    277.50813   -16.250281    18.651173    35.050044    40.248652 
177504000     281.6972    324.96005      279.758   -17.921376    18.341947    45.202043    40.246357 
177508000    277.36954    326.72841    265.68749   -18.675981    18.928802    61.040925    40.247188 
177512000    274.05447    312.82717    274.16579   -16.844284    19.304297    38.661382    40.246189 
177516000    288.00859    343.59084    287.21348   -17.224708    19.041822    56.377363    40.244686 
177520000    278.81172    310.96252    283.45819   -17.858459     19.48564    27.504326    40.245483 
177524000    278.35383    313.43295    262.91833   -16.709932    19.648322    50.514617    40.243547 
177528000    272.77707    324.41737    261.57605   -17.231326    19.578092    62.841323    40.243264 
177532000    270.89831    305.51504    277.37415   -15.408944     19.26867    28.140884    40.242087 
177536000    289.10329    339.22289    295.26136   -18.432843    18.322829    43.961534    40.242426 
177540000     286.1238    327.86416    296.55663    -17.37484    17.987518    31.307533    40.241035 
177544000    276.03454    328.62572    263.61711   -17.301672    20.667222     65.00861    40.243831 
177548000    265.48765    296.73673    262.08913   -15.535171    20.292899    34.647603    40.242962 
177552000    281.89097    343.52884    280.32635    -18.92593    18.125438    63.202497    40.241443 
177556000    279.20683    322.25484    294.53538   -17.726693    17.916514    27.719457    40.241166 
177560000    277.58522    327.13258    284.75148    -18.15015    18.347452      42.3811    40.240808 
177564000    276.74994    308.37675    277.73886   -16.157944    18.521826    30.637888    40.241554 
177568000    274.66797    312.49157    288.13905   -16.359921    18.290151    24.352524    40.240806 
177572000    283.27084    312.29228    294.07897   -16.418493     17.84052     18.21331     40.24135 
177576000     268.6728    286.74616    273.97177   -15.718914    19.412322    12.774394    40.240519 
177580000    280.46989    327.37831    276.60627   -17.412581    18.634764     50.77204     40.24191 
177584000    280.91146    327.03745    282.35422   -17.038466    19.058432    44.683229    40.242893 
177588000    284.10415    313.12205    286.56372   -15.905131    17.499715    26.558323    40.242936 
177592000    272.66361    324.73917    279.57211   -16.261633    18.372805    45.167059    40.242947 
177596000     285.9323      338.025    271.77305   -17.702281    18.972646    66.251958    40.243681 
177600000    276.59964     313.2952    279.92157   -16.794431     18.08184    33.373634    40.243663 
177604000    280.45629    329.63681    304.94779    -18.11276    17.148778    24.689021    40.243891 
177608000    281.79145    331.83956    275.70933    -18.71671    18.667229    56.130232    40.242069 
177612000    272.85837    333.76737    256.31438   -18.642409    20.165906    77.452991    40.242779 
177616000    279.80253    323.92773    276.07456   -17.925936    19.007696    47.853173    40.244304 
177620000    287.67974    344.68637    290.11456   -18.909616    18.300938    54.571814     40.24573 
177624000    290.79287    330.32961    296.05684   -18.128742    17.967426    34.272771    40.245422 
177628000    282.52499    324.82243    273.84196   -18.871983     18.88234    50.980464    40.246802 
177632000     275.4226    318.42716    279.34114   -16.945365    18.663772    39.086016    40.246851 
177636000    277.06649    317.09699    289.27966   -16.815965    18.424912    27.817331    40.245915 
177640000    270.74493    308.21082    259.86698   -15.571758    19.381273    48.343845     40.24614 
177644000    276.36148    323.50539    277.72606   -16.533676     18.95252    45.779333    40.245238 
177648000    273.17156    299.68845    279.25235    -16.14304    18.334545    20.436101    40.243611 
177652000     276.2108    318.84975    280.52907   -16.943411    17.767422     38.32068    40.244344 
177656000    281.54102    308.99534    300.82148   -16.098565     16.75003    8.1738616    40.242202 
177660000    281.09779    324.55038    290.49469   -17.180148    16.809979    34.055689    40.242076 
177664000    270.62494    310.14599    277.17144   -16.386796    17.919631    32.974558    40.242042 
177668000    276.85335    317.46487    291.71338   -16.153707    17.951542    25.751486    40.239991 
177672000    263.24443    296.15366    289.93516   -16.409796    18.383712    6.2184991    40.239294 
177676000    287.20446    340.11445    285.47047   -17.769571    18.717475    54.643983    40.240294 
177680000    275.21718    308.86344    266.15164   -15.285917    19.749386    42.711806    40.238595 
177684000    280.08431    328.46336    278.39633   -16.275784     19.59528    50.067035    40.237814 
177688000    275.12835    306.80811    279.50268   -15.741132    18.826022    27.305436    40.236887 
177692000    276.64146    319.92979    290.46431   -15.573467    19.143507    29.465477    40.238982 
177696000    273.24121    342.61197    270.02216   -17.908506    19.718383    72.589813    40.240473 
177700000    276.70032    341.01883    287.66099   -18.810195    18.142093    53.357838    40.239297 
177704000    280.48853    342.73359       284.77    -16.97292     19.01956    57.963591    40.238362 
177708000    279.45523    333.75271    271.97427   -18.017265    19.507249     61.77844    40.238491 
177712000    277.48261    320.90353    279.01648   -17.746153    19.365936    41.887042    40.237723 
177716000    278.49494    309.61449    287.49471   -16.004872    18.924961    22.119783    40.237483 
177720000    272.80594    305.81567    267.65602   -17.612121    19.671431    38.159654    40.237772 
177724000    273.08153     320.3663    283.04959   -17.610491    19.908282    37.316711    40.235641 
177728000     269.0975    290.13288    269.35049   -15.229223    20.274272    20.782386    40.236564 
177732000      284.862     335.5186    289.85307    -18.39276    20.682804    45.665526    40.232248 
177736000    272.30327     320.2624    255.99083   -16.849144    20.707371    64.271573    40.232343 
177740000    278.22927    319.30362    292.39547   -16.626061    19.783607    26.908151     40.22939 
177744000     277.1344    330.76584    293.40726   -17.326553    19.163423    37.358582    40.230436 
177748000    274.45715    317.61299    284.10434    -16.80648    19.183863    33.508651    40.229587 
177752000    283.95779    325.50781    303.33548   -16.771861    18.291367     22.17233    40.230211 
177756000    276.21539    334.93921    293.73244   -17.967248    18.981618    41.206773    40.229471 
177760000    267.53193    305.81251    273.39839   -16.006523    19.838509    32.414126    40.229737 
177764000    272.36673      329.448    264.50599   -16.251466    21.262834    64.942005    40.231172 
177768000    272.93591    315.71136      270.879   -16.680082    20.948757     44.83236    40.230349 
177772000    266.34004    311.02579    274.06356   -16.991672    20.819574    36.962235      40.2296 
177776000    276.16889    327.82489    275.97983   -17.177822     19.86914     51.84506    40.228524 
177780000    260.99393    291.48861    272.28575   -15.800124    20.188233    19.202866    40.226597 
177784000    279.48163    332.27698    290.38474   -17.793556    19.956204    41.892239    40.228697 
177788000    276.36153    317.22205     298.1407   -16.941042    19.318257    19.081345    40.229349 
177792000    273.88339    325.74487     264.8875   -17.212497    21.278031    60.857373    40.230181 
177796000    272.12672    341.15443    261.61906   -16.923295    20.733907    79.535374    40.230173 
177800000     270.1861    313.27269    255.35158   -15.987436    19.891944    57.921108    40.228431 
177804000    275.59148    317.35745    280.55822   -15.984561    19.038394    36.799227    40.228144 
177808000    270.68274       304.49       297.05   -15.248186     18.58065    7.4399964    40.227973 
177812000    271.44429    308.92042    279.31084   -15.913182    19.620019     29.60958    40.225823 
177816000    280.21394    334.99728    273.18588   -17.471208    20.647688    61.811397    40.226215 
177820000    274.22475    319.18314    282.63021   -16.756581     19.10322    36.552932    40.228065 
177824000    280.66194    317.36078    287.45704   -17.493699    19.393719    29.903744     40.23055 
177828000    276.68621    347.55221     274.8964    -18.69832    19.714569    72.655815    40.228841 
177832000    275.05864    331.14234    270.02049   -18.490091    21.420822    61.121852    40.228936 
177836000    280.69137    329.06384    289.56455   -17.728359    19.587676    39.499298    40.229338 
177840000    276.39335    358.85726     272.9883    -19.47368    21.069433    85.868957    40.230245 
177844000    275.25977    339.21725    280.36563   -18.689679    20.254177    58.851622     40.23093 
177848000    274.36142    315.85548    282.38712   -17.189209    19.237316     33.46836    40.230435 
177852000    272.00179    319.03192    271.39602    -16.94651    21.073352    47.635903    40.230758 
177856000    275.26244    339.08361    266.79237   -18.611568    21.183956    72.291245    40.231784 
177860000    268.85698     299.1927    280.47019   -17.221293     19.81186    18.722508    40.230353 
177864000     277.0249    323.76828    284.00723   -18.051358    21.468933    39.761051     40.23219 
177868000    270.88127    311.81973    263.10648   -17.233716    19.985932    48.713251    40.231923 
177872000    270.85989    310.89938    281.70664   -16.810271    20.419865    29.192736    40.231556 
177876000    284.79667    334.06009    298.11803   -18.074877    19.689922    35.942065    40.232268 
177880000    275.77889    326.15408    289.06455   -16.905392    18.986857    37.089532    40.233145 
177884000     275.4109    343.39602    269.45475   -18.798269    20.054586    73.941262    40.233398 
177888000    277.19979    325.14525    288.72036   -17.459348    20.139423    36.424893    40.235081 
177892000     282.5019    342.68496    301.85244   -19.667411    19.859299    40.832526    40.235412 
177896000    287.73097    355.50338    297.34566   -19.166952    19.269326    58.157715    40.236722 
177900000    266.31781    316.09196    288.78266   -15.851534    19.545995    27.309305    40.235195 
177904000     270.4762    316.10924    262.63461    -17.12414    21.385967    53.474625    40.234929 
177908000      268.763    319.33717    259.60194   -17.639464    22.216215    59.735233    40.233236 
177912000    274.60952    327.36439    290.92644    -17.35993    19.966428    36.437952    40.234465 
177916000    281.50707    330.77482    269.94057   -18.765103    21.202622    60.834254    40.236293 
177920000     274.6745    323.18621    279.30522   -17.108146    20.810528    43.880993    40.237033 
177924000    268.04254    303.63577    267.84754   -16.318235    21.955829    35.788227    40.238682 
177928000     274.0852    309.78963    267.95486   -17.212199    21.816013    41.834766    40.237339 
177932000    262.52139    291.07456    276.65844   -15.134025    20.823955    14.416121     40.23514 
177936000    271.09817    343.04834    281.62649   -18.550214    21.048331    61.421847    40.235346 
177940000    269.50264    321.34317    270.73411   -18.262166    20.260825    50.609062    40.234158 
177944000    261.82107    296.12124    256.54347   -17.054993    21.313221    39.577762    40.233429 
177948000    271.68435    329.59389     272.4599   -17.972871    20.919663    57.133991    40.231082 
177952000    270.41065    325.63685    285.79458   -17.388108    19.484947    39.842268    40.228954 
177956000    270.56231    335.23398    249.69579   -18.634047     21.71426    85.538189     40.23144 
177960000    273.96957    312.78183     297.4139   -16.624589    18.928664    15.367926    40.229665 
177964000    275.72961    321.85633    278.00595    -17.71132    20.987391    43.850383    40.229144 
177968000    271.33433    309.85187    284.63973   -17.823895    19.490633    25.212134    40.228771 
177972000    268.42125    331.82882    275.41691   -17.369597    19.054454    56.411918    40.228835 
177976000    270.80954    305.74521    277.86848   -16.295732    20.108933    27.876732    40.226979 
177980000    273.69027    320.72279    273.77869    -16.83754    20.898423    46.944095    40.225859 
177984000    266.06757    320.45538    272.25142   -16.887369    20.539049    48.203954     40.22575 
177988000    278.34848    343.44992    275.58107   -17.938652    20.458127    67.868842     40.22529 
177992000    269.24602    317.57616    270.13171   -17.457057    20.744271    47.444458    40.225242 
177996000    275.06965    328.01913      282.874   -17.337325    20.486353    45.145132    40.227444 
178000000    269.75333     299.4984    284.07901   -16.527237    19.423154    15.419392     40.22678 
178004000    272.25089    327.25273    278.02252   -16.722839    20.209924    49.230202    40.228652 
178008000    271.87295    328.54252    272.27612   -17.576476    20.308993    56.266392    40.228322 
178012000     280.4295    329.43559    279.36951   -16.322508    20.821422    50.066078    40.226814 
178016000    269.66472    320.21888    279.66289   -17.162565    20.439017    40.555988    40.225455 
178020000     276.1932    319.85427     285.5878   -16.448723    21.620483    34.266478    40.225279 
178024000    270.74176    315.15559     269.0387   -16.374425    20.721063    46.116884    40.225162 
178028000    278.75214    336.07709    293.81224    -17.59081    20.856739    42.264855    40.225175 
178032000    277.71088    328.17734    277.63058   -17.049955    20.590713    50.546752    40.222779 
178036000    271.49931    307.26056    303.68845   -16.462738    20.119978    3.5721113    40.224156 
178040000    280.01522    303.95968    315.91609   -16.544295    20.067742   -11.956411    40.222147 
178044000     271.7193    309.80037    283.46498    -15.95661    20.551677    26.335387    40.221687 
178048000    264.57895    297.07314    280.19829   -15.742475    20.704171    16.874854     40.22197 
178052000     259.0262    306.18819    278.02457   -14.726596    21.393433    28.163617    40.221773 
178056000    269.52161     316.6223    280.36725   -15.962429    21.173131    36.255052    40.220564 
178060000     264.0215    310.48332    257.70001   -15.691739    21.897214    52.783309     40.22289 
178064000    267.76516     300.5375    284.02839   -15.466345     20.07175    16.509105    40.222667 
178068000    263.26615    312.29004    262.56153   -16.857369    21.000268    49.728506    40.220886 
178072000    279.44199     325.1903    298.27203   -17.700404    20.175676    26.918264    40.219323 
178076000     270.7688    315.90295    271.28363   -16.891978    22.093353     44.61932    40.219898 
178080000     274.8311    347.28302    281.60873    -18.65302    20.837275    65.674285    40.220978 
178084000    271.84611    333.44025    288.88729   -18.403946    20.894539    44.552963    40.219598 
178088000    272.06353    304.61806    278.34382   -15.845766    20.487184    26.274244    40.219137 
178092000    261.49467    298.59397    272.23859    -14.94523    20.682024     26.35538    40.220791 
178096000    274.78238    317.89617    291.76197   -14.417837    20.636418    26.134201    40.223719 
178100000    259.63567    286.87988     270.8392   -14.589036    21.500889    16.040682     40.22377 
178104000    270.82233    322.95877    279.23912    -16.34584    20.492009    43.719647    40.223302 
178108000    278.38496    343.80095    276.23592   -16.646267    20.776214     67.56503    40.223888 
178112000    274.89584    311.51693    301.49341   -15.593594    18.472519    10.023528    40.223777 
178116000    275.11019    337.99896    266.93296   -17.618194    21.216309    71.066001    40.224334 
178120000    267.57426    318.68082    269.81459   -16.473693    20.767766    48.866235    40.222869 
178124000    277.80969    332.26535    289.03575   -16.757342    20.570526    43.229603    40.220769 
178128000    267.84372     319.7873    282.61642   -18.001295    20.602322    37.170881    40.221099 
178132000    273.85453    319.75877    270.26924    -17.50063    21.374133    49.489522    40.223428 
178136000    275.54933    326.36924    281.02074   -17.150636    20.424348    45.348498     40.22294 
178140000    274.08869    303.92207    277.67122   -15.310552    20.837337    26.250851     40.22391 
178144000    272.47216    320.76997    276.68024   -16.933247    21.472657    44.089726    40.222954 
178148000    274.23012    334.78131    270.78582   -16.948206    20.894771     63.99549     40.22374 
178152000    267.71498    319.44262    272.91404   -15.586431    20.653534    46.528579    40.223643 
178156000    268.29956    312.39046     279.4438   -15.728536    20.482115    32.946652      40.2235 
178160000    268.06594    304.40624    285.45398   -14.899729    20.224562    18.952261    40.220123 
178164000    262.82869    314.84427    275.30138   -16.744343    21.167867    39.542891    40.218595 
178168000    280.19676    327.80126    282.84613   -16.358915    20.047468    44.955136    40.218298 
178172000    279.77937    344.47124    258.30033   -19.690089    20.577846     86.17091    40.217357 
178176000    275.59769    326.93889    274.28789   -17.664361    19.467492    52.650997    40.216889 
178180000    272.54709    315.88144    284.60329   -17.181448    18.301533     31.27815     40.21411 
178184000    263.57601    282.22227    282.81138    -14.89068     19.50178  -0.58911097     40.21497 
178188000    268.43285    322.43707    276.78951      -17.056     19.80635    45.647563    40.214869 
178192000    278.22973    338.26344    283.83076   -17.911779    19.733839    54.432682    40.215122 
178196000    274.29453    306.50353    294.79626   -15.964558    18.670554     11.70727    40.214719 
178200000    267.55894     304.6259    265.34028   -14.969897    20.627823    39.285621    40.213833 
178204000    268.80253    305.16683    273.16587   -14.829718    20.170634    32.000951    40.213616 
178208000    278.25548    340.09167    264.32824   -15.812062    20.298992    75.763426    40.212967 
178212000    269.10137    321.41472    282.74336    -17.57589    19.944968    38.671367    40.213528 
178216000    278.99214    334.47335    282.89202    -17.03203    19.439153    51.581326    40.211836 
178220000     280.6678    334.57087    283.70055   -17.051347    19.763216    50.870319    40.211767 
178224000    268.22171    306.78092    268.35736   -15.746278    20.057421    38.423555    40.211567 
178228000    269.18331    334.89786    264.68459   -18.294406    20.585706     70.21327    40.211153 
178232000      277.363    333.87817    267.95323   -16.651475    19.912276    65.924939    40.209997 
178236000    281.77123    335.13577    293.08328    -16.40246    18.812007    42.052493     40.20843 
178240000    271.58415    314.08854    279.09099    -16.25979    20.048267    34.997547    40.207381 
178244000     294.3568    349.41736    322.01787    -16.93632     17.87856    27.399494    40.205833 
178248000    265.48456    293.64524     272.3776   -15.426441    19.952129    21.267646    40.205719 
178252000    269.43094    318.68775    283.66967   -16.221141    20.044409    35.018077    40.204553 
178256000     270.4846    310.91676    273.76644   -15.689237     20.88861    37.150318    40.205291 
178260000    274.43631    310.66935    271.75027   -15.860046    20.187565    38.919071    40.207084 
178264000    270.82716    309.37813    282.41788   -15.376869    19.517119    26.960244    40.206284 
178268000    272.77264    326.48745    268.52162   -16.570887    20.009312    57.965827    40.207572 
178272000    278.92946     323.4561    282.07745    -16.13189    19.919564     41.37865     40.20752 
178276000    271.44215    341.55516    265.25132   -18.640317    20.269041     76.30384    40.207451 
178280000    284.82451    359.66101    275.05955   -19.507872    19.471855    84.601463    40.209108 
178284000    283.33822    318.48851    308.40041   -17.463885    17.688943    10.088095    40.208807 
178288000    281.30605    333.35028    290.46775     -17.7728    19.048968    42.882529    40.210923 
178292000    271.37466    328.83595    265.50426   -18.224962    20.325217    63.331692    40.210884 
178296000    281.23608     322.3343    287.20778   -17.739538    19.508582    35.126521    40.212777 
178300000     275.6931    317.25926    279.64374   -16.038912    18.271061    37.615524    40.213472 
178304000    276.59049    331.89088    281.93528   -17.531068    19.014744    49.955605    40.214562 
178308000    270.89954    324.38398     278.2057   -17.463855    18.739702    46.178274    40.213452 
178312000    266.74082    290.79165    286.24322   -15.022801    19.094764     4.548427    40.211166 
178316000    276.82572    325.94409     278.6277   -17.310138    19.374443    47.316392    40.211039 
178320000    275.64601    330.14162    261.81483   -17.604639    19.761863    68.326788     40.21083 
178324000    269.24878     303.9134    270.41061   -15.366978    20.643588    33.502799    40.210719 
178328000    273.21471    321.11869     277.7165   -16.580875     19.82634    43.402191    40.211078 
178332000    275.79685    319.90518    297.45333   -16.684152    19.906942    22.451845     40.21005 
178336000     275.3715    320.53784    287.07808   -17.351708    20.400463    33.459765    40.207591 
178340000     276.0934    338.74015    275.56763   -18.279829    20.823449    63.172522     40.20815 
178344000    279.99303    333.65752    272.48327   -17.061507    20.585512     61.17425    40.207159 
178348000    267.22182    287.20484    299.96343   -15.127598    18.542777   -12.758596    40.206529 
178352000    278.33482    336.61663    292.56959   -17.924058    19.508937    44.047042    40.206608 
178356000    269.02363    297.34292    264.34733    -16.31727    21.024791    32.995596    40.205595 
178360000    272.62031    328.74928    278.06649   -17.424926     20.26651    50.682791    40.205613 
178364000    278.78018    333.73243    288.79269   -17.515721    20.562076    44.939736    40.206712 
178368000    260.94321    294.94739    256.24529   -14.640813    22.625596    38.702102    40.207303 
178372000    270.75388    296.61225     303.7962   -15.710745    18.841231   -7.1839467    40.206156 
178376000     270.2911     331.5059    273.61464   -16.400527    19.658085    57.891266    40.206227 
178380000    265.67514    310.07084    263.69487   -15.932229    20.449854    46.375969    40.205871 
178384000    276.55487     305.0747    295.92481    -17.32032     19.63309    9.1498867    40.205723 
178388000    273.66404    314.96494    300.11783   -16.758201    18.815647    14.847105    40.205343 
178392000    266.10463    310.52482    283.90417   -16.754668    19.144583    26.620652    40.203907 
178396000    276.22479    347.86874    260.49144   -17.870754    20.163768    87.377297    40.204033 
178400000    273.87259    317.15107    281.82799   -15.752223    19.853263    35.323085    40.202953 
178404000    270.93133    297.29831    292.36077   -15.848805    19.514534    4.9375333    40.202269 
178408000    270.46076    303.81319    286.76938   -16.465509    19.682071    17.043813     40.20293 
178412000    271.41903    318.99335    286.00406   -16.792715    19.723038    32.989291    40.205562 
178416000    280.05721    321.25647     298.7492    -16.29879    19.695279    22.507274    40.204813 
178420000    276.50451    335.94619    266.01097   -17.628474    21.324973    69.935223    40.203918 
178424000    275.13161    321.92809    271.72495    -17.48628    20.343637    50.203141    40.204373 
178428000    274.84564    323.20704    293.76258   -17.654867    19.247979    29.444461    40.203454 
178432000    281.48767    325.75812    304.29242   -17.073309    19.455966    21.465698    40.203795 
178436000    267.91752    325.21708    266.48349   -17.642562    21.784517    58.733583    40.204849 
178440000    270.00466     307.6089    288.09618   -17.087686    21.059689    19.512723    40.203846 
178444000    274.19442    335.15731    278.35016   -17.707575    21.765818    56.807145    40.203839 
178448000    275.78777    316.33129    294.68338   -17.485705    20.101871    21.647912    40.202136 
178452000    266.71686     327.6875    280.24771   -18.610976    21.282232    47.439786    40.201446 
178456000    270.93966    319.16073     270.7361   -18.974827     21.22075    48.424631    40.204145 
178460000    270.19159    318.45696    263.89694   -18.615137    22.306481    54.560022    40.204823 
178464000    266.54653    320.48031    259.38982   -18.985574    21.829846    61.090496    40.203786 
178468000    272.57209    314.90329    268.16014   -18.145263    21.959494    46.743158    40.204012 
178472000    284.20907    320.98479     293.3271   -17.909922     20.27357    27.657684    40.203644 
178476000    271.00106    312.71092    285.95695   -17.093324     21.25817    26.753976    40.202746 
178480000     279.2679    332.34491    303.75559    -18.85163    20.824082    28.589317    40.202816 
178484000    282.50638    340.68592    286.10871   -19.093181    21.088707    54.577208    40.202633 
178488000    271.36894    318.54734    275.61612   -18.783473    22.356274    42.931221    40.202827 
178492000    275.89618    326.78535    279.00107   -18.364591    20.974065    47.784273    40.203088 
178496000    282.84188    293.38137    309.45605    -17.83108    19.943282   -16.074683     40.20067 
178500000    277.05456    324.29613    279.19262   -18.000418    21.598232    45.103518    40.201455 
178504000    278.85087    344.72507    287.31334   -18.197504    21.812557    57.411724    40.201049 
178508000    269.82418     301.1789      275.532    -16.87339    22.140062      25.6469    40.202186 
178512000    272.75447    323.08079     279.3739   -18.040954    21.283915    43.706882    40.202212 
178516000    268.53263    325.26194    261.67074    -18.63891    22.125769     63.59121    40.202021 
178520000    267.45162    302.23075    287.99631   -16.722065    21.464114    14.234445    40.202132 
178524000    272.37516    330.73789    258.77357   -19.696298    21.750206    71.964317    40.201476 
178528000    277.18945    315.74788    291.86864   -18.595928    22.274534    23.879243    40.201214 
178532000     270.3336    315.86581    274.27257   -18.694798    22.993701    41.593242    40.201018 
178536000    287.55059    327.48708    311.78516   -19.324274    19.894634    15.701928    40.199925 
178540000    274.82476    332.91542    258.34613   -19.090534    22.861681    74.569284    40.202797 
178544000    276.31634    323.84137    275.03853   -21.257129    22.214206    48.802837    40.202653 
178548000    273.75894     311.6699    280.37888   -17.910168    22.436758     31.29102    40.204177 
178552000      275.984    314.84309    299.01163   -18.494725    20.726095    15.831453    40.202862 
178556000    281.48231     331.9947    300.17241   -18.968804    21.300462    31.822291     40.20207 
178560000    276.80395     321.0688    273.53998   -18.130263    22.618307    47.528822    40.204035 
178564000    275.61096    312.44834    299.70759   -18.050761     21.74749    12.740749    40.204358 
178568000    270.83557    312.44056    276.69189   -17.833924    21.771889     35.74867    40.205203 
178572000    270.28949    329.37882     279.3237   -19.234385    20.928249    50.055123    40.206577 
178576000    276.63131    335.91534    281.01627   -19.007179    20.869835    54.899064    40.204509 
178580000    262.43374    295.63746    283.53588   -16.325024    21.746511    12.101584    40.203585 
178584000    264.51142    313.43611    275.61353   -17.157449    21.391953    37.822581    40.201724 
178588000     270.6946    313.10137    288.11783   -17.744022    21.814344    24.983534    40.201094 
178592000    265.16985    290.52877    281.05843   -15.356592    21.630825    9.4703412      40.2019 
178596000    273.52175    298.75846    307.59179   -16.403641     20.13452   -8.8333314    40.200622 
178600000    265.54865    302.72302    269.13308   -16.272053    21.812388    33.589938    40.200196 
178604000    276.20443    347.58607    270.48374   -19.302141    22.505287    77.102329    40.198211 
178608000    270.60276    309.86115    296.28802    -17.14026    20.953686    13.573131    40.197181 
178612000    277.13379    330.48976    289.93689   -17.167867    20.033016    40.552873    40.198403 
178616000     274.4087    328.86457    262.90138   -18.748024    21.925041    65.963195    40.199961 
178620000    272.25117    309.65823    289.69282    -17.51086    20.740352     19.96541    40.201689 
178624000    272.62482    321.05679    290.27306   -18.640766    21.091046     30.78373    40.202043 
178628000    281.69792    319.41995    282.21078   -17.859778    22.387342    37.209174    40.203355 
178632000    281.79652    334.85028    287.56601   -18.782691    22.476935    47.284273    40.203416 
178636000    277.61136    322.02516    290.71533   -17.817664    21.076667    31.309835    40.201093 
178640000    273.38881    331.52893     312.9035   -18.176746    19.999998    18.625438    40.200863 
178644000    273.55037    320.71778    287.01473   -16.676969    20.739133    33.703055    40.200412 
178648000    280.66162    335.12621    296.51247   -17.451543    21.796593    38.613743    40.199776 
178652000    265.21672    320.31027    268.14913   -17.010857    22.325408    52.161146    40.200634 
178656000    276.38382     311.5922    294.78622   -17.055715    21.663607    16.805982    40.201506 
178660000    269.18476    318.31624     285.1547   -16.939844    21.822375    33.161541    40.201684 
178664000    271.61566    322.05883    279.87389   -16.432013    22.097055    42.184942    40.200576 
178668000    274.40411    326.09169    279.15883   -16.546689    22.625708    46.932861    40.200927 
178672000    269.79825    312.19925    269.02652   -17.015409    22.525287    43.172724    40.199782 
178676000    265.95103     292.6449    275.97262   -16.734738    22.291273    16.672275    40.197996 
178680000     274.9899    323.32887    297.00347   -16.707415    20.412528    26.325403    40.198511 
178684000    280.40413    346.54666    289.84794   -19.211189     20.15577    56.698718    40.199636 
178688000    267.90943    306.76287    272.01274   -17.008225    21.891153    34.750132     40.19873 
178692000    262.42197     305.5218    270.84052   -16.567844    22.123559    34.681278    40.198861 
178696000    266.93558    323.79058    273.89511   -16.070828    22.102679    49.895465    40.198691 
178700000    275.80346    339.29231     268.6391   -18.889926    21.904738    70.653209     40.19875 
178704000    269.67439    322.00674     279.6002   -17.099114     21.97109    42.406542     40.19944 
178708000     264.8624    320.10058    275.42147   -17.405036    21.627433    44.679111    40.196359 
178712000    273.60064    323.59868    275.85182   -17.771396    21.548032    47.746864    40.197021 
178716000    260.88801    297.99801    268.13087   -15.892223    22.205374    29.867141    40.196047 
178720000    274.30188    322.22588    290.67081   -17.501139    22.127091    31.555072    40.196889 
178724000     266.5089    307.19864    279.29397   -16.963179    21.312047    27.904663    40.198663 
178728000     269.6205    320.48763    263.36456   -16.579963    22.576285    57.123061      40.1969 
178732000    270.40833    333.18136    279.32068   -18.037859    22.136549    53.860682    40.197824 
178736000    271.98383    300.49531    284.62639   -17.056438    21.303111    15.868918    40.198547 
178740000    273.56873    308.96578    275.13178   -17.361666      20.4406    33.833996    40.197434 
178744000    269.32486     321.7643    265.50349   -17.568478    21.202518    56.260814    40.195076 
178748000    276.47836    313.11217    287.91976   -18.725994    19.314982    25.192414    40.195031 
178752000    266.66505    313.00366    269.92334   -19.122329    20.837037     43.08032     40.19528 
178756000    274.70188    316.24561    281.57851   -17.458224    20.584633    34.667102    40.195217 
178760000    263.86825      284.509    288.22792   -16.244177    20.164993   -3.7189209    40.193604 
178764000    286.85339    338.05111     292.8468   -17.932449     19.47426    45.204307    40.195582 
178768000     280.8435    318.41323    296.88261   -17.394141    19.553348    21.530615    40.195065 
178772000    274.55464    317.94189    279.32109    -17.70945    20.464003    38.620796    40.194754 
178776000     267.7837    322.77983    271.39339   -16.358353    21.385026    51.386439    40.192987 
178780000    268.72747    326.53413     284.1071   -16.898952      21.2917    42.427038    40.192407 
178784000    270.66362    306.10112    275.49214   -16.130253    21.496865    30.608981    40.190988 
178788000    284.01182    334.83488    302.32984   -16.980194    20.858646    32.505046    40.192677 
178792000    277.95099    337.26312    295.23126   -18.543744    20.913868    42.031858    40.191465 
178796000      268.005    331.82027     259.4457   -18.376145    23.216733    72.374568    40.193441 
178800000    262.75716    301.44806    277.36651   -17.252104    22.553677    24.081551     40.19364 
178804000    268.20617    319.31175    276.15458   -17.105254    23.329503    43.157175    40.193698 
178808000    274.42931    337.90506    265.98945   -19.258781    23.065601    71.915612    40.191935 
178812000    274.16707    344.10208    268.89532   -19.503659    22.641073    75.206766    40.192572 
178816000    268.75769    316.80556    275.14248   -19.204724    22.375135    41.663084    40.191993 
178820000    281.06345    319.22796     301.7951   -18.199378    20.537916    17.432867    40.193141 
178824000    274.50061    319.78882     307.4826   -18.518813    19.899043    12.306224    40.192458 
178828000    260.32662    296.11568     268.4924   -17.303176    22.076524    27.623283    40.190345 
178832000    267.59283     324.1749    270.62759   -18.963098    23.200458     53.54731    40.189755 
178836000    270.33594    311.70504      278.924   -18.328928    21.530315     32.78104    40.188687 
178840000    278.81846    350.46474    293.46936   -20.145816     21.55196    56.995384    40.188081 
178844000    267.03936    310.26953    266.34776   -17.754764    23.086667    43.921776    40.189899 
178848000    275.52858    343.99304    276.48643   -20.473301    22.822224    67.506608    40.188995 
178852000    271.87347    310.54535    270.22221   -18.115719    21.862585    40.323142    40.185365 
178856000    287.04262    343.55551    302.35097   -19.647689    21.970288    41.204533    40.184718 
178860000    278.52456    323.33268    301.39099   -18.284115    20.652731    21.941684    40.185377 
178864000    277.24957    332.53853     271.0941   -19.259619    21.538263    61.444432    40.185448 
178868000     270.9256     306.5622    276.57704   -18.411493     22.49677     29.98516    40.185536 
178872000    273.51858      325.356    273.45084   -19.211768    22.260217    51.905156    40.186203 
178876000     264.3973     327.8957    266.09168    -19.36181    22.092425    61.804011    40.187407 
178880000    271.49423    321.45858    273.18217   -18.408179    22.397948    48.276409    40.188582 
178884000    278.20482     313.6705    287.78278   -17.104764    21.680912    25.887721    40.190576 
178888000     281.3106    349.89009     289.6871   -19.707405    21.086408    60.202992     40.19134 
178892000    266.42208    311.18896    269.39191   -17.871821     22.17746    41.797052     40.19111 
178896000    274.79182    317.93081    281.42649   -17.674438    22.654748    36.504319     40.19196 
178900000    271.28914    310.96211    307.21969    -16.96513    20.730651    3.7424154    40.192513 
178904000    273.99638    291.43756    303.10646   -18.539207     20.44795   -11.668905    40.190434 
178908000    275.78794    337.57401    286.00905   -19.732355    21.402669    51.564969    40.192329 
178912000    274.02395    309.18839    287.19911   -19.179601    22.008316     21.98928    40.191711 
178916000    263.86025    304.66352    272.01784   -17.115405    21.892121    32.645686    40.190246 
178920000    272.13655    312.46138     289.0415   -17.516587    21.928192    23.419879     40.18981 
178924000    270.18178    320.13967     282.5014   -17.715981    22.484394    37.638272    40.188847 
178928000    271.34089    320.63285    273.03385   -18.951836    22.636372    47.599003    40.188777 
178932000    272.01279    337.91403    283.41425   -19.448489    22.285682    54.499776    40.188743 
178936000    269.34158    309.06223    283.51107   -17.156679    22.567208    25.551166    40.187588 
178940000    273.29443    317.30692     293.2631   -18.377774    21.588975    24.043828    40.188728 
178944000     270.5209    319.82692    279.41798   -18.074736    21.520353    40.408942    40.189129 
178948000    268.16333    312.26121    265.09177   -19.343993    22.437391     47.16944    40.189776 
178952000    278.89659    309.71774    310.12198   -17.657815    21.515694  -0.40424015    40.187293 
178956000    276.77744    333.92218    278.67853   -18.607309    23.188356    55.243656    40.187351 
178960000    271.51079    312.12975    284.53808   -16.891928    22.448914    27.591669    40.186325 
178964000    276.86371    297.94363    290.92976   -17.152373    20.934337    7.0138682    40.183085 
178968000    280.94644    315.49539    293.58062   -18.764685    21.712322    21.914771    40.182062 
178972000    270.64257     322.3173    271.54735   -19.076255    22.204908    50.769954    40.182678 
178976000    272.94754    329.20942    254.69027   -18.820582    23.432385    74.519149    40.181783 
178980000    270.04172    299.76194    288.08135   -18.892044     22.10252    11.680584    40.180474 
178984000    280.94238       350.95    280.40198   -20.082071    22.404041    70.548024    40.179986 
178988000    283.95639    316.00414    321.45913   -19.029969    21.017654   -5.4549878     40.17894 
178992000    273.70881    316.11848    278.93912   -19.092887    21.852024    37.179366    40.178528 
178996000    272.09217    302.37664    278.77686   -18.164142    22.033877     23.59978    40.179657 
179000000    281.10544    319.96157    287.92079    -18.97492     21.79525    32.040783    40.182252 
179004000     287.5621    334.64779    297.44062   -19.563006    21.550785    37.207168    40.181995 
179008000    282.39218    326.61073    297.69876   -19.808543    20.835523    28.911973    40.179938 
179012000    276.43926    325.88224    279.73913   -20.065274    22.099385    46.143109    40.181064 
179016000    283.05245    318.72652    290.95982   -18.846435    21.799941    27.766697    40.180103 
179020000    273.21155    325.89961    277.57068   -19.010093    22.848062    48.328932    40.182648 
179024000    275.30378    326.83402    279.33426   -18.711869    23.150239    47.499764    40.181512 
179028000    276.07118    328.33573    269.12386   -20.032865    23.408521    59.211869    40.180962 
179032000    276.71004    321.73301    265.29961    -18.91703     22.62311    56.433401    40.180756 
179036000     274.6834     330.3358    285.50785   -20.224385    22.002533    44.827949    40.181918 
179040000    276.90046    308.43496    302.83264   -19.059115    21.002455    5.6023182    40.183912 
179044000    270.18978    304.17514    279.26778   -18.886785     21.90233    24.907361    40.180883 
179048000    278.13573    320.72373    273.10361   -19.741892    21.612915    47.620118    40.181255 
179052000    280.91759    341.63463    272.37197    -21.51307     21.48529    69.262662    40.181344 
179056000    276.52942     306.0896    281.67885   -19.372546    22.004097     24.41075    40.179725 
179060000    272.71412    313.20299    278.27741    -19.47735    22.101045    34.925585    40.179244 
179064000    270.52439    291.81629    286.57476   -19.107604    21.367932    5.2415221    40.177587 
179068000    273.25152    305.51258    278.87949   -19.913758    21.898439    26.633083    40.178288 
179072000    275.05053    318.37482    265.34514   -20.277615    23.754191    53.029679    40.178841 
179076000    291.47711     335.0659    292.30594   -22.601265    21.025111    42.759957    40.179377 
179080000    281.49611    310.94305    296.48858   -21.210329    21.018165    14.454469    40.178455 
179084000    274.72968    315.72128    269.89448   -19.835149    22.020721    45.826801    40.179715 
179088000     282.2788    328.86553    281.36473    -21.61147    21.337438    47.500798    40.180592 
179092000    274.99887    322.72642      265.655   -20.000188    22.257071    57.071421    40.182001 
179096000    279.52402    330.88988    262.19244   -21.396002    21.435016    68.697434    40.183055 
179100000    280.91524    332.16753    294.02865   -20.497573    21.189831    38.138882    40.183028 
179104000     279.4568    322.65057    275.98546   -20.290904    21.164442    46.665109    40.183144 
179108000    276.32706    321.07829      285.305   -19.458537    21.853853    35.773291    40.184161 
179112000    279.87253    322.52871    272.75996   -21.263101    22.945887    49.768758    40.183002 
179116000     285.8642     342.3889    294.79795   -21.698951    20.699787    47.590949    40.183108 
179120000    281.53763    330.46354    288.90506   -21.313812    20.550072     41.55848    40.183053 
179124000     283.3863    323.49106    276.98182   -21.607183    21.839357    46.509241    40.183792 
179128000    283.20767    323.16084    289.12748   -20.559517    21.664509     34.03336    40.185551 
179132000    284.91198    303.50498    298.41756   -20.111047    20.196014    5.0874182    40.183112 
179136000    284.79229    328.23884    276.42955   -21.322333    21.624128    51.809293    40.184241 
179140000    279.67725    319.42099    288.42307   -20.941928    21.600727    30.997926     40.18391 
179144000    280.17151    323.08944     288.1573   -22.047536    21.485527    34.932137    40.181893 
179148000    279.21052    306.73499    274.59437   -20.485778    21.888838    32.140617     40.18169 
179152000    278.72962    309.24105    280.12864   -20.572902    21.914374    29.112415    40.182944 
179156000    277.79079    326.16922    267.10355   -21.889371    22.495277    59.065666     40.18529 
179160000    279.54145     332.3501    269.08802    -23.15521    21.597587    63.262081    40.185508 
179164000    278.69223    337.63532    255.32409   -21.695164    22.743261    82.311225    40.183649 
179168000    279.97614    329.48476     280.5253   -21.372437    22.358808    48.959459    40.184481 
179172000    273.42302    298.63336     279.9836   -20.449817    22.563772    18.649766    40.183587 
179176000    285.23492    341.29902    281.28744   -22.492176    22.337309    60.011581    40.182347 
179180000    275.62591    307.27753    286.65187   -21.058076    22.770171    20.625662    40.182395 
179184000    278.80881    310.32133    283.15337    -20.41292    22.034763    27.167964    40.180641 
179188000    283.45801    313.98647    286.62824   -22.095138    22.034216    27.358229    40.181301 
179192000    280.35053    349.99046    278.68326   -23.830573    22.590959    71.307202    40.180628 
179196000    279.15111    327.91287    269.62472   -22.439783    22.458573    58.288149    40.181394 
179200000    292.91143    347.32275     296.1998   -23.127997    20.315522    51.122951    40.179924 
179204000     279.3215    292.76161    288.96741   -19.024505    21.588043    3.7941964    40.179728 
179208000    273.13431    324.48601    282.48401   -22.214012    22.162442    42.001999    40.180218 
179212000    272.50836    307.33243    282.56035   -20.801977    22.270845    24.772083    40.178267 
179216000    275.83078    329.89246    255.10073    -21.18533    22.923055    74.791732    40.179496 
179220000    276.33202    329.44165    279.94484   -21.462689    21.492303    49.496816    40.180345 
179224000    270.71097    320.15867    274.41166   -20.709455     23.40676    45.747009    40.179459 
179228000      279.201    330.04548    284.09474   -22.050789    23.173545    45.950738    40.179122 
179232000    271.92598    310.81879    263.13678   -19.564186    23.562169    47.682009    40.175829 
179236000    283.76351    330.32802    287.29082   -21.206953    23.380539    43.037204    40.176985 
179240000    278.86842     312.7052    280.27208   -19.578197    23.458626    32.433117     40.17777 
179244000    271.77916    318.97202    265.74384   -20.885518    23.594843    53.228182    40.178953 
179248000    272.73374    304.68013    289.67552   -18.948845    23.004815    15.004615    40.178825 
179252000    284.42927     349.5482    297.26396   -22.403705    22.658959    52.284239    40.176126 
179256000    264.41067    309.40427    265.71953   -21.301933    24.410961    43.684748    40.176536 
179260000    281.94624    332.57663    285.36171   -21.382757    23.406012    47.214918    40.176628 
179264000     288.2473    327.51184    289.40058   -21.756437    22.563851    38.111265    40.176257 
179268000    284.13833    321.21247    303.33293   -21.104436    21.318685    17.879543    40.176613 
179272000    270.72595    312.68678    281.65104   -20.714477    24.260732    31.035736    40.177614 
179276000    276.69735    314.65524    278.78813   -21.034144    23.545901    35.867105    40.178944 
179280000    278.87729    312.04494    291.40076   -20.195066     23.68015    20.644178    40.176354 
179284000    278.10839    333.62333    259.63399    -21.44444    24.269851    73.989335    40.177411 
179288000    278.93128    321.47951    290.25457   -20.519181    23.616315    31.224941    40.178764 
179292000    277.45048    328.71361    291.78795   -20.386942    22.764887    36.925662    40.176811 
179296000    274.90788     319.0305    260.43279   -20.608264    24.439344    58.597705    40.176242 
179300000    281.35865    328.86612    291.63482   -21.249496    23.267772    37.231293    40.175959 
179304000    271.86783    302.80634    270.07641   -19.686059    22.785106    32.729929    40.177173 
179308000    275.84286    335.11247    275.13132   -20.308574    22.758105    59.981154    40.178781 
179312000    280.54304    321.23022    272.22251   -21.556735    24.001957    49.007713    40.178399 
179316000     285.8759    346.32265    292.17175   -21.976785    22.909463    54.150896    40.178855 
179320000    268.88368    295.19474     271.1392   -20.314505    24.636554    24.055542    40.179543 
179324000    274.13425    296.30913     272.4194    -21.16481    25.138429    23.889731     40.17929 
179328000     279.3927    329.16471    282.96385   -21.648994    22.878556     46.20086    40.178652 
179332000    281.59434    345.14919    282.22749   -21.783112    22.766455    62.921702    40.176721 
179336000     273.3596    299.49264    285.79454   -18.878537    23.290992    13.698099    40.176549 
179340000    281.01849     330.1358    275.26477   -20.848399    23.826575    54.871029    40.176853 
179344000    279.56393    337.90582     279.4734   -21.146424    23.878049    58.432419    40.176746 
179348000    277.69886    332.04461    275.63771    -21.87321     23.66962    56.406903    40.176405 
179352000    270.97479    326.45374    270.06474   -20.731847    24.356483       56.389    40.177706 
179356000    271.66026    329.55933    261.65079   -21.286764    24.242365    67.908543    40.179146 
179360000    272.22744    322.76797    261.49041   -20.900714    24.618239    61.277556    40.180496 
179364000    272.96183    320.17801    269.60651   -21.962237    23.946917    50.571499    40.180726 
179368000    277.94254    330.50007    274.10852   -22.074093    24.538763    56.391558    40.180235 
179372000    282.25566    323.67155    305.62576    -21.59351    23.085528    18.045784    40.181807 
179376000    271.75043    323.43241    275.55046   -21.450238    24.740036    47.881945    40.183024 
179380000    286.65448    334.36878    289.27404    -22.40654    23.769619    45.094744    40.181391 
179384000    271.54081    295.34928    278.55777   -19.773407    23.663112     16.79151    40.181124 
179388000    266.08589    308.83945    250.01519    -21.17641    25.557302    58.824253     40.18013 
179392000    282.71107     342.6778    283.94845   -21.350843    23.533478    58.729349    40.181629 
179396000    282.36019     319.1598    295.74196    -22.09801    22.056111    23.417842    40.181636 
179400000    270.24988    313.47588    258.28845   -22.020964    24.176916    55.187429     40.18329 
179404000    290.63372    350.41689    306.87896   -23.106691    21.404709    43.537924    40.181747 
179408000    274.82821    308.73432    278.40386   -22.381574    23.174357    30.330458    40.183492 
179412000    284.31034     309.6436    290.38439   -21.586818     22.85303    19.259213    40.183878 
179416000    275.40654      302.774    279.05575   -21.584942    23.876516    23.718245    40.184202 
179420000    281.19412    334.12574    284.14089   -21.746569    23.087293    49.984851    40.186678 
179424000    277.05896    308.13449    286.98536   -20.768745     22.50276    21.149123    40.186341 
179428000    268.11167    313.74584    257.96787   -20.204431    23.954987    55.777969    40.187906 
179432000    281.10586    335.70132    281.19318   -21.225891    23.014095    54.508133    40.189481 
179436000     282.5956    322.30239    298.78906   -21.474973    22.575086    23.513334    40.188196 
179440000    274.12707     327.5085    266.92923   -22.593497    24.165849    60.579279    40.188464 
179444000    268.04612    291.75899    282.21078   -20.850165    23.006827    9.5482104    40.188234 
179448000     279.0169    310.28137    311.64779   -20.267843    20.776452   -1.3664193    40.189077 
179452000    278.13592    330.62873    272.89605   -20.869382    22.765598    57.732687    40.188495 
179456000    276.11097    302.11894    292.71764   -21.329927    22.196711    9.4013041    40.188918 
179460000    269.83691    298.22416    274.77793   -20.724242    23.403169    23.446235     40.18729 
179464000     277.7262    326.89322     276.2868   -23.016367    22.233573    50.606421    40.187036 
179468000    274.86358    314.83454    271.26951   -23.181858    23.528575    43.565033     40.18632 
179472000    275.89853    320.52823    280.24968   -22.881781    22.451086    40.278549     40.18502 
179476000    290.02988    345.37344    284.48162   -22.529473    23.273813    60.891814    40.183963 
179480000    276.20142    331.26908    270.57927   -21.376632    24.087152    60.689809    40.186239 
179484000     276.6772    318.73974    290.11603   -23.082255    23.274515     28.62371    40.185065 
179488000    277.43036     310.7559    258.28798    -22.25452    24.830636    52.467916    40.185502 
179492000    282.77498    323.23391    297.24959   -24.688741    23.169934    25.984319    40.184789 
179496000    277.53925    310.80729    283.32273   -23.173522    23.747849    27.484566    40.186386 
179500000    281.79842     304.2763    283.44644   -22.061317    23.312947    20.829864    40.186791 
179504000    271.72568    291.40195    283.65521   -19.927905    22.565407     7.746743    40.185199 
179508000    268.94033    284.99408    270.81639   -19.793333    22.534434    14.177695    40.186021 
179512000    281.65385    347.05067    289.16758   -22.551839    23.557942    57.883091    40.184192 
179516000    288.69584    342.18451    277.05173   -23.967866    23.848395    65.132781    40.184387 
179520000    275.54161    309.16575    298.99046   -21.905197    22.918569    10.175292     40.18588 
179524000    269.75777    319.97683     283.9974   -21.772061    24.576503    35.979438    40.186277 
179528000    275.86578    312.52997    290.78539   -21.402438    23.556222    21.744577    40.187194 
179532000    277.69065    314.89646    285.26362   -20.924619    23.379477    29.632844    40.186465 
179536000    269.33546    292.56367    266.15519   -19.705617     24.65022    26.408476    40.186016 
179540000    274.95015    326.53421    285.03926   -21.922877    24.176844    41.494951    40.185383 
179544000    276.29724    286.88217    289.36597   -20.044005    22.927152   -2.4837984    40.185198 
179548000    277.36399    325.02913    277.76213   -21.066396    23.461617    47.267005    40.184116 
179552000    275.76942    325.63332    286.97142   -22.832552    22.448807    38.661893    40.184182 
179556000    276.78559    321.74639    281.37912   -20.684518    22.599712    40.367275    40.186079 
179560000      279.514    328.26815    296.28379   -22.168546    22.440533    31.984359    40.188018 
179564000    276.14193    319.98051    274.49797   -22.464039    24.211528    45.482536    40.187665 
179568000    282.75437    329.11671    288.09378   -22.724012    22.367056    41.022934    40.190082 
179572000    282.77786    341.46057    275.84468   -23.026259    23.342469    65.615892    40.191139 
179576000    268.51134    302.04932    252.93817   -21.847527    23.847459    49.111153    40.190964 
179580000    279.52744    325.64351    292.27955   -23.672139    22.677915    33.363951    40.188978 
179584000     281.1126    325.06736    284.61792   -21.489663     23.36279    40.449446    40.187682 
179588000    272.32381    325.90812    276.49133   -22.638466    23.094568    49.416795    40.186264 
179592000    268.62293    315.78937    265.35809   -23.242311    24.486527    50.431276    40.188109 
179596000    278.71955    317.21032    270.72111   -23.736447    24.443618    46.489212     40.18959 
179600000    270.14527    303.32127    276.08122   -22.480918    23.427943     27.24005    40.189865 
179604000    284.98051    312.27951    310.94173   -21.720905    21.834947    1.3377826    40.189305 
179608000    271.73063    303.42587    272.45135    -21.55176    22.983516    30.974519    40.190156 
179612000    273.55936    302.06219    259.89632   -21.415939    24.477859    42.165869    40.189903 
179616000      281.429    311.29749    287.07088   -21.876239    24.000661    24.226607     40.18958 
179620000    280.28565    319.04481    264.39356   -22.660706     25.85997    54.651253    40.190017 
179624000    277.87547    307.55308    288.01746   -22.352147    23.695527    19.535626     40.19026 
179628000    271.31122    313.13946     270.3704   -23.002134    24.295193     42.76906    40.190738 
179632000    284.45291    324.02253     294.5045   -23.680563    23.904515    29.518027    40.190036 
179636000    289.13413    351.24014    286.50854   -24.043344    23.772594    64.731596    40.191273 
179640000     274.9518    305.01083    286.03102   -22.028955    23.928176     18.97981    40.190968 
179644000     280.5877    321.93944    265.93573   -22.732066    24.575054    56.003708    40.190283 
179648000    275.06299      323.521     269.3389   -22.606325    23.390055      54.1821      40.1911 
179652000    273.81741    314.78092    268.04224   -21.591118     24.09002    46.738683    40.191077 
179656000    272.76837    309.33118    268.89966   -21.816366    25.056388    40.431526    40.189995 
179660000    286.44045    346.21298    286.73712   -23.291523    24.344994    59.475853    40.190494 
179664000    278.46534    309.13801    293.01943   -22.142174    24.171009    16.118571    40.189889 
179668000    273.19962    307.89768    280.58719   -22.103349    23.882982    27.310498    40.191535 
179672000    276.13148    301.02714    285.92855   -21.511611    23.984398    15.098589    40.189422 
179676000    278.37646    328.16798    285.44171   -22.857453    25.189077    42.726266     40.18968 
179680000    270.12201    319.88301    279.71218   -21.923967    23.949621    40.170824    40.191269 
179684000    286.13083    331.25327    297.16674    -23.81179    22.712117    34.086531    40.190738 
179688000    275.57634    305.29907    278.72784    -24.67054    25.165983    26.571229    40.191369 
179692000    270.93358    318.68376    280.61905   -23.354494     25.60506    38.064705    40.190999 
179696000    275.48473    321.10966    273.72448   -23.264175     25.88355    47.385177    40.190728 
179700000    273.77438    318.39432    280.11941   -22.233444    24.930095     38.27491    40.192017 
179704000    280.54112    339.40763    278.18328   -23.694743    25.492319    61.224357    40.191894 
179708000    282.10689    324.90121    276.51447   -22.261416    24.067866    48.386741    40.190417 
179712000    276.91561    310.13486    292.56484    -22.62233    23.668425    17.570022    40.189399 
179716000    271.52511    304.41778     269.8161   -22.645484    26.446798    34.601678    40.188253 
179720000    274.01037    333.52619    267.05669   -23.578279    26.140731      66.4695     40.19105 
179724000    288.13353    326.77388    288.97553   -24.552882    24.453731    37.798356    40.191249 
179728000      280.794    326.13383    269.35789   -24.059353    25.203789    56.775941    40.191454 
179732000    276.12434    324.21972    261.53237   -24.076723    26.192104    62.687341    40.192006 
179736000     282.7924    342.19488    298.87805   -23.654212    23.972564    43.316831    40.191791 
179740000    285.43239     335.7914    281.11967    -24.07041    24.930348    54.671724    40.190861 
179744000     273.8611    302.42028    282.00749   -21.607874    24.911358     20.41279    40.190199 
179748000    274.76739    309.23992      287.009   -22.180295    24.824106    22.230917    40.193255 
179752000    278.09669    320.21984    296.58083   -22.156341    23.385888    23.639009    40.193643 
179756000    281.74235    325.14059    267.00141   -22.013467    24.621799    58.139184    40.193325 
179760000    277.04296    305.18261    278.05175   -21.510382    23.358387    27.130854    40.192334 
179764000    282.21609    313.75499    289.03586   -23.432807     22.84843    24.719135    40.193734 
179768000    289.93117    326.90663    295.58809   -22.590387     23.66443    31.318547    40.194294 
179772000    286.21145    335.36831    286.49972   -22.850275     24.32442    48.868592    40.194612 
179776000    277.77497    311.41111     279.0588   -21.343912    24.182486    32.352309    40.194633 
179780000    270.14197    295.18673    276.90002   -20.871714    24.150283    18.286716    40.196365 
179784000    288.91588    342.92175    298.37065   -23.446611    23.518309    44.551103    40.196744 
179788000    275.09899    314.70131    274.70812   -21.877235    24.279287     39.99319    40.195262 
179792000    282.06215    321.59254    292.15622   -21.256807    23.335049    29.436322    40.195038 
179796000    274.57306    309.63998    282.19323   -20.227228     23.20007    27.446755    40.194116 
179800000    274.51496    304.33637    276.70221   -20.461629    23.393681     27.63416    40.194502 
179804000    275.16613    311.04681    285.82451   -20.340289    23.695605    25.222297    40.193568 
179808000    280.18074    322.85897    272.21507    -21.22066    25.208909      50.6439    40.194484 
179812000    273.21939    320.89658     285.9305   -22.054264    24.249626    34.966077    40.192932 
179816000     273.9259    308.04283    281.80328   -21.160351    24.209831    26.239545    40.193956 
179820000    288.44601    350.84021       300.51    -24.34916    23.385406    50.330212    40.193763 
179824000    276.70101    322.36682    288.38297   -23.175105    24.615469    33.983859    40.192925 
179828000    273.17083    314.41381    288.74887   -23.082666     25.31327    25.664932    40.193319 
179832000    272.00495     315.8315    270.14397   -22.968993    26.254103     45.68753    40.192898 
179836000    278.40103    302.54227    294.25699    -22.15129    24.583199    8.2852797    40.192807 
179840000     276.2372    307.78745    274.45367   -22.934247    26.105026    33.333778    40.192281 
179844000    280.94815    325.79197    296.75255   -22.530102    24.633004    29.039419    40.191004 
179848000    280.72172     316.6458    303.27828   -23.214143    24.231178    13.367524    40.190123 
179852000    276.20787    315.48856    279.49159   -23.603348    25.497132     35.99697    40.188969 
179856000    261.01267    292.03793    265.81884   -20.856372    26.739927    26.219093    40.189011 
179860000    264.87832    316.45896    268.16869   -21.374962     25.43278    48.290274    40.189847 
179864000    273.89247    307.50784    282.06905   -20.807296    24.943466    25.438785    40.188847 
179868000    279.57097    340.03346    278.69694   -24.226045    24.055136    61.336523    40.190199 
179872000    278.62044    326.12789    283.58425   -23.186514     24.79207    42.543638    40.191052 
179876000    267.45006    307.42285    274.04166   -20.635162     25.78746    33.381184    40.190646 
179880000    267.68804     297.8184    275.81094   -21.081672     25.48323    22.007454    40.190347 
179884000    277.67036    321.09414    286.52702   -22.960687    24.980111    34.567127    40.188953 
179888000    275.57996    318.25457     286.1475   -23.177347    25.138554    32.107063    40.188982 
179892000    278.41159    339.76726    286.88677   -24.494779    24.808132    52.880493    40.187483 
179896000    278.66352    354.41026    264.32718   -24.025486    25.672996     90.08308    40.189208 
179900000    267.15554    293.89357    276.41009   -21.800956    25.253243    17.483484    40.188025 
179904000    271.78823    297.46806     277.8599   -22.775133    24.274731    19.608165    40.188239 
179908000    267.94689     302.9302    271.02062   -23.155972     25.25868    31.909578    40.189763 
179912000    266.33067     295.5744     276.6706   -22.704235    24.690341    18.903794    40.188974 
179916000    276.58738    321.18773    281.98204   -24.476077    24.438127    39.205688    40.190696 
179920000    278.86667    302.39629    275.93274   -23.157048    24.769271     26.46355    40.191117 
179924000    278.88696    325.05095    283.29771   -24.634584    25.089793    41.753241    40.192909 
179928000    281.11659    303.00229    305.82897   -24.075632    24.131039   -2.8266894    40.192136 
179932000    281.75098    328.73175    286.43833   -24.676388    23.182263    42.293417    40.192888 
179936000    267.43856    287.36497    289.96855   -22.192282    24.430763   -2.6035834    40.192432 
179940000      277.419    327.55332     280.7072   -24.375212     24.79304    46.846119    40.191956 
179944000    267.60702    321.23096    259.83341   -24.593307    25.643962    61.397542     40.19054 
179948000    273.82654     309.2993    268.40849   -23.703383    24.156765    40.890802      40.1891 
179952000    282.20798    325.71375    290.03057   -25.049774    23.554277    35.683176    40.187199 
179956000    275.73279    311.31545    286.07646   -23.206169    24.779561    25.238989    40.188016 
179960000    282.77812    314.15995    291.84624    -23.32576     24.75332    22.313708    40.189507 
179964000    281.78058    327.22127    284.34187   -24.304401    25.063217    42.879398     40.18896 
179968000    282.16122    323.82616    294.16328   -23.615267    24.715721    29.662879    40.188709 
179972000    273.58345    315.66897    273.88996   -23.950274    25.103772    41.779009    40.187416 
179976000    284.15315    330.08824    275.80924   -24.720088    25.840381    54.279004    40.187587 
179980000    273.76288    329.23603    273.42152   -24.473874    25.687935    55.814506    40.187031 
179984000     271.7032    316.03025    272.13188   -24.296402    25.887157    43.898376    40.186614 
179988000    269.67447    292.14588    279.51706   -22.309743    24.308504     12.62882     40.18594 
179992000    278.81967    329.15582    283.67989   -24.464419    25.412749    45.475924    40.186927 
179996000    270.61488    316.35812    268.26475   -23.202774    25.688985    48.093366    40.189031 
180000000    273.48188    314.57096    284.19898   -23.678523    25.716626    30.371989     40.18685 
180004000     279.1277    315.23265    291.95228   -23.916565    24.449583     23.28037    40.187381 
180008000    282.92549    319.52533    283.40694   -24.512368    23.905118    36.118396    40.185888 
180012000    268.90476    295.26984    272.36857   -23.817751    25.687614    22.901265     40.18689 
180016000    285.82672    343.19229    289.75633   -25.033282    24.315726    53.435953    40.186669 
180020000    281.91924    350.84515    269.94185   -24.285474    25.331669    80.903304    40.186676 
180024000     277.0205    340.56704    272.85125    -23.88597    25.619151    67.715786    40.187326 
180028000    282.94946     326.7546    283.26946   -24.172059    23.626683    43.485141    40.186711 
180032000    282.14541    348.83705    269.42315   -25.029953    26.735488      79.4139    40.187203 
180036000    273.98278    316.25483    272.95665   -24.051124    26.635677    43.298179    40.187559 
180040000    271.23905    299.95377    259.01057    -22.49402     25.91657      40.9432    40.185566 
180044000    281.62094    335.65947    279.87059   -23.354417    25.443958    55.788874    40.185948 
180048000    277.25612    324.97179    279.53605   -22.926942    25.899812    45.435739     40.18766 
180052000     283.7916    316.08217    290.15733   -23.302033    25.630257    25.924847    40.188398 
180056000    274.43189    329.89145    281.41675   -23.129464    24.794316    48.474701    40.188621 
180060000    290.05815    330.82542    298.34781   -23.619289    24.403248    32.477613    40.187488 
180064000    273.32318    324.81544    269.53404    -22.70702     25.19948    55.281396     40.18698 
180068000    281.89062    337.18813    315.06113   -23.616333    23.443378    22.126992    40.185736 
180072000    273.08203    300.11439    270.52567   -21.980509    25.255279    29.588727    40.183937 
180076000    267.03622    298.72799    271.20508   -21.483833    26.097333    27.522909    40.184739 
180080000    277.45767    309.90107    295.56996   -22.541556    25.165036    14.331108    40.184523 
180084000    279.78988    327.33199    289.55068   -23.778823    25.058075    37.781314     40.18505 
180088000     281.3735     336.6382    287.77281   -23.364743    25.625955    48.865382    40.185089 
180092000    272.63582    334.10571     264.4113   -22.988132    25.766256     69.69441    40.184965 
180096000    277.83442    335.57238    272.69658    -23.43741    25.643541    62.875801    40.184201 
180100000      274.654    320.95725    275.96186   -21.185711    26.075497    44.995384    40.184648 
180104000    276.89621    311.87598    286.19444   -23.685419    24.290611    25.681541    40.185021 
180108000    270.83365    301.34125    288.14138    -23.15874     25.73238    13.199867    40.185994 
180112000      272.576    316.29377    279.13078   -22.000921    25.827345    37.162993    40.186812 
180116000    282.90526    344.55215    296.45966   -23.572024    24.750565    48.092493    40.184974 
180120000    278.95172    321.33077    277.90243   -22.930075    25.747183    43.428342    40.184827 
180124000    280.27035    347.44465    280.92626   -23.770455    24.813755    66.518388    40.183366 
180128000    279.37948      338.855    280.06485   -23.856095    25.040856    58.790148    40.185295 
180132000    279.20902    330.01706    285.28042   -22.610928     25.24753    44.736639    40.185452 
180136000    266.50012    295.71931    277.92439    -20.91539    25.669829    17.794927    40.184648 
180140000    276.90945    343.12305    256.97907   -23.028481    25.514136    86.143979    40.183166 
180144000    285.42431    325.24502    283.09691   -22.323939    26.260119    42.148108    40.184385 
180148000    276.97225    305.81887    303.24735   -21.385254    24.482566    2.5715156    40.183529 
180152000    268.41378    302.50037    284.73407   -21.860533    25.300783    17.766303    40.182306 
180156000    275.59644    349.86469      279.497   -23.529627    25.569792    70.367696    40.182243 
180160000    268.73862     306.8673    271.58386   -21.639578    26.077527    35.283447    40.182172 
180164000    270.31305    352.34665    261.36269   -23.060299    26.535013    90.983967      40.1826 
180168000    275.73306    319.73122    291.12097   -22.930666    24.809119    28.610257     40.18234 
180172000    267.11658    313.76091    284.52846   -21.621937    25.787387    29.232457    40.181583 
180176000    276.43182    324.46007    307.78825   -22.844799    25.941479    16.671824    40.182597 
180180000    261.47167    312.49161    254.05575   -22.347315    27.695804    58.435852    40.182843 
180184000    276.88464    330.87483    287.68603   -23.673421    25.381308    43.188799    40.183369 
180188000     278.4944    337.84103    306.46897   -22.994566    24.957739    31.372064    40.182703 
180192000    270.04333    298.02804    288.19217   -21.615649    25.902562    9.8358735    40.181491 
180196000    274.57826    328.23828    268.34595   -23.377744    26.066012    59.892334    40.181501 
180200000     282.9867    343.44154    299.04452   -24.150065    26.055925    44.397016    40.180368 
180204000    267.62457    316.87224    280.44649   -22.416321    26.969553    36.425749     40.17988 
180208000    268.07123    312.43003      263.352   -23.381552    27.560293    49.078023    40.179973 
180212000    267.93672    310.65115     282.5426   -22.813912    26.005006     28.10855    40.179381 
180216000     274.6583    327.66066    274.53543   -23.411587    27.355472    53.125235    40.179166 
180220000    264.62586    298.58385    262.59254   -21.254464    27.074272    35.991304    40.178924 
180224000    261.41648    299.57339    280.10275   -20.760135    26.892898    19.470636    40.178814 
180228000    268.80949    330.31311    287.59469   -23.634539    26.593779    42.718422    40.179739 
180232000    275.31385    333.07111    280.54297   -23.256055    27.004637    52.528137     40.18028 
180236000    277.45934    330.38514    292.52625   -23.974708    25.816581     37.85889    40.181043 
180240000    274.72335    345.11581    261.49349   -23.934367    26.672502    83.622317    40.181596 
180244000    273.68963    317.28188    302.68014   -23.084944    25.314225    14.601734    40.180909 
180248000    268.84183    323.94434    282.00633   -21.490164    26.515667    41.938014    40.181027 
180252000     279.9348    333.49723    290.44144   -22.365775    25.275454    43.055787    40.183087 
180256000    270.92441    325.41195    286.63694   -21.361465    26.279522    38.775012    40.183899 
180260000    276.29001    329.45833    291.20598   -23.033762    26.290738    38.252359     40.18515 
180264000    263.37402    311.16441    271.08653   -21.420924    26.165623    40.077885    40.184338 
180268000    271.18177    321.85419    275.13415   -22.324744    27.226124    46.720044    40.184402 
180272000    274.46447    322.65746    298.54484   -22.089596    26.520796    24.112623    40.185141 
180276000     276.8982    340.65686    271.16306   -23.507035    27.092024    69.493798    40.184788 
180280000    266.92799    325.30158    255.35295   -22.632593    27.930645    69.948624    40.184891 
180284000    268.38516    305.27736    286.06903   -21.520686    26.205997    19.208331    40.185517 
180288000    268.62109     300.0369     263.6637   -21.888487    27.910757    36.373197    40.184595 
180292000    277.35004    327.02078    275.44742    -24.29739    26.388478    51.573364     40.18443 
180296000    278.83739    307.47114    282.25667   -23.286984    25.897662    25.214469    40.185121 
180300000    268.03529    299.00854    262.54509   -22.064102    26.776756     36.46345    40.185013 
180304000    268.45442    303.63825    276.93065   -22.210117    25.798757    26.707601    40.186499 
180308000    283.24238    336.94966    296.94474   -24.105837    26.159672    40.004913    40.187337 
180312000    268.60067     288.3621    279.60421   -21.146332    26.265895    8.7578965    40.186767 
180316000    277.11696    335.30198    292.06185   -22.996183    25.795359    43.240127    40.187311 
180320000     280.0379    328.23126    281.29056   -23.585597    26.880963    46.940696    40.188498 
180324000    267.89838     290.9209    289.52054    -22.90396    24.864655    1.4003601    40.189534 
180328000    280.42262    315.69527    280.51405   -23.490514    25.114353    35.181218    40.188234 
180332000    278.88209    324.73075    290.50233   -23.149359    24.631758    34.228426     40.18798 
180336000    279.15657    311.38289    293.02853   -22.717411    24.072881     18.35436    40.187144 
180340000    267.39202    307.84342     262.9813   -22.496791    25.835752    44.862124    40.189007 
180344000    275.19151    308.86327    286.49538    -23.13637    24.989301    22.367887    40.189565 
180348000    265.87473    301.16433    268.93476   -22.838292    25.772689    32.229566    40.188543 
180352000    276.94527    301.52068    283.39382   -24.322669    24.349149    18.126857    40.187603 
180356000    290.20259    330.95059    295.42674   -25.251024    24.053774    35.523845    40.186885 
180360000    277.83621    310.60971    267.04679   -24.074271    25.661276     43.56292    40.187519 
180364000    275.41026    317.36137    275.80672   -22.976691    24.796777     41.55465    40.188487 
180368000    282.38295    334.84806    272.05465   -23.473442    25.455342    62.793411    40.188926 
180372000    277.25137    302.02483    288.03808    -22.24273    24.875691     13.98675    40.191307 
180376000    263.99453    289.67027    271.25525   -22.688465    25.421805    18.415017    40.190512 
180380000    272.08879     298.1043    280.39697   -22.492295     24.41278    17.707334    40.190015 
180384000     274.8736    313.01838    288.24632    -22.91988    25.025611    24.772056    40.190916 
180388000    288.46724     348.4305    299.15277   -24.773874    24.835384    49.277737     40.19143 
180392000    264.62662    279.25297    286.92782   -21.740563    25.897531   -7.6748575    40.190636 
180396000    279.39694    332.66658    283.58227   -23.893977      25.1071    49.084307    40.189469 
180400000    268.90154    302.17745    260.94865   -22.345218     26.21778    41.228804    40.188831 
180404000    276.96067    318.51726    284.56024   -22.048231     25.53064    33.957018    40.189282 
180408000    282.57462    349.21334    283.12739   -24.126324    25.894737    66.085944    40.190083 
180412000    277.17824    299.29502    295.54937   -21.559122    24.359442    3.7456561     40.18845 
180416000    274.50488    320.35543    272.70853     -22.1238    25.441973      47.6469    40.190339 
180420000    271.52129    309.76807    286.66721   -21.501657     25.48401    23.100857    40.189384 
180424000    278.33938    332.93627    274.26872   -22.354576    25.635669    58.667549    40.189087 
180428000    279.72057    343.34943    269.13054   -23.241882    26.138576    74.218891    40.188484 
180432000    279.91581    328.50392    281.61311   -21.904691    25.607131    46.890811    40.187389 
180436000    267.88929    312.83074    258.66325   -21.691666    27.137644    54.167496    40.187491 
180440000    273.41953    324.34118    279.78062   -24.033279    25.998801    44.560561    40.188049 
180444000     274.4802    326.96273    280.34628    -23.05567    25.843055    46.616446    40.187484 
180448000    265.37576    285.05738    279.22738   -20.161252    25.555773    5.8300008    40.187278 
180452000    281.39077    319.05981    288.38321    -22.81453     25.17555    30.676594    40.187413 
180456000    275.21495     323.6654    280.99871   -23.007483    24.295073     42.66669    40.187419 
180460000    276.41889    321.89138    281.07665   -22.775328    24.552911    40.814732    40.187481 
180464000    264.15142    293.29119    267.42215   -21.281996    25.749992    25.869041    40.188585 
180468000    274.86589      324.166    277.89258   -22.369661    24.361783    46.273421    40.188114 
180472000    276.33606    328.44443    283.31306   -23.775585    25.474465    45.131369    40.187775 
180476000    267.06901    293.16263    273.13529   -22.447994    25.319162    20.027335     40.18807 
180480000    271.13311    315.62629    285.30234   -23.026755    25.037966    30.323954    40.187858 
180484000    270.78678    299.67138    278.38448   -22.923099    24.678214    21.286893    40.188396 
180488000    278.67967    331.94644    275.97007   -23.903311     25.15583    55.976372    40.189648 
180492000    274.22207    295.93113    303.33239   -22.598179    23.814615   -7.4012582    40.188953 
180496000    270.84748    313.11878    272.62999   -22.466419    25.558995    40.488791    40.188253 
180500000       279.59    343.88517     287.5591   -24.191201    25.890781     56.32607    40.188685 
180504000     264.1353    301.43858     270.6399   -22.250633    26.194417     30.79868    40.188321 
180508000    271.65824     326.8106    262.20213   -22.907083    26.341483    64.608464    40.187669 
180512000    276.25307    313.39057    279.86276   -22.717234    25.527012    33.527812     40.18665 
180516000    278.93899    317.42612    279.50641   -22.234132    24.901849     37.91971    40.186999 
180520000    266.40227    316.47395    260.17649   -21.797229    26.430443    56.297461    40.188556 
180524000    279.64975    331.31158    272.29618   -22.919092    25.130122    59.015398    40.188432 
180528000    272.54647    320.12151    268.54571   -22.178218    25.662559    51.575799    40.186123 
180532000    267.51444    315.00307    263.71953   -22.080572    26.028401    51.283539    40.186069 
180536000    279.75786    326.94813    293.78018    -21.79891    24.612842    33.167956    40.186236 
180540000    280.06568     331.2063    297.43102   -24.556636    23.958962    33.775285    40.186496 
180544000    283.55529    329.00214    284.60848   -24.406972    25.667212    44.393659    40.184761 
180548000    272.74106    303.26128    272.21432   -24.374922    25.887118    31.046957    40.184136 
180552000    283.29159    324.14459    285.45492   -26.243036    25.414658    38.689669    40.184593 
180556000    270.61099    318.63732    276.49575   -25.387663    24.966757    42.141565    40.184877 
180560000    276.55028     318.7497     269.2638    -23.83617    26.592808      49.4859    40.185605 
180564000    280.78396    331.09406    280.87013   -25.389913    26.318542    50.223931    40.185136 
180568000    278.32227    328.27226    277.76252   -23.706166    26.198042    50.509738    40.185905 
180572000    268.53262    307.85147    273.23135   -23.939567    27.407614    34.620125    40.185186 
180576000    270.88775    339.54435    253.32215   -24.748716    27.306768    86.222207    40.184033 
180580000    274.61057    327.77664    276.37232   -24.934117    26.736944    51.404313    40.181977 
180584000    280.20595    332.45784    279.00379   -26.054008    25.485278    53.454043    40.181079 
180588000    277.46704    323.52713    285.12392   -25.511301    25.919197    38.403209    40.181694 
180592000    288.20509     365.3541    282.15808   -25.937605     25.29357    83.196017    40.182754 
180596000    274.72535    322.64882    272.17274   -22.896539     27.75288    50.476078    40.182381 
180600000    268.08454    325.73157    264.23963   -24.137887    27.221201    61.491941    40.183122 
180604000    274.27916     322.3999    272.92739   -23.783278    26.590837    49.472515    40.184358 
180608000    271.72756    328.77569    271.13583   -25.404366    25.717137     57.63986    40.184014 
180612000    273.21524    318.28457    287.07899   -22.840655    26.285878    31.205573    40.184717 
180616000     277.2546    316.00619    295.25789   -22.791552    25.703223    20.748299    40.185446 
180620000    280.43539     333.3268    289.62942    -23.91125    25.814727    43.697375     40.18357 
180624000    265.42929    309.48143    262.09119   -23.069428    26.821075    47.390234    40.184553 
180628000    279.05059    311.28538    298.66849   -22.916835    25.064268    12.616888    40.183534 
180632000    278.17245     322.2588    279.41067    -24.72008    26.965234    42.848127    40.182158 
180636000    277.45068    346.96722    260.04301   -24.416365    26.883506    86.924214    40.183123 
180640000     271.9883    319.84853    275.29015   -22.646917    26.987669    44.558371    40.183581 
180644000    274.27501    325.94282    277.02869   -23.046874    25.778816    48.914129    40.183222 
180648000     269.8959    315.38116    288.86206   -22.714402    26.382071    26.519101    40.183299 
180652000    267.91477    304.17111    286.23465   -22.551519    25.949454    17.936455    40.183998 
180656000    286.16487    350.46769    284.76349   -23.900657    25.985169    65.704198    40.183348 
180660000    274.37798    311.94636    276.60152   -22.644907      25.7598    35.344844    40.182269 
180664000    277.37545    327.31346    278.86505   -24.871019    25.319883     48.44841    40.183019 
180668000    273.65932    322.05999    282.72969   -23.384665    26.535079    39.330304    40.182301 
180672000    271.01382    322.07682    273.07276   -24.480325    27.600745    49.004058    40.184522 
180676000    278.10519    349.67722    274.50546   -24.981905    26.556915    75.171756    40.184647 
180680000    283.01269    309.86739    291.68832    -23.49866    26.533512     18.17907    40.184295 
180684000    270.98534     292.0138    290.77492   -22.160943    26.415175    1.2388761    40.182179 
180688000    271.29056    320.76574    263.82703   -24.366384    26.825606    56.938713    40.182661 
180692000    274.92145    327.22911    252.00826   -24.385667    26.912673    75.220847    40.183272 
180696000    279.49238    335.17132    264.97799   -25.121802    26.093201    70.193327    40.183824 
180700000    278.46944    336.73827     290.1736   -24.630874    25.613921    46.564677    40.184274 
180704000    281.07337    336.18313      287.882   -24.490045    24.965562    48.301126    40.183585 
180708000    285.09617    342.00904    298.70834   -24.400358    25.333707    43.300697    40.183324 
180712000    273.50334    321.46483    273.63394   -23.769655    26.466127    47.830894    40.183857 
180716000    291.01835    339.45451    314.06573   -24.367486    23.928022    25.388788    40.183393 
180720000    266.48149    301.02076    273.97163   -22.700275    27.434382     27.04913    40.183962 
180724000    279.74432    348.59087     281.9757    -26.35013    26.568924    66.615172    40.183868 
180728000    283.05666     328.1714    295.73466   -25.050814    25.026825    32.436741     40.18283 
180732000    274.12093    329.68907    266.74846   -24.458289    27.669574    62.940605    40.182062 
180736000      277.397    319.71065    305.38467   -24.886059    24.948995    14.325977    40.183682 
180740000    275.66855    325.79453    283.86292   -24.519289     27.13258    41.931603    40.185254 
180744000    272.61846    308.55644    273.33818   -23.279341    27.650807    35.218254    40.185006 
180748000    268.62136    305.74623    274.14236    -24.10571    26.955653    31.603867    40.184884 
180752000    266.70032    289.78864    267.57277   -23.263982    27.375544    22.215866    40.185394 
180756000    268.38771    306.51934    257.82399   -23.488071    28.765775    48.695357    40.186845 
180760000    279.58963    322.70828    292.68174   -25.155259    25.860433    30.026544    40.187437 
180764000    268.84451     296.0014    270.54783   -24.285406    27.629985    25.453566    40.186705 
180768000    281.86587    332.50061    274.05207   -26.225583    26.317502    58.448539    40.187167 
180772000    269.13298    302.30205    272.54274   -24.650554    25.990729    29.759306    40.187656 
180776000    276.53608    308.73376    281.48491   -24.673685    25.967033     27.24885    40.189193 
180780000    275.30498    313.19463    282.86938   -24.924913    26.149965    30.325241    40.188233 
180784000    279.34069    317.53895    284.01324   -24.282737    26.010742    33.525711     40.18984 
180788000    283.08144    335.35824     272.3466   -25.858075     27.33499     63.01164    40.191362 
180792000    275.13597    312.52542     290.7672   -24.394931    25.729055    21.758214    40.190645 
180796000    282.89342    328.66929    280.43271   -25.285066    26.164458    48.236575    40.190386 
180800000     279.2984    319.39464    294.26106    -24.80122    26.134354    25.133586    40.190145 
180804000    279.68478    322.00351    270.01536   -23.396066     26.08326    51.988156    40.189645 
180808000    278.87802    327.27535    281.70856   -24.573137    26.072776     45.56679    40.188043 
180812000    279.37861    315.68796    284.71478   -23.386833    26.645152    30.973181    40.188149 
180816000    278.26865    340.72413    276.55122   -24.334397    27.973114    64.172907    40.189813 
180820000    274.10842    322.19326    268.07317   -23.940617    27.744591    54.120096    40.189118 
180824000     262.5384    294.64383    256.92765   -23.753303    28.342518    37.716176    40.188701 
180828000    280.93436    326.91426    291.13755   -24.514243    26.075286    35.776706     40.18773 
180832000    279.50088    323.62216    276.66613    -24.40231    26.441864    46.956024    40.186972 
180836000     287.0453    331.66427    313.79683    -24.15939    24.842861    17.867444    40.186345 
180840000    272.63099    326.57387    283.34703   -23.765178     26.63169     43.22684    40.187478 
180844000    275.23847    304.26911    291.68352   -23.914754    26.391382    12.585591    40.187097 
180848000     273.1281    328.34338    275.30379   -24.776736    26.617617    53.039587    40.187349 
180852000    280.90672    334.53609    292.08029    -24.94816     27.37801    42.455808     40.18682 
180856000    272.49273    313.43819    272.87762   -24.429324    28.053466    40.560575    40.186989 
180860000    271.81686    331.32208    259.49292   -25.986614    27.415282    71.829163    40.188262 
180864000    274.93325    314.09652     280.4493    -23.88655    27.434058    33.647218    40.187955 
180868000     275.2796    318.04475    288.40346   -24.057291    26.882814    29.641286    40.187428 
180872000    281.66731    324.47557    286.50326   -24.599231    27.231793    37.972308    40.185922 
180876000    273.02254    321.31061    279.70235   -23.912886    27.755818    41.608263    40.183277 
180880000    284.06701    340.36744    291.11802   -24.070799    26.673953    49.249419    40.182332 
180884000    274.99248    303.80594    297.86609   -23.952306    26.039335    5.9398477    40.182171 
180888000    270.79884    307.29923    283.56753    -23.85188    25.929936    23.731696    40.182372 
180892000    272.46618    296.32021    283.31094   -23.406129    26.016358    13.009274    40.182404 
180896000    283.91997    314.69504    300.91009   -23.665566    25.016653     13.78495    40.180449 
180900000    279.47236    324.49119    282.92539   -23.871282    26.197148    41.565802    40.180122 
180904000    280.27281    322.29326    275.63177   -25.421094    26.432343    46.661484    40.180118 
180908000    292.61035    364.10447    288.53746   -27.496482    25.784898    75.567008    40.179356 
180912000    276.55883    331.43097    273.95092   -24.854884    26.956869    57.480048    40.178893 
180916000    279.70828    325.64414    294.34963   -24.251298    26.184336    31.294512    40.178523 
180920000    268.94678    313.80489    264.81694   -23.933291     27.99777    48.987951    40.178373 
180924000    281.33222     323.2636    292.67741   -25.005279    26.094472    30.586188    40.177839 
180928000    278.14096    324.50378     278.6073   -24.274281    27.521376    45.896476    40.178235 
180932000    273.42501    315.69015    287.28336   -23.898858    25.945559     28.40679    40.178066 
180936000    283.53245    339.50352       283.68   -24.672824    26.005922    55.823521     40.17723 
180940000    280.78717    338.08015    299.53471   -25.284672    26.380003    38.545444     40.17779 
180944000    266.58884    305.07924    261.16957   -22.885288    26.449511    43.909669    40.178891 
180948000    276.97202     325.0537    283.66807   -23.696431    25.453764    41.385629     40.18053 
180952000    273.04953    322.39336    277.15646   -23.702228    27.143298    45.236902    40.182738 
180956000    268.81275    313.11714    283.76304   -21.939171    26.686918    29.354103    40.181559 
180960000    259.53743    290.10872    276.54899   -22.170919    27.045894    13.559724    40.180984 
180964000    268.54085    304.10768    279.03061   -22.420008    27.156731    25.077068    40.182298 
180968000    273.21174    333.75838    277.39607   -23.484918     27.01579     56.36231    40.181017 
180972000    269.31577    329.28479    265.47437   -23.289055    27.486343    63.810424    40.181074 
180976000    271.81854    314.59396    281.15057   -23.713842    26.870718    33.443388    40.180165 
180980000    273.35206    314.07129     286.8802   -22.706925    26.767813    27.191091    40.180243 
180984000    261.95259    298.11037    268.47149    -22.29338    27.911588    29.638886    40.180189 
180988000    270.03833    301.90158    289.04612   -21.058623    26.777994    12.855458    40.180536 
180992000    265.40696    302.78488    269.98185    -22.40379    28.480716    32.803025    40.179645 
180996000    281.51581    336.86882    297.53537   -23.366265     25.59684    39.333458    40.179072 
181000000    272.22988    318.87829    282.66625   -23.280794    26.354841    36.212031    40.179309 
181004000    267.82241    305.71004    265.25612   -23.107069    26.246037    40.453928    40.179426 
181008000    286.74767    348.40933    304.76069   -25.380744    25.890749    43.648644    40.180317 
181012000     276.9839    323.34071    298.86678   -23.654268    25.773184     24.47393    40.179603 
181016000    277.34963    299.93167    298.97834   -23.496624    25.552089   0.95333105    40.179843 
181020000    271.93513    310.16684    271.53361   -22.927812    26.998946    38.633232     40.18161 
181024000    275.93028    308.84764    304.92798    -24.35252    26.040752    3.9196515    40.181978 
181028000    270.88776     300.1224    271.43278   -22.757585    26.729254    28.689618    40.180548 
181032000    278.38582     330.9436    270.42183   -25.462809    27.354565    60.521772    40.180203 
181036000    272.23937    301.28674    294.60258   -23.776906    26.031136    6.6841614    40.181277 
181040000    278.46137     297.2918     302.2479   -24.189172    25.742964   -4.9560931    40.181361 
181044000    271.10669     298.7308    283.36491   -23.798174    27.244352    15.365895      40.1812 
181048000    267.48913    303.64131    258.61966   -22.711319    28.615214    45.021651    40.181013 
181052000    273.79158    335.85712    272.54878   -24.754992    27.006721    63.308345    40.182314 
181056000    278.64661    327.20928    275.99335   -25.465977    26.442649    51.215922    40.182252 
181060000    283.25571    335.84548    277.40153   -25.260024    26.315272    58.443948    40.182514 
181064000    272.34289    305.58427     278.2108   -23.397058    25.551856    27.373465    40.182793 
181068000    274.62172    320.20529    280.68383   -23.990809    26.975733    39.521467    40.182325 
181072000    289.89194    363.28264    278.27554   -25.399595    26.904363    85.007098    40.183719 
181076000    263.93516    286.52382    282.17887   -21.956124    26.322314    4.3449514    40.182558 
181080000    279.65958    317.20884    276.03165   -24.415562    25.414582    41.177192    40.183301 
181084000    268.60787    302.08216    271.18641   -24.785685    27.528663    30.895743    40.182546 
181088000    278.21012    303.36022     301.6483   -23.569777    26.295846     1.711923    40.182201 
181092000    278.05027    334.46815    277.63444   -25.235736     27.02211    56.833705    40.181608 
181096000    273.78973    303.76029    281.41247   -23.806412    26.829178    22.347826    40.180368 
181100000    291.14205    348.94794    293.38671   -25.495185    26.221823    55.561223    40.180372 
181104000    274.28666    307.05101    293.77478   -23.264013    26.321695    13.276232    40.178161 
181108000    272.43892    296.36339    289.33575   -23.115634    26.829618    7.0276408    40.177834 
181112000    281.99344     317.2564    290.76692   -23.950729     26.13436    26.489476    40.176545 
181116000    267.26824    300.46985    272.31332   -23.365066    27.474186    28.156523    40.178138 
181120000    269.88943    338.49786    270.44368   -24.108639    27.276625    68.054181    40.179246 
181124000    285.36646    342.70332    291.03676   -25.016219    25.721473     51.66656    40.178555 
181128000    276.05607    316.01207    283.52542   -24.036182    26.083992    32.486651    40.178568 
181132000    269.32268     288.6611    294.72129   -21.691695    25.196383   -6.0601909    40.177561 
181136000    284.56615    340.67857    288.41784   -25.411211    25.710867    52.260731    40.176109 
181140000     282.8337    308.61766    316.74983   -22.698933    24.916401   -8.1321695    40.177505 
181144000    281.07184    329.84436    286.83877   -24.066691    26.493396     43.00559    40.177458 
181148000    267.79035    305.05594    279.77801   -21.582526    26.385271    25.277925     40.17552 
181152000    279.87359    321.68734      293.797   -23.245216    25.874563    27.890338    40.174152 
181156000    274.22631    313.17543    275.04556   -23.497418    25.343899    38.129877    40.174351 
181160000    282.35034    311.64015    292.11081   -24.791838    25.688973     19.52934    40.174802 
181164000    282.25626    333.39826     281.1185   -26.481435    25.864605    52.279753     40.17386 
181168000     286.5175    345.74222    299.08478   -26.369927    26.227158    46.657435    40.173736 
181172000    273.53973      323.966     285.4824   -26.533617    26.153198      38.4836    40.172519 
181176000    274.74174    322.84143    283.20834   -26.016198    26.348721    39.633092    40.171771 
181180000    283.85396    334.44796    287.75332   -25.046474     25.86409    46.694633    40.170155 
181184000    277.72742    304.03033    268.58478   -23.884634     26.66494    35.445547    40.170412 
181188000      269.724    307.07185    266.05451   -23.173363    26.766345    41.017336    40.169672 
181192000    271.05853     312.8877    265.38201   -23.624606    26.608662    47.505694    40.169846 
181196000    277.88369    314.34945    269.30384   -23.834125    26.687618    45.045619     40.16862 
181200000    279.56462     324.4302    283.56969   -25.200416    26.542721    40.860508    40.169585 
181204000    281.32382    304.33944    302.56503   -23.995706    24.210185    1.7744084    40.169669 
181208000    286.53023    354.00403    280.54818    -26.49005     26.89185    73.455845    40.169838 
181212000    284.21523    306.45999    308.09709   -25.454506    26.013478   -1.6371043    40.170182 
181216000    276.88656    322.81916    274.06174   -24.167173    27.457578    48.757419     40.16969 
181220000    278.08954    320.39909    277.88896   -24.793142    27.931951    42.510129    40.170052 
181224000    280.86696     335.9019     287.9483   -25.625824    26.939648    47.953599    40.170369 
181228000       285.17    332.79304    286.00045   -26.040964    27.144409    46.792587    40.168585 
181232000    273.09698    303.90311    270.60794   -24.968369    27.112437    33.295171    40.166001 
181236000    281.28924    308.39968    298.04633   -25.552958    26.007895    10.353358    40.165289 
181240000    268.41462    328.67709    255.52764   -26.811978    28.910603    73.149447    40.164944 
181244000    281.78936    326.78307    287.96289   -25.269483    26.793014    38.820178     40.16493 
181248000    274.38015    329.13916    287.69374   -24.777255    27.454492     41.44542    40.164552 
181252000    276.67001    341.82105    269.75091   -25.689832    28.214295    72.070139    40.164768 
181256000    277.39212    319.31757    290.47292   -23.716406       26.232    28.844652    40.164134 
181260000    293.75638    331.82498    309.74537   -25.603644    26.049329    22.079609    40.164833 
181264000    286.64957    338.00767    291.65666   -25.449725     25.48241    46.351009    40.164953 
181268000    280.66979    327.20487    268.65611   -26.390906    27.180388    58.548763    40.165539 
181272000    277.75581    340.31279    261.43842   -26.533084    27.376233    78.874372    40.164773 
181276000    276.55539    308.16493    266.13287   -25.034642     27.76713    42.032066    40.165043 
181280000     275.7617    326.09341    275.37286   -25.031364     27.28598     50.72055    40.165752 
181284000    285.43393    332.44748    283.97521   -24.927266    26.671131    48.472267    40.164325 
181288000    279.49356     329.1706    276.29562   -24.493709    27.312082    52.874986    40.165755 
181292000    279.94242    321.70682    295.35559   -24.520828    26.815946    26.351228    40.165496 
181296000    279.66661    323.49078    277.15585   -26.421709    26.398785    46.334931    40.166112 
181300000    271.04824    303.47118     279.3044   -24.663461    25.473286    24.166782       40.166 
181304000     277.5838    326.07896    272.41723   -25.635571    26.056941     53.66173    40.164943 
181308000    282.94027    335.07692    285.85777   -25.215991    26.202885    49.219148    40.164955 
181312000    267.59188    299.92823    270.34825    -23.72703     26.68833    29.579978    40.165159 
181316000    283.58448    344.29755     291.5403   -26.518592    26.857322    52.757247    40.165462 
181320000    284.99241    295.77087    298.86592   -23.890683    26.202537    -3.095051    40.164831 
181324000    275.05512    297.93346     307.2427   -24.124145    26.124851   -9.3092414    40.164104 
181328000     277.8698    328.03863    267.90487   -25.820592    27.653579    60.133762    40.165419 
181332000    282.08384    353.16378    266.33393   -28.769346    27.637279    86.829848    40.164725 
181336000    273.03922      316.485    292.06014   -25.196594    25.668805    24.424865    40.163988 
181340000    277.10178    298.53058    293.18097   -24.739368    26.190532    5.3496113    40.163988 
181344000    288.63674    330.21131    298.42487   -26.308052    25.633803    31.786441    40.164669 
181348000    278.76262    334.46249    275.19944   -26.397568    27.044013    59.263057    40.165929 
181352000    285.65799    320.81827     293.2388   -24.719106    26.436654    27.579472    40.165599 
181356000    276.11876     310.0265    278.68168   -23.885279    26.502795    31.344817    40.163806 
181360000     275.6329     319.1369     277.1456   -25.836382    25.446084    41.991302    40.164321 
181364000    287.91829    321.25044    306.89754   -24.801082    24.532978    14.352903    40.165479 
181368000    277.05421    310.26748    292.55616   -23.282236    25.261405    17.711327    40.165196 
181372000    277.86841    329.42994    257.11297   -25.512375    26.182757    72.316974    40.165433 
181376000    281.67696    340.39198    283.60722   -26.428602     25.21174    56.784756    40.164148 
181380000    275.09756    305.03928      289.981   -23.401127    25.530909    15.058285    40.164807 
181384000    279.63858    322.87218    275.45585   -24.156362    25.799757    47.416328    40.164762 
181388000    270.26431    310.26704    263.75777   -25.740359    27.896234    46.509272    40.163539 
181392000     276.4561    313.32682    292.41922   -24.411985    26.147592    20.907605    40.163989 
181396000    280.38181    327.64447     271.9064   -26.006071    26.433434    55.738064    40.164234 
181400000    279.31974    344.85953    265.63411   -26.562723    27.048872    79.225424    40.164701 
181404000    275.88278    325.11108    262.24806   -27.193715     26.79361    62.863015    40.164081 
181408000     288.2929    318.32656    307.99364   -25.444527    25.269347    10.332917    40.163258 
181412000    274.68118    320.11249    259.06405   -25.400376    26.605798    61.048436    40.162603 
181416000    286.41882    341.40729    290.64416   -26.523856    25.304378    50.763131    40.162982 
181420000    272.82109    306.39619     269.3959   -25.135824    27.206508    37.000285    40.163373 
181424000    289.81072    336.00903    288.76907    -26.35737    26.610263    47.239957    40.163086 
181428000    288.17409    329.21476    282.31847   -26.163113    27.063909    46.896299    40.162717 
181432000    274.52278    308.19477    293.03293   -25.376073    27.476293    15.161841    40.163019 
181436000    279.79392    308.10695    271.70295   -25.507279    27.918492    36.404001     40.16404 
181440000    285.91927    339.08879    290.18384   -26.077032    26.250646     48.90495    40.163594 
181444000    279.53451    327.14998    281.82444   -26.480671    26.233259    45.325537    40.165742 
181448000    277.88756    326.83389    266.39274   -26.798963    28.031017    60.441151    40.165453 
181452000    277.22784    317.69291    271.27409   -26.966155    27.525856    46.418825     40.16754 
181456000    267.71035    308.88889     268.5908   -26.019455    28.514134    40.298087    40.169356 
181460000    289.33461    340.48612      292.359   -26.623555    27.137045    48.127117    40.170551 
181464000    286.92537    326.06567    297.25524   -25.599185    27.254258    28.810427    40.172127 
181468000    279.22476    291.00866    297.66768   -24.928169    27.451012   -6.6590192    40.173237 
181472000    272.10881    309.49398    283.03098   -25.979176    27.873751    26.463005    40.170307 
181476000    281.30777    329.71243    283.73009   -26.238092    27.842841    45.982343    40.168485 
181480000    283.13076    317.41213    311.65713   -25.997536    26.608587    5.7550043    40.167442 
181484000    280.07798    322.57495     280.0912   -25.790249    27.360214    42.483751     40.16656 
181488000    276.05412    319.59371    278.33277   -25.547125    28.318238    41.260937    40.166228 
181492000    276.65054    331.79438    266.55419   -26.071714    29.864683    65.240195    40.165872 
181496000    282.04143    349.85218    276.20581   -26.214156    28.441061    73.646376    40.167475 
181500000    282.08397    321.80517    292.48428   -26.675936    26.933085    29.320888    40.167979 
181504000    281.94731    344.05643    286.86578   -27.512524    27.676491    57.190653     40.16712 
181508000    284.27236    327.76928    292.99694   -26.917007    27.858188    34.772335    40.167509 
181512000    278.62779    309.97936    299.52679   -26.002961    27.640809    10.452562    40.167264 
181516000    281.09058    335.09117    282.81827   -27.196382     27.24178    52.272901    40.167908 
181520000    266.77621    298.25327    282.90252   -24.623934    27.539396    15.350756    40.168308 
181524000     277.1898    324.95844    300.46926   -25.706686    26.516673    24.489182    40.166765 
181528000    278.80721    328.27598    289.18323   -24.984301    27.548622    39.092747    40.166654 
181532000    274.35527    326.84741    272.56541   -23.931164    28.764058    54.281998    40.168532 
181536000     260.1443    304.73746     256.3049   -24.234077    28.974407    48.432564    40.168045 
181540000    276.87804    325.94475    293.84537   -23.790002    27.305784    32.099386    40.167705 
181544000    284.37195    316.91638    311.53211   -23.916453    26.634519     5.384267    40.168073 
181548000    265.98526    322.71942    276.85219   -23.455444    28.588755    45.867232    40.167319 
181552000    274.30128    341.10402    285.47117   -24.916779    27.903248     55.63285    40.168823 
181556000    276.93615    338.77808    280.04958    -24.87544    27.933942    58.728507    40.168926 
181560000    268.99325    312.38477    286.01892   -23.757752    28.254514    26.365845    40.169881 
181564000    273.06041    332.36388    272.73802   -24.081163    28.334633    59.625866    40.170173 
181568000    274.45469    324.43758     289.2336   -24.042555    26.537762    35.203979    40.169876 
181572000    268.87097    324.24228     266.9379   -23.724995    28.384018    57.304375    40.169127 
181576000    270.08857    320.71376    273.71943   -24.953086    27.414251    46.994331    40.171573 
181580000    268.02642    319.59709    256.50425   -22.845265    28.399681    63.092847    40.171592 
181584000    274.20355    323.95587    284.98909   -22.632809    27.763903    38.966774     40.17085 
181588000    287.39998    366.86569    298.06429   -26.933942    27.310892    68.801395    40.171264 
181592000    270.92167    302.81636    301.61044   -24.110977        26.62    1.2059216    40.171466 
181596000    267.45479    301.82467    288.72644   -23.164905    27.481998    13.098229    40.172915 
181600000    274.54547    308.40423    290.88772    -23.55316    27.781614    17.516514    40.170858 
181604000    274.49478    320.55632    293.90864   -25.227667    26.188696    26.647683     40.17201 
181608000    272.03759    313.26964    298.84577   -24.780288    27.026161     14.42387    40.170355 
181612000    273.58049     329.3587    281.65671   -24.722984    28.547883    47.701996    40.170047 
181616000    271.40277    317.15416    281.61791   -25.010248    27.774592    35.536247    40.168803 
181620000    265.50473    318.93072     264.8582   -23.781076    28.171174    54.072517    40.168253 
181624000    277.65139    332.06563     293.2183   -24.995214    26.427522    38.847327    40.168911 
181628000    266.59121    296.81103    282.52611   -22.824199    26.860067    14.284915    40.168776 
181632000    271.01413    322.03917    264.02214   -23.920849    29.078196    58.017031    40.166939 
181636000    272.41445    346.35433    280.36557   -24.950829    27.771299    65.988756    40.168148 
181640000    272.89596    340.93741    278.55822   -23.449447    27.621637    62.379192    40.168331 
181644000    269.23408     319.1716    266.24163   -23.395904    27.764555    52.929963    40.168967 
181648000    280.80427    343.54991    279.59672   -24.716356    28.567009    63.953188    40.169134 
181652000    264.89123    314.56891    281.64553   -23.589773    28.662887    32.923382    40.168475 
181656000    276.81068    340.63297    288.30167   -24.228832    27.955404    52.331303    40.168028 
181660000    266.74466    322.72398    272.75411   -24.615963    28.812447    49.969877    40.167656 
181664000     261.4024    317.79995    259.22382   -24.604252    28.844477    58.576121    40.167095 
181668000    282.46817    345.06241    278.86548   -25.280675    28.059302    66.196928     40.16727 
181672000    272.45159    318.28138     283.1789   -23.192979    26.691277    35.102478    40.166762 
181676000    271.47629     317.5125    287.33374   -22.988506    27.429058    30.178759    40.167505 
181680000    270.54769    324.35945    280.66155   -23.310269     27.60539    43.697899    40.167693 
181684000    263.20668    306.00734    265.81596   -22.610017    28.313329    40.191384    40.169006 
181688000    273.58819    331.07859    295.58461    -24.75378    26.907872    35.493978    40.170221 
181692000    261.71007    311.31854    258.06879   -24.572299     29.03626    53.249755    40.169142 
181696000    271.32072    319.62529    289.05209   -24.107318     26.51759      30.5732    40.169897 
181700000    264.98914    304.39002    265.83401   -23.711196    28.737145    38.556007    40.171298 
181704000    271.81673    321.09665    286.77343   -23.191747    27.378178    34.323227    40.169522 
181708000    272.37579    322.87969     272.1511   -23.898151    27.678537    50.728586    40.169719 
181712000    262.10259      316.818    254.03161   -23.156072    28.747697    62.786386    40.169646 
181716000    276.44265    328.42486     285.9686   -24.197578    27.611443    42.456262    40.171198 
181720000    266.39289    312.27271    282.01838   -23.002406    26.838099    30.254321     40.16986 
181724000    276.81445    321.11495    292.64984   -22.816784    26.936347    28.465111    40.169522 
181728000    276.39773    340.51786    280.42911   -24.032681    27.030534     60.08875    40.168972 
181732000    272.75906    331.37952    272.35599   -24.297122    27.938324    59.023527    40.168975 
181736000    270.38103    310.56677    266.30823   -23.528687    29.014671    44.258543    40.169199 
181740000    267.27639    311.16022    290.59851   -23.590306    27.409384    20.561712    40.167612 
181744000    273.75438    331.64255    262.06563   -23.928096    28.328256    69.576919    40.168157 
181748000    268.86978    321.94409    277.95085   -23.355185    28.501465    43.993242    40.168973 
181752000    271.02379      319.935    295.12071   -23.563844    27.936818    24.814289    40.168281 
181756000    264.47999    302.02415    269.77928   -23.107081     28.05755     32.24487    40.168748 
181760000    262.05974    333.49181    268.59962   -24.614196    28.584661    64.892189    40.169135 
181764000    271.62165    327.70964    288.55681   -24.709537    27.243109    39.152831    40.169382 
181768000    262.97994    310.24066    274.66459   -23.113137    27.840629    35.576073    40.169022 
181772000     266.3856    311.98875    260.86667   -23.330834     28.25661    51.122081    40.167584 
181776000    271.27731    334.75648    289.16032   -24.764541    27.164711    45.596158    40.166631 
181780000    269.49415    320.17134    270.50015   -23.698482    27.703879    49.671193    40.166776 
181784000    278.09205     328.3403    282.71226   -22.675108     27.13824    45.628031    40.168147 
181788000    266.54286    303.06211    280.01989   -22.705042    28.768335    23.042225    40.169215 
181792000     266.8263    330.56023    254.01314   -24.673911    29.702271     76.54709    40.169318 
181796000    278.02931    348.79087    269.46953   -25.765228     28.34218    79.321337    40.169621 
181800000    276.11676    336.73748    295.01134   -25.756929    26.975866    41.726146    40.167894 
181804000    268.29034     320.7803    259.78584   -23.770155    28.794078    60.994454    40.167093 
181808000    261.04461    299.98785    296.39282   -21.575578    27.251313    3.5950249    40.165971 
181812000    275.98082    319.54316    308.29578   -23.253749    27.732986     11.24738    40.165647 
181816000     278.5747    339.44411    307.43744   -24.130818    27.720044    32.006676    40.165455 
181820000    265.14368    305.32192    279.92834    -22.14774    28.201191    25.393572    40.165384 
181824000    266.17754    304.34982     298.6849   -22.444002    27.832611    5.6649174    40.164458 
181828000    267.45614    321.35155    266.62033   -22.755929    29.533637    54.731221    40.165869 
181832000    273.52154    328.99821     285.8034   -22.694924    27.390529    43.194811    40.165325 
181836000    275.22614    341.73294    298.04019   -23.223206    27.123726    43.692753    40.165658 
181840000    263.15994    307.79638    256.41005   -21.734383     28.38111    51.386329     40.16582 
181844000    270.97611     320.1856    299.99713   -23.307438     26.41678    20.188469    40.166526 
181848000    269.73365    312.37624    275.04556   -23.073616    27.802019    37.330686    40.166259 
181852000     267.1245    311.87071    270.74756   -22.931055    28.630219    41.123153     40.16639 
181856000    266.42086    318.48021     261.0934   -22.076441    28.135665    57.386804    40.165354 
181860000    268.05922    310.13008     287.8708   -23.021015    26.197465    22.259286    40.167727 
181864000    265.46658    315.58435    273.01668   -23.246504    27.423901    42.567672    40.166607 
181868000    271.63084    323.76133    271.50732   -24.336988    27.952357    52.254013    40.166391 
181872000    267.73063    312.32757    264.46826   -24.143119    27.749857    47.859311    40.168016 
181876000    267.26371    314.26679    270.53463   -24.212177    28.060306    43.732153    40.166988 
181880000    266.62088    307.94708    258.21156   -24.894066    29.382943    49.735521    40.166689 
181884000    273.96479    326.29619    294.50271   -24.620425    27.668238     31.79348    40.166932 
181888000    265.32688    304.90742    265.40366   -23.803089    27.196923    39.503756    40.167641 
181892000    283.28653    323.74953    298.52238   -24.041102    25.794335    25.227152    40.168236 
181896000    263.68441    289.26385    253.87554   -22.567825     28.16681    35.388312     40.16846 
181900000    270.32759    311.01628    289.80858   -23.577081    27.295833      21.2077    40.168446 
181904000    277.37051     334.8078    288.87837   -25.664775    27.804655    45.929422    40.169214 
181908000    268.95886    316.15856    267.90745   -24.447762    28.465446     48.25111    40.169866 
181912000    271.09977    312.40729    293.90784   -24.137139    27.529364    18.499458    40.167817 
181916000    274.71355    312.85548    290.61342   -24.543857    27.630188    22.242066    40.168958 
181920000     277.6613      337.384    275.18315   -25.475269    29.047272    62.200848    40.168833 
181924000    274.72448    323.52178    286.38212   -24.920353    28.431859    37.139656    40.168398 
181928000    281.99744    329.84108    285.14139   -25.100478    28.152433    44.699685    40.168089 
181932000    274.02848    335.32155    287.01275   -24.053551    29.091976    48.308809    40.168063 
181936000    274.47782    293.74194    292.77148   -22.794102    28.039937   0.97046231    40.169304 
181940000    270.76888    314.68329    280.93074   -24.583648    28.505336    33.752545    40.168882 
181944000     285.8763    329.59357    291.76164   -24.483414    28.021473    37.831932    40.169603 
181948000      284.802    324.96138    301.84791   -24.125274      26.9056    23.113473    40.168634 
181952000    270.03297    306.74223    294.13557    -24.84514    27.824944    12.606665    40.167099 
181956000    267.02249    318.61236    263.48364   -25.203554    30.421949    55.128715    40.167921 
181960000    277.91542     339.1605    292.41082   -24.115167     28.83885     46.74968    40.166986 
181964000    277.97436    322.38188    316.64423   -23.627861    26.265042    5.7376421    40.167129 
181968000    267.26377    338.62753    256.15042   -24.963649    28.805556    82.477115    40.166561 
181972000    271.54938    330.96675    275.70148   -25.450586    27.988996    55.265275    40.166439 
181976000    274.08432    321.26243    302.43664   -23.840115    27.125823    18.825787    40.166633 
181980000    270.19319    327.39429    282.18866   -24.175074    29.226547    45.205637     40.16639 
181984000    264.33541    309.43366    271.74221   -22.961153    29.457703    37.691451    40.165886 
181988000    269.37847    325.12462    282.76248   -22.817142    29.723883    42.362143    40.164993 
181992000    270.77581    317.49222    284.72242   -24.117255    30.434495    32.769804    40.165095 
181996000     280.5338    355.42797    298.30738   -26.253649    28.195111    57.120587    40.165569 
182000000    259.13025    309.14946    273.36973   -24.162664    29.734889    35.779722     40.16492 
182004000    266.64507    313.80856    260.93139   -24.101768     29.84734    52.877165    40.165414 
182008000    265.88138    298.24128    285.97898   -23.075333    28.837736    12.262297     40.16471 
182012000     268.9404    318.80664    279.18197   -24.236685    28.792808    39.624666    40.163426 
182016000    272.08555    323.97099    280.19022   -25.143302    27.397487    43.780764    40.162419 
182020000    265.76911      316.784    277.60012   -24.543501     28.98354     39.18388    40.162249 
182024000    278.58382    357.60833    282.22773   -25.848217    28.293634    75.380593      40.1625 
182028000    272.87092    301.33091    309.43737   -23.733164    27.415154   -8.1064607    40.161709 
182032000    275.39337    309.05677    288.78161   -23.606799    28.232303    20.275156    40.162522 
182036000    270.37482    309.58342    282.21326   -24.261768     29.21651    27.370158    40.163344 
182040000    273.95331    327.42731    284.60371   -24.145948    27.890496    42.823607    40.163366 
182044000    273.70359    322.38889    274.06946   -24.856193    28.623253    48.319427    40.162822 
182048000    270.62454    326.75133    273.13604   -24.969196    29.071173    53.615298    40.163318 
182052000    273.65128    311.12325    282.55742   -24.830706    29.167601     28.56583    40.163628 
182056000     267.0249    318.65863    267.31658   -24.597695    29.484968    51.342051    40.164225 
182060000     269.2104    314.81321    282.85661   -23.959047    28.192099    31.956599    40.163524 
182064000    270.83439    325.56998    294.86611   -24.889202    28.113368    30.703866    40.162822 
182068000    276.01943    329.71969    285.12844   -26.253477    28.673683    44.591245    40.162781 
182072000    269.77757    315.87468    274.35086   -24.883819    29.699248    41.523829    40.163987 
182076000    275.97307      321.529    269.96964   -23.525168    29.426912    51.559351     40.16375 
182080000     263.5807    309.30717    279.34455   -23.780586    28.056909    29.962619    40.162328 
182084000     268.4536    314.04169    274.25637   -23.731823    30.389968     39.78532    40.162497 
182088000     279.1707    328.80763    295.41148    -23.86236    28.288265    33.396158    40.162011 
182092000    264.99991    292.28162    277.62697   -22.909773    29.782016    14.654647    40.162444 
182096000    265.82762    290.24701    279.21162   -23.731325    29.824685    11.035395    40.161855 
182100000     281.9526    334.27006    280.88623   -25.870444     28.60963     53.38383     40.16101 
182104000    267.20612     308.0167    268.76472   -23.814132    30.532139    39.251986    40.161461 
182108000    270.41525    321.70085    266.75285   -24.198633    28.946563    54.947998     40.16296 
182112000    280.19775     351.5606    290.25305   -25.437941    28.452601    61.307554    40.164231 
182116000    270.65311    303.52989    293.48767    -23.77393    27.678996     10.04222    40.163287 
182120000    278.91379    339.84822    268.74015   -24.985077    28.576999     71.10807     40.16412 
182124000    272.61202    317.81669    280.11983   -23.267811    28.643443    37.696864    40.164296 
182128000    268.01236    292.53452    282.29113   -23.588001    28.112822    10.243394    40.162848 
182132000    270.91602    311.29942    273.43111   -23.960578     27.88826    37.868313    40.161766 
182136000    276.37408    327.25829      268.101   -24.366793    28.346808    59.157292    40.162592 
182140000    277.71215    324.33053    275.55567   -24.598865    26.473626    48.774857    40.164378 
182144000    273.51845     316.2375    276.06084   -25.118574    27.771636    40.176657    40.165025 
182148000     279.8361     329.7899    271.01834   -26.252936    28.117801    58.771561    40.164533 
182152000    281.99404    312.75877    281.45384   -26.323964    25.710354    31.304928    40.165991 
182156000     279.5838    334.79106    272.17051   -26.187968     27.47985    62.620553    40.166249 
182160000    290.22782    325.25494     311.1369   -25.193398    25.537537     14.11804    40.165938 
182164000    283.66585    341.49604    280.48118   -26.861273    27.285627    61.014864    40.166217 
182168000    271.49469    312.15753    262.46923   -24.809945    29.025565    49.688304    40.167981 
182172000    276.99667    314.20739    270.34028   -24.690472    28.670467    43.867108    40.168134 
182176000    276.72337    318.44055    289.79935   -25.801542     27.34589      28.6412    40.168785 
182180000    272.97533    304.80509    284.74555   -24.670244    27.404799    20.059547    40.168178 
182184000    265.23757    306.09085     271.2087   -25.099916    28.196804    34.882149    40.167848 
182188000    282.17413    314.82122    291.26048   -25.812068     27.18667     23.56074    40.167026 
182192000    274.43148    302.85834    279.72025   -26.545814    28.579626    23.138088    40.166217 
182196000    277.49048    314.49091    283.37006   -26.537217     28.71186    31.120856    40.166393 
182200000    275.68741    323.87047    281.51195    -26.86548    28.887844    42.358519    40.166506 
182204000    274.20152    317.59451    290.75109   -26.190757    28.004035    26.843426    40.165843 
182208000    272.43056     312.8311    284.27689   -26.442993    28.160804    28.554207    40.164548 
182212000    277.00592    300.41164    298.66611   -25.486153    27.332185    1.7455288    40.163596 
182216000    283.21472    328.13051    292.01391   -26.710354     27.63007    36.116598     40.16413 
182220000    276.34838    298.44955    285.80396   -24.779624    27.356436    12.645587    40.163586 
182224000    277.38728    330.64323    277.25992   -25.888612     28.14016    53.383318    40.163439 
182228000    272.85814     305.6059    269.54428    -24.92786    28.702859    36.061625    40.162271 
182232000    272.28305    311.63477    272.06839   -24.893646    27.963267    39.566379     40.16156 
182236000    283.18733    337.22008    274.83549   -26.928725    28.422879     62.38459    40.162533 
182240000    277.01886    317.31992    280.94014   -24.966395    28.839201    36.379784    40.163164 
182244000    265.44733    294.46612     279.4048   -23.801516    28.649743    15.061325    40.162881 
182248000    268.45972     307.3032    281.91296   -24.780149    28.277011     25.39024    40.164085 
182252000    276.64932    325.75476    294.76094    -25.60278    27.471049    30.993824    40.164187 
182256000    273.15547    319.00077    282.77612   -25.396751    28.680954    36.224644    40.165271 
182260000    281.94982    333.09322    296.68918   -24.968747    27.702685    36.404041    40.166651 
182264000    274.02118    331.52999    277.25168    -25.94911    27.610155    54.278305    40.166575 
182268000    279.54345    312.98978    284.45585    -25.32694    27.003979    28.533926    40.167025 
182272000    273.43525    329.80692    279.22922   -25.284366    27.771333    50.577702    40.165736 
182276000    280.73716    321.20996    299.93321   -24.677798    27.171515    21.276751    40.165453 
182280000    280.53704    316.31816    300.19863   -24.652587    26.603593    16.119537    40.166253 
182284000    276.26052    318.82063    291.91792   -24.823775    26.936171    26.902708    40.167349 
182288000    270.27626    298.20308    273.21488   -24.519985    27.168774    24.988193    40.169061 
182292000    271.69976    298.18391    273.22181    -24.18622    27.915002    24.962095    40.167717 
182296000    277.08499    341.70442    267.65699   -25.480452     28.64032    74.047423    40.168832 
182300000    280.37513    320.70393     303.2791   -25.170353    26.870557    17.424829    40.169799 
182304000    271.48586    315.21421     290.4996   -25.970418    27.204439    24.714607    40.170807 
182308000    280.55257    332.51318    284.79977   -27.185778    27.967485    47.713414    40.170779 
182312000    268.28287    313.08738    274.17102    -25.36863    28.481073    38.916367    40.170507 
182316000    273.87825    307.09273    276.52716   -25.417907     28.17091    30.565562    40.170505 
182320000    279.49276    333.93948    273.08347   -25.720934    28.391953    60.856013    40.171151 
182324000    290.03699    319.90307    300.81384   -25.118424    26.559681    19.089232      40.1706 
182328000    279.48079    336.42067    287.71573   -25.722825    26.801612    48.704938     40.17034 
182332000    275.81902    339.19579    267.27899   -26.538796     28.51773    71.916799    40.170532 
182336000    272.75382    322.41653    278.17696   -26.057069    29.177118    44.239571    40.169971 
182340000    271.72176    312.77548    284.70925   -24.997792    27.913834    28.066235    40.169374 
182344000    278.88323    340.76851    282.81876   -27.093401     27.98734    57.949753    40.168895 
182348000     274.4645    326.49743    290.29093   -25.314269    27.448474    36.206492    40.168702 
182352000     266.3966     314.7138    265.93528   -25.055622    28.037931    48.778514     40.16843 
182356000    274.99636     320.2963    278.35308   -26.522714    28.080657    41.943215    40.169413 
182360000    269.01079    324.46506    278.09207     -26.0908    27.864863    46.372989    40.169765 
182364000    269.51798    313.36696    275.16271   -26.211522    27.281586    38.204241    40.166981 
182368000    281.06492    315.85203    282.92903   -26.235133    28.065871    32.923001    40.165698 
182372000    286.03455    302.37285    316.22037   -25.214533     25.93321   -13.847525    40.167181 
182376000    273.46664    333.57554    278.92177   -26.642231    27.984727    54.653775    40.166349 
182380000    273.19694    322.75666    261.40166   -25.191119     26.84298    61.354997    40.167125 
182384000    273.24574    312.91589    269.42639   -25.899896    28.685486    43.489494    40.166547 
182388000    285.00075    340.43804    298.16859   -26.133403    26.011414    42.269444    40.167216 
182392000    284.88566     334.9214    293.06257   -27.066356    26.896966    41.858828    40.166878 
182396000    274.27432    322.86668    285.88914    -26.67272    26.993261    36.977544    40.167315 
182400000    271.62179    301.10157    271.33307    -25.52021    28.488108    29.768497    40.169369 
182404000    277.69876    328.28818    280.49068   -26.093231    27.493527      47.7975     40.16871 
182408000    276.20803    336.03418    259.53156   -26.397387    29.101471    76.502623    40.168102 
182412000     281.1376    343.05735    274.29604   -28.742717    28.079908    68.761315    40.168549 
182416000     286.5564    334.94088    299.23434   -27.627085    26.188395    35.706537    40.169296 
182420000    285.45912    321.09254    290.88427   -26.735591    27.649955    30.208266    40.169105 
182424000    278.18944    338.59041    268.80107   -28.364842    28.708903    69.789344    40.168333 
182428000    284.24828    349.27977    274.00782    -27.89279    28.541565    75.271953    40.168947 
182432000      279.891     329.4865    280.18805   -27.441374    28.062942     49.29845    40.168869 
182436000    283.66556    323.79966    275.07105   -25.952568    27.526715    48.728613    40.169988 
182440000    275.41845    313.80941     264.0297   -26.655159    27.596231    49.779707    40.170596 
182444000    280.10941    297.21149    290.65852   -25.425041    27.313114    6.5529726    40.170872 
182448000    281.37716    329.81107    266.28856    -26.68817    27.956945     63.52251    40.171687 
182452000    281.59273    323.62132    294.10755   -26.880773    26.339839    29.513761    40.173199 
182456000    279.36569    317.31641    272.75604   -26.672304    26.448662    44.560372    40.173535 
182460000    277.34433    315.95157    277.78966   -26.307642    28.253041    38.161904     40.17391 
182464000    272.62571    317.34267    255.22459   -26.094396    29.540012    62.118074    40.172477 
182468000    274.41551    322.25662    283.96574   -25.339907    28.894262    38.290876    40.173677 
182472000    283.62646    343.43963    283.13745   -27.514676     28.10049    60.302182    40.174506 
182476000    285.86182    335.67296    293.90027    -26.84329    26.421324    41.772697    40.175126 
182480000    272.75595    319.62593    264.18809   -26.828331    28.384963    55.437835    40.176355 
182484000    273.85807    306.58657    271.12927   -25.725707    28.215878    35.457308    40.176816 
182488000    281.52197    326.08366    275.28251   -26.766041    27.915338    50.801147    40.175001 
182492000     282.8376    315.99251    297.08712    -26.31336    26.635721    18.905391    40.174917 
182496000    275.54695    307.24863    278.89513   -25.709223    29.546794    28.353503    40.176332 
182500000    273.76309     316.1351    258.83858   -25.503705    29.080771    57.296521    40.176299 
182504000    280.56311    330.56965    268.29247   -27.002856    28.011853    62.277183    40.176833 
182508000    277.01716    323.17343    271.52977   -27.202428    27.709544    51.643652    40.176588 
182512000    267.34937      307.553    258.55407   -26.776378     28.23996    48.998928    40.176208 
182516000    271.65677    289.39371    273.47374   -26.349585    27.845784    15.919972    40.176168 
182520000     280.4065    337.80422    279.92411   -28.290792    28.725532    57.880111    40.177656 
182524000    277.70278    314.34927    292.70597   -26.687236    26.756238    21.643299    40.177085 
182528000    278.35073    307.91942    275.58162   -26.305507     28.96627    32.337806    40.177512 
182532000    285.29309    351.51033    287.40268   -28.550305    27.823407     64.10765     40.17706 
182536000    268.44036    305.02787    271.62252   -25.220364    28.298407    33.405345    40.177708 
182540000    283.19249     313.0632     290.5843    -26.87807    27.329571    22.478898    40.177358 
182544000    275.94968    314.16385    302.71352   -26.287262    26.286532    11.450324    40.178401 
182548000    275.90099    313.20356    280.14775   -25.943514    28.092336    33.055814     40.17875 
182552000    273.83884    333.99675    252.32792   -27.596926    29.542763    81.668832    40.179483 
182556000    283.85505    351.73913    263.09001   -27.980309    28.888762    88.649121    40.179126 
182560000    283.24324    325.86306    289.61799   -27.345112     27.99164    36.245072    40.179136 
182564000    274.28694    289.14057    291.73037   -26.152637    27.854562   -2.5897991    40.177792 
182568000    277.36723    307.15926     302.5096   -25.620639    26.423969    4.6496584     40.17723 
182572000    281.68668    335.86207    272.66783   -27.859404    27.347533    63.194236    40.178615 
182576000    279.85981    314.83088    264.92159   -25.756579    28.120113    49.909289    40.179476 
182580000    283.17764    315.84319    284.69681   -26.668256    27.123364     31.14638     40.17909 
182584000    290.42598     337.5111     309.2943   -28.426051    26.369609    28.216791    40.178085 
182588000    275.68812    298.05142    281.39063   -26.552924    27.501349     16.66079    40.177245 
182592000    277.32078    311.62575    263.33003   -25.879145    29.097453    48.295715    40.177506 
182596000    281.40288    330.38883     294.8081   -28.873843    26.448131    35.580739    40.177652 
182600000    277.41144    318.69335    291.83495   -27.745338    27.926606    26.858405    40.177648 
182604000    279.87827    325.64789    277.91834    -27.37238    29.103873    47.729546    40.177681 
182608000     271.3688    300.65912    269.88392   -26.760975    28.486435    30.775202    40.179605 
182612000    276.04254    310.46472     295.5004   -25.517951    26.685279    14.964321    40.179367 
182616000    270.10524    322.65753    262.26306   -27.034191    29.157177    60.394476    40.179073 
182620000    283.91197    338.04698    285.65702   -27.967743    27.909538    52.389959    40.178991 
182624000    279.80497    312.61441    275.23722   -27.165701    28.717842    37.377194    40.177168 
182628000    284.87808    328.96555    277.64337   -27.879472    27.912081    51.322182    40.176703 
182632000    287.82478    329.60933    303.28031    -27.77901      27.2875    26.329022    40.178013 
182636000     275.6128    330.10561    272.40397   -27.342551    28.415939    57.701639    40.178181 
182640000    283.08323    335.21118    262.86444   -27.829972    28.318332    72.346747    40.178465 
182644000    276.88593    302.70796    290.38569   -26.800177     27.44988     12.32227    40.178603 
182648000    273.99066    332.17524    278.28603   -28.216212    28.236954    53.889216    40.179053 
182652000    281.84134    315.98356    287.08787   -27.106331    27.897394    28.895685     40.18008 
182656000    280.70374    315.33418     286.1277   -26.349289    28.845504    29.206481    40.181794 
182660000    281.39734    319.44651    297.57899   -25.974094    27.813898    21.867522    40.181379 
182664000    280.44136    348.41602    270.75159   -27.951792    28.915871    77.664431    40.180519 
182668000    269.96016    308.22201    293.42007   -26.431958    29.189164    14.801932    40.180822 
182672000     272.1861    283.44311    294.21309   -24.392008    28.188136   -10.769979    40.181006 
182676000    276.06705    323.65054    293.55453   -26.176268    28.006852    30.096007    40.182009 
182680000     276.5352    319.08671    281.79749   -26.645875     28.73766    37.289221    40.181355 
182684000    271.27414    319.98669    277.25376   -27.043486    28.297065    42.732931    40.181857 
182688000    269.91989    316.24993    257.25023   -25.367448    29.775861    58.999703    40.182031 
182692000    277.75026    315.71512    294.20101   -25.877933     28.70239    21.514118     40.18225 
182696000    265.77298    284.95432    276.59525   -24.297915    29.173812    8.3590734     40.18247 
182700000    275.15811    325.38806    275.98086   -26.924541    28.784259    49.407208    40.184149 
182704000    284.28883    341.82945    286.55283   -26.941916    28.668476    55.276615    40.184127 
182708000    281.61066    338.13876      301.504   -26.578639     28.06457    36.634764    40.183465 
182712000    273.80356    306.05949    272.17447   -26.373728    29.790014    33.885017    40.183486 
182716000    274.73342    323.78497    275.44584   -25.909261    29.879456    48.339134    40.184466 
182720000    277.90228    318.61593    290.36759     -26.2762    29.100957    28.248333    40.184026 
182724000    277.70758    326.39011    276.38593    -25.75581     28.70714     50.00418    40.185056 
182728000    283.59898    335.14375    295.55305   -26.920915     28.29289    39.590705    40.185793 
182732000    282.02441    346.47409    269.19212   -26.882323    28.891716    77.281964    40.186246 
182736000     265.0244    302.65706     255.1978   -25.577031    30.054349    47.459261    40.185969 
182740000    271.82209    311.98756    282.88159   -24.634361    28.284656    29.105973    40.187586 
182744000    274.36377    320.97298     268.5169   -25.529731    28.987618    52.456082    40.187406 
182748000    266.28517    315.08872    276.48177   -24.965574    28.830045    38.606949    40.187632 
182752000    270.98441    306.75625    284.32174   -25.557591    27.698703    22.434508    40.186972 
182756000    270.68624    302.77096    279.78401    -26.08907    28.493166     22.98695    40.187148 
182760000    270.82167    290.60875    285.06951   -25.070518    28.221214    5.5392356    40.187089 
182764000    267.20258    312.63198    262.18211    -27.63978    29.714755    50.449869    40.186633 
182768000    277.58541    321.15905    278.10328   -27.336019    28.009002    43.055767    40.186575 
182772000    277.37215    321.15877    297.61163   -27.743236    27.096963    23.547136    40.186529 
182776000    270.53497    289.49783    285.42838   -24.446921    27.969604    4.0694535    40.186973 
182780000    288.16508    351.04634    283.94765   -26.989577    28.249369    67.098688    40.187791 
182784000    274.41669    298.84332    293.16919   -24.859048    27.777075    5.6741344    40.187561 
182788000    268.08086    287.57161    284.70417   -24.678425    28.690256    2.8674355    40.189299 
182792000    277.10532    320.79217    286.28522   -24.621646    27.496099    34.506954    40.189859 
182796000    271.05867    312.67834     278.1103   -24.335035     27.90083    34.568042    40.190696 
182800000    270.61084    320.39675    281.32789   -26.065558    28.778483     39.06886    40.189609 
182804000    280.95509    340.47457     287.8589   -25.872297    28.318468    52.615669    40.188333 
182808000    265.54326    325.88906    264.73545   -25.481178    28.402813    61.153619    40.188047 
182812000    279.10764    315.24394    284.45077   -26.456513    27.433018    30.793178    40.187854 
182816000    287.24512    320.64797    298.98549   -25.289818    26.920296    21.662487    40.188194 
182820000    285.74943    347.32292    280.12788   -27.881271     28.60154    67.195042    40.188675 
182824000    279.51083    344.20707    273.84701   -27.115104    28.147672    70.360062    40.187569 
182828000    280.09527    333.65237    266.34087   -26.831229     28.69569    67.311496     40.18758 
182832000    269.60029    297.57491    268.12961   -24.195865    27.922319    29.445309    40.186359 
182836000    272.22448    302.28725    282.75885   -24.693804    27.591259    19.528402    40.185483 
182840000    276.79949    317.36494    290.48903   -25.186149    27.268826    26.875907    40.186067 
182844000    275.88984    320.62915    289.28938   -26.959542    27.638912    31.339771    40.186171 
182848000    278.80284    324.87082    270.46501   -27.448303     28.96449    54.405809    40.185136 
182852000    274.12769    329.72309    253.71665   -27.778448    29.488809    76.006437    40.184031 
182856000    277.40747     330.9716    258.94005   -27.114795    29.167745    72.031549    40.183413 
182860000    276.41442    325.18272    268.88889   -27.252857     29.47279    56.293824    40.184474 
182864000    289.31217    339.04808    288.82138   -28.901306    27.443025    50.226701    40.184741 
182868000    276.43686    324.38453    272.85096   -28.745961    28.680143     51.53357    40.184042 
182872000    279.99904    326.44325    293.50234   -28.397714    27.613779     32.94091    40.185009 
182876000    288.41739    335.96316    306.03766   -26.603267     26.90508    29.925504    40.184606 
182880000    284.05392    337.89738    270.46269   -28.018588    28.352637    67.434685     40.18502 
182884000    275.93792    320.69163    267.58771    -27.07582    26.922658    53.103919    40.185081 
182888000    281.73893    319.42144    293.28215   -27.922524    27.704304     26.13929    40.185533 
182892000    279.58629    320.76157    283.64899   -26.925223    27.735281    37.112584     40.18606 
182896000    275.24637    310.23805    275.50265   -26.546388    29.140536    34.735398    40.185634 
182900000    274.55364     311.4845    277.59138   -25.952683    28.744256    33.893125    40.185366 
182904000    281.69877    318.29902    276.01202   -25.667552    28.615802    42.286996    40.185758 
182908000    265.37822    306.09333    271.14261     -25.4278    28.945514    34.950721    40.185902 
182912000    284.71134    315.33853    284.59823   -25.515415    27.796136    30.740302    40.185089 
182916000    270.08048    301.24029    285.74037   -25.318865    28.660266    15.499924    40.184783 
182920000     278.7819    351.76124    266.67355    -27.23038    30.012867     85.08769    40.185979 
182924000    267.69831      298.059    273.11003   -24.621149    28.879855    24.948972     40.18522 
182928000    274.19794     293.3293    297.63435   -23.786163    27.776717   -4.3050458    40.184398 
182932000    271.20146    309.53275    270.35932   -24.867895    29.298121    39.173433    40.183955 
182936000    270.14913    318.58761    270.29194   -26.302058    30.461757    48.295672    40.184934 
182940000    271.26914     331.1705    269.15688   -26.908443     30.32266    62.013616    40.185766 
182944000    268.73458    320.04353    282.52912   -25.739877    29.468441    37.514409     40.18547 
182948000    271.85228    338.81635    286.05156   -27.752659    28.621589     52.76479    40.184422 
182952000    272.44727    320.80023    283.04551   -27.281524    28.913052    37.754722    40.183071 
182956000    269.95289     296.9015    283.76007   -24.310887    28.469333    13.141431    40.184022 
182960000    274.58285     319.7673    285.74984   -26.779083    29.312136    34.017464    40.183737 
182964000    280.06882    338.81516    286.37946   -27.329831    28.669548    52.435702    40.184428 
182968000    277.15998    309.32616    287.12181   -24.669588    28.727168    22.204349    40.182767 
182972000    268.97057    316.08634    268.42303   -26.819657    29.208573    47.663309    40.184819 
182976000    283.23348    344.59069    297.47115   -28.144336    28.116059    47.119535    40.184632 
182980000    279.02554    331.26858     267.5313   -25.710258    29.928567    63.737285    40.184627 
182984000     268.5652    293.57054    280.36446   -24.440785    29.538865    13.206074    40.184116 
182988000    274.06481    317.34518    273.40232   -26.462573    28.875258    43.942864     40.18412 
182992000    275.62011    335.71025     276.6225   -27.456171    29.321227    59.087747    40.183922 
182996000    270.39963    313.79057    264.82645   -27.332297      29.9947    48.964119    40.184071 
183000000    273.64878    317.03882    273.67068    -27.11959    30.569124    43.368146    40.183796 
183004000    277.49464    338.73044    276.33059   -27.836342    29.866014     62.39985    40.183669 
183008000    269.28829    314.35409    263.69838   -27.267645    31.177674     50.65571    40.182755 
183012000    284.26219    319.56647    311.27648   -26.776311    29.742606    8.2899884    40.183427 
183016000    273.99417     327.0783    252.30046   -27.444188    31.809194    74.777842    40.183722 
183020000    268.18807    312.48533    277.56774   -27.499655    30.169004    34.917595    40.183341 
183024000    281.69577    330.59676    280.94457   -28.195992    30.133474    49.652193    40.184108 
183028000    274.60311    322.71485    282.28589   -26.989986    30.132992    40.428959     40.18442 
183032000    274.35295    309.20925    289.58784   -25.723506    31.009232    19.621415    40.184669 
183036000    279.21138    327.71486    296.29152   -26.841872    30.157947    31.423342    40.184745 
183040000    274.95434    328.96788    263.79351   -27.564893     31.74979    65.174379    40.184792 
183044000    274.85258    324.69718    272.99562   -26.381221    31.556722    51.701562    40.186312 
183048000    282.34745    330.34238    284.91556    -27.42897    30.020706    45.426816    40.185704 
183052000    262.89484    316.53453    250.46593   -27.400001    31.918849    66.068609    40.186241 
183056000    268.82833    323.42247    256.32767   -27.873183    31.959678    67.094803    40.187097 
183060000    280.66369    329.38085    294.17113   -27.755888    29.536721    35.209721    40.185971 
183064000    272.91777    319.72151    283.29642   -27.303156    30.733641    36.425084    40.185666 
183068000    278.20532    324.41495    274.66724   -28.055055    30.905754    49.747708    40.185098 
183072000    279.80198    343.12045    278.72791   -27.732701    29.998913     64.39254    40.184828 
183076000    277.17196    345.56883     278.5291   -28.032588    30.818676    67.039728    40.183902 
183080000    279.37771    317.92539    296.14497   -26.119277    30.227418    21.780423    40.183989 
183084000    272.60047    335.26697    277.41515   -26.955892    31.195452    57.851822    40.183577 
183088000    268.43837     301.5924    288.46904   -26.073174    29.872824    13.123364    40.183879 
183092000    269.81149    322.91786    277.72091     -27.5059    31.032806    45.196946    40.184198 
183096000    275.72534    320.67068    281.58916    -26.64297    29.609503    39.081513    40.184913 
183100000    271.92925    324.34454    264.01526   -27.188704    30.198067     60.32928    40.184769 
183104000    273.67523    315.14169     272.1634   -26.338566    29.468505     42.97829    40.185035 
183108000    273.25442    347.81356    271.82718   -26.451296    29.758496    75.986376    40.186152 
183112000    273.21156    313.76889    270.76185   -26.417227    29.398442    43.007039    40.186086 
183116000    270.73447    306.63939    269.33798   -26.544132    29.388368    37.301409    40.185325 
183120000    269.91822     306.5132    265.73981    -26.40426    30.734389    40.773389    40.184694 
183124000    273.04362    325.67047    272.87679   -26.965675    30.135249    52.793687    40.186042 
183128000    282.06764    340.01089    296.91031   -27.277004    29.192743     43.10058    40.185911 
183132000    278.46483    327.23792    297.36148   -27.518538    29.062856    29.876442    40.186288 
183136000    261.23238    290.18594     275.1498   -25.194672    30.541623    15.036135    40.185402 
183140000    268.31407    296.28734    272.14618   -25.857652    29.455731    24.141158    40.186693 
183144000    275.01476    323.57806    283.67794   -26.783016    30.415741    39.900119    40.188563 
183148000    270.00743    300.35905    258.41127   -26.628307    30.663172    41.947782    40.188943 
183152000    271.65862    311.70451    279.40211   -27.449729     29.66291    32.302404    40.188546 
183156000    275.78419    315.13055    283.81857   -27.965746    29.052481    31.311981     40.18759 
183160000    280.36194    312.52188    311.38209   -25.357514    28.024348    1.1397892    40.186066 
183164000    271.84924     305.0557    281.02583   -27.167868    29.315104    24.029868    40.185841 
183168000    277.15575    308.88906     291.7564   -27.151881    27.776763    17.132657    40.185831 
183172000    284.85858       314.68    305.96695   -27.166684    28.409663    8.7130535    40.185198 
183176000    274.60552    327.45623    269.58836   -27.552941    30.098474    57.867875    40.183828 
183180000    276.62831    334.13967      275.464   -27.520182    30.438749    58.675664    40.183371 
183184000     268.6404    318.68926    273.96843   -27.020944    30.807671    44.720833    40.184342 
183188000    275.53854    292.92595    293.14829   -25.557641    28.010758  -0.22234697    40.183061 
183192000    273.15112    306.83174      282.655   -26.182643    29.740803    24.176732    40.183838 
183196000    271.89064    318.96665     267.6196   -26.432045    29.354811     51.34705    40.183976 
183200000    273.87553    316.49266    285.75447   -26.442958    29.385307    30.738186     40.18543 
183204000    280.42374    331.66046     289.8998    -25.86528    28.375361     41.76066    40.185886 
183208000    277.95241    323.57684    269.14618   -27.994536    30.075615    54.430652     40.18717 
183212000    276.59224    313.42159    284.63735   -26.561668    28.980066     28.78424    40.187687 
183216000     277.3853    306.12561    298.68598   -27.807166    27.069123    7.4396274      40.1869 
183220000    277.09534     321.0143    247.41818   -27.065197    30.031079    73.596118    40.187629 
183224000     274.2133    323.70408    276.89392   -27.923087    28.508551    46.810158    40.187565 
183228000     273.9445    343.38893    267.41611   -28.247832    29.379537    75.972821     40.18752 
183232000    285.08136    329.44634    309.21466   -27.901052    28.405721    20.231679     40.18776 
183236000    277.33243    318.13175    282.35175   -28.235693    29.765166    35.779999     40.18774 
183240000    292.75991    324.86687    310.34907   -28.701061    27.964469    14.517802    40.187209 
183244000    276.62555    306.96305    287.70401    -26.59276    28.637589    19.259033    40.185517 
183248000    281.52994    312.88084    297.39475    -27.62278    27.798798    15.486095    40.186078 
183252000    285.55271    321.04913    291.43511   -28.242161    28.627009     29.61402     40.18576 
183256000    275.61877    330.45017    263.46347   -28.467937    30.293574    66.986693     40.18568 
183260000    277.92769    324.99628    274.49275   -27.375912    29.962767    50.503528    40.186192 
183264000    284.67973    333.51427     276.7287   -29.160233    29.308147    56.785569    40.185319 
183268000    279.51151    315.05339    291.78715   -27.911002    28.939305    23.266243    40.185478 
183272000    273.81948     311.1953    266.46795   -27.904606    30.648203    44.727353    40.184078 
183276000    281.30469    334.29698     296.4049   -27.490644    29.661003    37.892085     40.18404 
183280000    286.10653     349.2458    270.63356    -29.83991    28.967731    78.612231    40.184655 
183284000    269.36069    295.93566    285.96807    -25.89932    29.030907    9.9675898    40.183048 
183288000    273.61484     311.4867    272.13517   -25.439511    30.252713    39.351529    40.183446 
183292000    274.57568    306.29231    288.71373   -26.733484    29.413593    17.578577    40.182815 
183296000    281.25969    323.38489    292.68457   -27.658498    28.353943    30.700326    40.182417 
183300000    282.14411    327.80767    304.35309   -26.682493     28.46381     23.45458    40.181821 
183304000    276.93201    320.68662    290.06027   -26.489098    29.242199    30.626352    40.181207 
183308000    273.41197    300.79278    291.56064   -26.629032    30.300547    9.2321477    40.180239 
183312000    263.39752     326.9921    262.79047   -26.520359    31.065017     64.20163    40.180042 
183316000    273.14096    308.81462    284.15973   -26.988548    29.239277    24.654894     40.18069 
183320000    279.44199    337.82825    284.43279   -27.528473    29.218518    53.395455    40.179699 
183324000    266.92363    312.97301      273.207   -25.394986    30.387361    39.766014    40.178712 
183328000    277.90189    328.93322    276.89347   -27.757134    30.382042     52.03975    40.178575 
183332000    273.96735     329.4649    266.57898   -25.448493    30.368513    62.885921    40.178946 
183336000    269.53331    317.08273    266.79147   -26.970189    29.952919    50.291267    40.180049 
183340000    288.18922    348.86232    293.85597   -26.759186    28.160781    55.006354    40.178133 
183344000    261.99584    311.31096    254.83562    -26.32633    31.268829    56.475345    40.177306 
183348000    281.45718    319.65786    290.04417   -27.347583    30.286228    29.613696     40.17799 
183352000    268.78498    292.56982    273.06783   -24.964061     30.47973    19.501988    40.176617 
183356000    273.63698    345.34949    269.21239   -27.353492    31.202271    76.137107    40.176852 
183360000    266.34104    293.89163    280.64656    -24.73209    29.688222    13.245073    40.177079 
183364000    269.94261    312.26209    269.45589   -25.873272    29.983622    42.806204    40.176188 
183368000    275.20618    312.48605    295.36944   -25.441131    29.713551     17.11661    40.175809 
183372000    273.38736    312.83111    277.82218    -26.19966    28.264689     35.00893    40.175598 
183376000    266.96293    320.93634    269.75485   -26.063469    29.227091    51.181487    40.176944 
183380000    269.57278    316.27722     262.4979   -24.736448    29.881702    53.779323    40.176674 
183384000    281.93511    324.83896    306.87177   -25.342765    28.152671    17.967192    40.176436 
183388000    277.62605    332.27238    296.47931     -27.6635    27.800881    35.793075    40.176519 
183392000    281.15414    323.27414    292.78791   -26.165485    28.023388    30.486238    40.175702 
183396000    271.47695    317.31489    271.78251    -26.31991    29.560001    45.532384    40.175806 
183400000    276.65107    327.28876    281.73544   -27.563674    29.277699    45.553321    40.174868 
183404000    278.98928    347.72711     278.8717   -27.251148    30.366898    68.855413    40.174372 
183408000    271.40303    325.37643    260.51667   -26.924149     29.34605    64.859765    40.174267 
183412000      276.484    314.01997    270.18301   -26.162758    29.161134    43.836962    40.175396 
183416000    282.31213    318.10371    291.30303   -27.481815    27.809449    26.800679    40.175506 
183420000    274.09593    326.33382    274.35618   -26.142941    28.579277    51.977643    40.175073 
183424000    282.42653    351.08387     270.6835   -27.785515    29.323757    80.400369    40.173897 
183428000    283.80183    319.63422    300.62811   -26.822668    28.312532    19.006102     40.17463 
183432000    273.01471     304.5668    274.82683   -27.222295    29.674153    29.739966      40.1755 
183436000    279.17649    330.22958    279.03857    -28.29687    30.023984    51.191014    40.175262 
183440000    280.02531    316.51199    285.70298   -28.435467    29.354365    30.809004    40.174978 
183444000    280.15989    322.22253     297.8228   -27.963759    28.444326    24.399728    40.174132 
183448000     275.0946     299.1222    279.78202    -25.74097    29.316747    19.340181    40.173488 
183452000    267.56877    308.35196    259.25245   -26.679177    30.575564    49.099509    40.173158 
183456000     274.9764    323.29336    280.77402   -26.457529    29.960997    42.519342    40.174067 
183460000    275.37928     314.9343    287.20218   -27.802992    28.923195    27.732126    40.174469 
183464000    275.33228     315.7787    278.04772   -27.659805    30.403983    37.730977    40.174498 
183468000    270.79486    315.73709    276.23542   -27.925825    30.275154    39.501662    40.175421 
183472000    283.18317    336.71591    288.19026   -28.053135    30.382115    48.525649     40.17498 
183476000    276.82616     318.6657    279.90608   -27.177553    29.683098    38.759629    40.175521 
183480000    275.36163    312.01418    289.52455   -26.899393    29.716141    22.489626    40.175729 
183484000    273.53747     315.3323    290.40851   -27.441167     29.76399    24.923795    40.176917 
183488000    272.40389    322.66832    277.98873   -26.792401    30.511013    44.679586     40.17694 
183492000    280.30302    314.92724    295.56322   -26.624135    29.282575    19.364025    40.176922 
183496000    268.95743    322.64886    271.67469   -27.711262    30.601493    50.974169     40.17873 
183500000    277.81684    347.95081    291.92247   -28.499271    30.250393    56.028339    40.179871 
183504000    276.74928    317.56352    282.01293   -27.132093    30.539137    35.550593    40.178279 
183508000    285.59522    338.36481    286.21835   -27.569765    30.646072    52.146456    40.177595 
183512000    272.60693    334.74255     245.9319   -27.231809    32.121443    88.810651    40.175695 
183516000    264.08375    297.32894    269.95945   -24.552969    30.282277    27.369496    40.176977 
183520000    271.53327     301.3788    290.20779     -26.5285    29.682181    11.171004    40.175238 
183524000    274.42817    292.44359    284.14595    -26.56457    29.936516    8.2976342    40.174748 
183528000    276.26981    323.67642    283.22437   -27.905881    30.823354    40.452053    40.176063 
183532000    280.41439    314.10352    295.27148   -26.576103    30.677132    18.832042    40.175602 
183536000    273.87884     315.0476    291.02811   -25.991434    28.767527    24.019498    40.175815 
183540000    273.55062    310.05843    294.76173   -27.346023    29.988563    15.296699    40.176099 
183544000    276.17575     337.6827    280.66566   -26.781299    30.905487    57.017043    40.175751 
183548000    276.41667    339.05555      277.907   -26.704227    30.665304    61.148547    40.176752 
183552000    276.89613    336.10085    280.73844   -26.181658    30.608807    55.362411    40.176418 
183556000    272.08655    296.63101    285.86042   -24.693313    30.247764    10.770597    40.176357 
183560000    266.72913    308.25071    279.71238   -25.298528    30.479677    28.538329    40.176147 
183564000    278.26268    335.91719    301.29769   -26.076378    29.542351    34.619503     40.17709 
183568000    274.00284    308.08648    287.33971   -25.764151    30.234756    20.746768    40.176437 
183572000    270.54311    329.98223    256.16246   -27.575544    31.128687    73.819769    40.175982 
183576000    276.47495    313.22736    290.79683   -26.334044    28.928652    22.430526     40.17508 
183580000    275.55855    329.09216     280.1123   -28.308155    29.472886    48.979854    40.176343 
183584000    261.89928    308.02336    268.89463   -26.279973    30.710291    39.128727    40.176367 
183588000    273.98065    325.55083    263.93004   -27.435664    30.851649    61.620787    40.177596 
183592000    274.94642    288.83803    300.21577   -25.603074    29.963854   -11.377734    40.176823 
183596000     275.7022    316.67993    281.39338   -28.258193    30.443566    35.286552    40.175231 
183600000    270.44187    314.82383     263.7439   -27.798243    31.091643    51.079928    40.175817 
183604000    279.81335    313.83365    295.37473    -27.04915    29.575799    18.458923     40.17479 
183608000    277.36136    311.13763    291.97415   -27.601402    30.783439     19.16348    40.175205 
183612000    282.59333    333.94443    299.71565   -29.902649    30.298149    34.228778    40.175552 
183616000    280.99582    340.66307     284.8636   -29.020585    30.894335    55.799477    40.176638 
183620000     273.3222    327.26112    264.11723   -28.119598    30.986602    63.143893     40.17525 
183624000    278.90792    336.37073     283.9792   -30.031529    31.502852    52.391529    40.175152 
183628000    275.77025    297.39492    301.09717    -28.11987    30.904238   -3.7022504    40.175377 
183632000    280.25798    352.70845    275.62249   -29.616936    31.463896    77.085962    40.176648 
183636000    280.18769    340.61885    265.62918   -29.680177    31.516271    74.989675    40.175818 
183640000    277.66533    320.72641     289.0547    -29.76461    31.447594    31.671715    40.175167 
183644000    287.60136    335.53229    293.55663   -29.375693    29.775004    41.975658    40.176428 
183648000     270.7025     302.7496    280.95428   -27.780451    30.704651     21.79532    40.176187 
183652000    275.98234    321.33545    267.78809   -27.788016    30.669768    53.547355    40.175027 
183656000    277.92524    347.72804    272.42884    -28.80886    30.936059    75.299201    40.175126 
183660000    282.88553    323.97122    301.15368   -28.657196    29.958037    22.817533    40.175085 
183664000    280.39211    314.43831    287.15515   -27.420889    30.391794    27.283158     40.17515 
183668000    284.23309    338.73702    284.27895   -28.804235    31.177962    54.458075    40.176699 
183672000    279.54682    331.84262    284.27343   -28.783751    30.443414    47.569189    40.175855 
183676000    265.99304    309.93177    274.42533   -27.703502    30.716784    35.506439    40.176292 
183680000    276.63222     315.4578    270.08205    -28.61874     30.87686    45.375742    40.175817 
183684000    277.77048    310.64412    300.35812   -29.793819    30.040926       10.286     40.17681 
183688000    287.72798    333.99659    304.69644   -28.571901    29.718413    29.300149     40.17575 
183692000    281.97809    309.74861    303.55009   -28.245149    28.885987    6.1985134    40.175417 
183696000    275.31718    298.43478    274.08067   -28.448265    30.503106    24.354104    40.174643 
183700000    279.82805    310.68123    296.90694   -29.260859    29.008357    13.774292    40.175313 
183704000    271.95659    300.47541    276.02858   -28.411525    30.582952    24.446826    40.174798 
183708000    273.97677    316.73761    288.18194   -28.528747    30.439944    28.555671    40.174387 
183712000    271.56509     312.6908     281.7413   -28.727401    30.022287    30.949494    40.173154 
183716000    277.40511    318.35054     287.1655   -29.456071    29.946666    31.185042     40.17365 
183720000    286.81998    328.54711    283.77334   -29.663968    30.514036    44.773763    40.174725 
183724000    288.13319    336.05688     280.3648   -30.409187    29.523495    55.692083    40.174329 
183728000    281.81133    327.32112    283.35512   -30.744704    29.284139    43.966007    40.172602 
183732000    270.14816    307.94072    262.33452   -29.735007    30.078142    45.606203    40.173186 
183736000    279.74437    317.46339    284.39726   -29.359857    29.630623    33.066133     40.17367 
183740000    263.28617    311.76833    265.25331   -28.000922     30.15819    46.515016    40.172221 
183744000    273.59259    305.00538    288.83943   -27.771096     29.75941    16.165955    40.173624 
183748000    282.41269     343.8501    276.40779   -29.542116    29.464963    67.442314    40.173316 
183752000    266.83723    301.62732    270.65822   -27.724514    29.813939    30.969101    40.172078 
183756000    272.64959    334.85263    264.99511   -28.405322    30.570741    69.857523    40.172265 
183760000    280.75739    334.32831    288.67751   -28.345472    29.915564    45.650793    40.172625 
183764000    279.44995    308.85578    308.74698   -28.040194    28.818151    0.1088022    40.172684 
183768000    275.47947    310.53405    296.76097   -26.908381    29.596778    13.773077    40.171425 
183772000     275.2885    315.11934    284.72385   -27.868489    29.878825    30.395494    40.170779 
183776000    273.27437    335.29847    269.20721   -28.761968    30.844926    66.091258    40.172099 
183780000    281.78082    301.60329    296.36873   -26.600813    28.908592    5.2345571    40.171491 
183784000    269.22343    304.18716    278.80921   -27.011828    30.764949    25.377948    40.170758 
183788000    272.33008     324.4506    263.59085   -26.495814    30.079108    60.859748    40.172282 
183792000    282.52833    338.04339    285.25274   -27.913425     29.95189    52.790652    40.171849 
183796000    271.44475    331.60805    273.07584    -27.37164    31.339379    58.532209    40.171836 
183800000    268.30602     311.7003    272.22167   -27.985443    30.903583    39.478631    40.171581 
183804000    278.46497     314.5659    285.86318   -27.306919    30.320172    28.702715    40.172009 
183808000    274.68875    337.83724    267.33537   -27.516478     30.35292     70.50187    40.172267 
183812000     283.4101    330.83729    284.54169   -28.169302     29.50493    46.295602    40.171261 
183816000    285.07342    333.00226    289.69142   -26.998542    30.188811    43.310831    40.170821 
183820000    273.06958    305.31613    278.80777   -25.700677    31.170774    26.508363    40.170186 
183824000    264.64604     293.2001    268.93241   -25.550916     31.61036     24.26769    40.170609 
183828000    273.46359    318.85387    289.38436   -27.518774    29.934476    29.469504    40.169598 
183832000    273.83422    322.93453     272.0373   -27.995814     30.48658    50.897224    40.169267 
183836000    277.41984    326.00512    273.26015   -27.866966    29.463514    52.744968    40.168592 
183840000    278.59654    332.75327    280.91105   -29.129444    29.494818    51.842227    40.169422 
183844000    281.49917    316.79237    295.50986   -28.020826    29.245214    21.282513    40.170477 
183848000    277.98903    304.52018    281.74478   -26.725437    29.090025    22.775399    40.170215 
183852000    275.65122    309.15612    277.65944   -26.130396     29.17468     31.49668    40.169213 
183856000    274.36052    335.51242    276.08955   -27.616775    29.734682     59.42287    40.169607 
183860000     283.9622    318.90691    301.32884    -27.05565    29.117899    17.578079    40.169339 
183864000    275.94439    340.01646    273.52764   -28.016048    29.953875    66.488821    40.168206 
183868000    265.23756    307.03754    275.35151   -27.849666    30.415955    31.686026    40.167242 
183872000    268.70495    288.34734    284.17759   -27.535076     29.95426    4.1697478    40.168012 
183876000    278.09497    330.34507    265.93506   -28.427196    30.459412    64.410004    40.168036 
183880000    269.76521    309.45592    273.14708   -27.081172    29.787744    36.308832    40.168003 
183884000    269.66043     305.6776     287.3761   -26.518104     29.03759    18.301497    40.168251 
183888000    268.17514     307.4843    273.18225   -28.110316    30.241929    34.302056    40.166853 
183892000    271.76029    325.49238    277.32704   -28.648679    30.430715    48.165341    40.165125 
183896000    268.42528    314.70962    262.26784   -28.306794    30.422035     52.44178    40.165297 
183900000    275.18105    319.45338    280.16449    -26.63834    30.950872    39.288883    40.166314 
183904000    262.60764    316.02005    251.71606   -26.518141    31.824943    64.303987     40.16883 
183908000    272.99265    300.94208     292.9678   -26.836325     30.43215    7.9742723    40.168465 
183912000    263.24329    303.65127    271.05401   -27.057104    31.699017    32.597253     40.16784 
183916000    272.70533    328.53426    278.66812   -27.674196    31.494859    49.866141    40.167179 
183920000    268.97356    305.22416    296.28335    -26.90317    29.970977    8.9408124    40.166722 
183924000    273.85899    309.30474    276.84741   -27.566913    31.555143     32.45733    40.165982 
183928000    274.45551    322.52509    280.11615   -28.114998    30.583279    42.408939     40.16605 
183932000    266.92115    309.26637    266.79075   -28.065552    31.492434    42.475622    40.165733 
183936000    278.18819    335.88977    273.09125   -28.427297    30.715088    62.798515    40.166184 
183940000    277.12452    324.69357    276.93832   -27.873694    30.018652    47.755248    40.166463 
183944000    279.90437    334.38359    310.38214   -28.816629    28.952497    24.001457      40.1665 
183948000    270.02712    296.67023    291.42576   -26.096031    30.769503     5.244472    40.165618 
183952000    278.36921    340.53012    286.96497   -29.134877    31.215712     53.56515    40.165401 
183956000    270.52377    332.87218    276.68174   -27.158363    32.629956    56.190444    40.166152 
183960000    273.99043    333.91264    293.41534    -26.89475    32.007436      40.4973    40.167098 
183964000    275.69833    336.05803    278.62206   -26.857818     31.93482     57.43597    40.165999 
183968000    269.56788    336.88564    273.21154   -28.089585    31.735308      63.6741    40.165376 
183972000    262.54233     302.2168    274.98843   -26.017898    31.420925    27.228373    40.164856 
183976000    263.00119    315.10053    266.78975   -26.632165     31.99283    48.310784    40.164657 
183980000    274.01474    322.54122    291.77235   -27.235403    31.778125     30.76887     40.16399 
183984000    269.77275    308.30377    288.49132   -26.989598    30.825774    19.812459    40.163141 
183988000    268.76358    318.56026    294.40556   -27.311557    30.856941    24.154702    40.162076 
183992000      271.491    346.81095    268.48534   -27.680951    31.637719    78.325609    40.163476 
183996000      270.724    324.85541    273.71975    -27.41084    31.646559    51.135652    40.164038 
184000000    281.78834      334.186    287.64127   -27.339759    31.225001    46.544729     40.16428 
184004000    270.75758    310.43335    287.07004   -27.326032    32.387526     23.36331    40.164784 
184008000     271.6637    314.17343    285.68348   -26.785571    31.920553    28.489952    40.165267 
184012000    268.53477     324.3688    265.34282   -27.883581    33.330726    59.025977    40.164906 
184016000    264.93386    317.48609    265.28449    -26.42269    33.353358      52.2016    40.165479 
184020000    267.38685     324.5522    281.41026    -26.68941    32.184794    43.141942    40.166417 
184024000     273.7567    332.12304    276.93543   -26.927364    32.949304    55.187604    40.167578 
184028000    263.61537    292.69969    293.67533   -24.821033    31.363701  -0.97564259    40.166528 
184032000     273.2723    326.00843    300.72023   -25.474032    31.468515    25.288194    40.166643 
184036000    267.13268    310.18443    282.50393   -26.009238    31.816793    27.680504    40.166467 
184040000    264.75794    318.54207    267.32689   -26.856954    32.851887    51.215179    40.166919 
184044000    274.66694    301.46021    294.42863   -25.462343    30.621009    7.0315804    40.167029 
184048000    266.64932    319.07327    264.85792   -25.823993    33.996536     54.21535    40.167605 
184052000    252.68578    297.59777    256.16999     -25.6113     32.69932    41.427778    40.167328 
184056000    265.06717    321.61956    279.98172   -25.743292    32.040421    41.637837    40.167983 
184060000    257.29418    298.46072    274.91055   -24.752731    30.748896    23.550174    40.167466 
184064000    268.84444    325.69678    276.05013   -26.653553    31.131896    49.646648    40.168208 
184068000    262.14424    324.15053    270.11803    -26.44493    32.420167    54.032503    40.168134 
184072000    271.52116    312.71583    295.11208   -27.525966    31.327476    17.603749    40.167517 
184076000    270.01928    318.28886    285.89644   -26.570383    31.599556    32.392421    40.166433 
184080000     268.8455    326.12701    275.09073    -27.16214    32.292291    51.036278     40.16643 
184084000    271.78646    328.60883    289.25752   -26.507662    31.743533    39.351315    40.167203 
184088000    279.96418    340.14172    283.92139   -28.907035    31.452628    56.220335    40.166901 
184092000    278.53187    346.96108    287.12886   -28.384045    30.743204    59.832218    40.167353 
184096000     275.9867    333.03224    288.44584   -28.096613    31.487723    44.586398    40.168388 
184100000    269.93509    318.84381     275.4697   -27.579247     32.31924    43.374115    40.168773 
184104000    273.89168    321.28805    298.38999   -27.009524    31.196231     22.89806      40.1689 
184108000    274.18564    318.02559    274.62198   -26.353766    32.720555    43.403613    40.168643 
184112000    269.26031    328.05575    272.87562   -27.819119    31.536754    55.180132    40.169212 
184116000     272.6365    328.93753    268.00826    -26.92518    31.528403    60.929266    40.168795 
184120000    270.90938    326.61765     260.1869   -27.187909    32.468052    66.430754    40.167262 
184124000    280.21226    354.67935    284.08068   -29.084482    31.398354    70.598669    40.167132 
184128000     272.9827    319.15579     287.6895    -27.49041    31.883849    31.466291    40.168047 
184132000    271.98625    337.33607    273.11706   -28.656436    31.874658    64.219011    40.168382 
184136000    279.70885    343.27241    297.39382     -28.1129    31.056813    45.878596    40.168356 
184140000    267.87917    302.15955    289.13235   -25.711811        31.75    13.027204    40.167242 
184144000    272.42419    307.33262     287.7738   -27.289709    33.028721    19.558822    40.167588 
184148000    265.02274    315.16943    258.98747   -26.385919    33.311873    56.181963    40.168412 
184152000      264.439    311.19734     254.2206   -28.508221    33.148331    56.976745    40.168931 
184156000    269.92751    333.91402    270.94425   -28.590894     32.37098    62.969767    40.169427 
184160000    279.87522    332.66186    274.07645   -27.724789    32.322216    58.585406    40.168824 
184164000    274.20421    328.29976    279.92661   -28.162673    30.816456    48.373159    40.170164 
184168000    265.68724    321.81629    266.04351   -27.103661    31.938456     55.77278    40.168586 
184172000    267.00251     315.4715    268.26775   -27.541631    31.900084    47.203749    40.167426 
184176000    272.02089    317.23572    294.83237   -26.701272    30.833021    22.403355     40.16744 
184180000    271.42026    312.55899    290.36428   -26.969354    31.975667    22.194714    40.166178 
184184000    282.88574    355.42193    287.85338    -27.99711    30.612654    67.568544    40.165147 
184188000    275.69412    342.45816    272.73541   -29.331801    32.600648    69.722749    40.165685 
184192000    278.47832    321.65604    302.25641   -27.617279    30.881467    19.399631    40.166533 
184196000    270.64282    325.19217     275.4559   -26.837083    32.336542    49.736279     40.16644 
184200000    272.24435    328.54996    271.42433   -28.877828    32.145031    57.125628    40.168345 
184204000    274.36558    323.96889    276.38547   -27.173638    31.527489    47.583427    40.168195 
184208000    268.83139    320.69282    275.28745   -28.017943    31.314091    45.405375    40.167291 
184212000    272.99854    337.34017    284.27269   -27.915084    30.909504    53.067483    40.167093 
184216000    270.41433    324.81181    257.04311   -27.112197    32.833571    67.768702    40.168834 
184220000    266.91124    317.01704    270.77601   -27.189571    31.212126    46.241038     40.16762 
184224000    272.47841    337.02455    278.38215   -28.722885    31.563453    58.642401    40.169331 
184228000    274.04026     325.3282    275.48251   -28.745063    31.434662    49.845687    40.168087 
184232000    276.33369     325.8321     286.3551    -27.59766    31.618989    39.477006    40.168196 
184236000    272.04543    330.21016    272.71954   -27.982342     32.72982    57.490621    40.168601 
184240000     276.7252    341.07757    285.81744   -27.905921    30.173917    55.260131    40.169086 
184244000     262.2957    326.88363    253.85607   -27.896863    31.207264    73.027558    40.168997 
184248000    263.92256    305.06425    260.30995   -27.890932    32.098801    44.754293    40.168822 
184252000    273.18526    328.78057    270.91782   -28.393049    32.508359    57.862755    40.170461 
184256000    272.53634     316.7062    286.81848   -26.830096    32.262495    29.887717    40.169912 
184260000    272.14516    328.61138    273.02794   -28.069443    31.945747    55.583441    40.169274 
184264000    281.55332    343.94066    299.49452   -27.620629    30.999385    44.446137    40.168238 
184268000    274.96645    321.07187    278.82444    -27.14075    32.592832    42.247424    40.168573 
184272000     270.9122      309.074    302.92496   -27.061695    31.544718    6.1490373    40.168743 
184276000    267.47426    331.48516    280.45221    -27.12815    32.951113    51.032951    40.168757 
184280000    271.87895    351.91999     266.9883   -29.384298    32.721017     84.93169    40.169891 
184284000    269.73238    327.75982    266.00163   -28.374402    33.643631    61.758188    40.170313 
184288000    260.18574     314.0328    262.58399   -26.361275    34.135169    51.448805    40.170653 
184292000    260.73859    317.32276    261.47631   -28.392722    33.832859     55.84645    40.170222 
184296000    268.94945     324.1106    284.50519   -28.665556    32.035448    39.605409    40.170577 
184300000    260.73595    329.99062    256.82416   -28.674592    33.590027    73.166461    40.170195 
184304000    260.96484    310.64962    273.08747   -26.314269     32.74682    37.562146     40.17109 
184308000    260.04589    300.08124    270.57102   -26.988013    32.708841    29.510224    40.170053 
184312000     265.9376    311.24613    269.55896   -27.050178    34.115099    41.687173    40.169617 
184316000    261.70924    295.93603    280.46328   -26.811054    33.349171    15.472752    40.170176 
184320000    262.62959    297.63671    295.67916   -26.575447    33.518112    1.9575453    40.169589 
184324000    275.19335    350.07405    281.12379   -29.942845    33.293452     68.95026     40.16952 
184328000    277.09868    340.85128    290.04895   -27.952969    33.046934    50.802336    40.170068 
184332000    266.33004    313.59499     299.5807   -28.302674    32.886643     14.01429    40.170409 
184336000    268.11305    319.47507    278.20012    -27.76378     33.22598    41.274948    40.170127 
184340000     272.5221    321.37745    291.33169   -27.364257    32.737376    30.045756    40.169939 
184344000    275.74387    340.94414    283.90285   -28.221485    33.223562    57.041293    40.170027 
184348000     271.4142    322.00698     279.1008   -28.309361    33.434639    42.906182    40.169718 
184352000      269.637    302.88871    297.46924   -26.065122    31.668363    5.4194659    40.170206 
184356000    286.48051    335.78312    309.51114   -29.198194    29.813395    26.271983    40.169229 
184360000    273.27403    325.06695    279.59161   -27.872753    32.798526    45.475339    40.169675 
184364000    277.30233    325.63942    298.91514   -27.783459    31.212775    26.724281    40.168848 
184368000    274.64839    326.79164    296.39819   -27.878101    32.794071    30.393457    40.168442 
184372000    271.78294    312.35746    290.05567   -27.548283     32.29189    22.301788    40.167486 
184376000    264.27898    334.68363    269.71331   -28.152524     34.47703    64.970313    40.168071 
184380000    265.79127    307.52111      282.546   -27.857345    33.437769    24.975109    40.167857 
184384000     262.9072    327.25443     252.3972   -27.602936    35.669445    74.857227     40.16824 
184388000     270.6853    317.94538    274.33029   -27.940504    33.257419    43.615092    40.168554 
184392000    272.21957    315.26751    285.30931   -28.740971    31.846908    29.958205    40.168131 
184396000    274.66205    321.37838    288.43387   -28.609836    31.970953    32.944512    40.166545 
184400000    275.00187    322.23883    279.64697   -28.464436     31.96233    42.591866    40.167039 
184404000    269.65868    323.59363    280.26985      -27.119    33.150576    43.323779    40.167259 
184408000    273.55893    313.71125    297.96382   -26.788879    32.209556    15.747425    40.167092 
184412000    272.39316    311.37812    296.90197    -26.63219    32.289118    14.476158    40.166977 
184416000    271.93037    336.96745    278.18468   -28.332927    33.082407    58.782769    40.167565 
184420000    265.18848    322.48816     267.5499    -27.63227    32.303496    54.938261    40.169226 
184424000    266.44492    309.15607    284.38587   -27.319229    32.327069    24.770204    40.169042 
184428000    276.47354    321.55596      302.307   -28.505603     31.68443    19.248966     40.16863 
184432000    262.84425    304.77695     275.6228   -27.314373    32.806242    29.154149    40.166957 
184436000    265.73291    286.35341    292.46155   -26.053914    31.820084   -6.1081407    40.165693 
184440000    267.64151    329.10405    274.70146   -28.276934    32.704546     54.40259    40.165869 
184444000    268.11097    302.78208    290.81502   -27.153912    32.770322    11.967067    40.165794 
184448000    268.47092    318.00251    286.56415   -26.801019    32.979054    31.438355    40.164678 
184452000    272.29211    336.35045    266.85405   -28.323021    33.842454    69.496403    40.163649 
184456000    265.60491    312.31228    289.37635   -26.815895    32.564613     22.93593    40.163061 
184460000    264.68562    324.56076    266.69205   -28.192625    33.450915     57.86871    40.162595 
184464000    278.71728    332.92379    277.98942    -28.47974    33.215306    54.934367    40.163491 
184468000    267.10609    321.07276    288.38877   -27.360906    33.283649     32.68399    40.162891 
184472000    274.74663    337.01637    270.36155   -29.090498     34.15213    66.654825    40.162668 
184476000    259.68788     308.7247    259.97939   -26.292663    34.533706    48.745312    40.162171 
184480000    262.74049    311.78288     257.9314   -27.727162    34.986095    53.851473    40.161492 
184484000    268.54501    342.27888    272.85385   -29.589285    33.951955    69.425034    40.161684 
184488000    265.75726    319.28043    270.99118   -27.722549    32.856031    48.289243    40.162011 
184492000    266.42741    306.57194    277.19722   -26.927411    33.364778    29.374726    40.161872 
184496000    268.37275    322.16581    276.85141   -28.136413    32.443099    45.314404     40.16185 
184500000    270.31979    308.43396    279.41475   -27.033499    33.101995    29.019211    40.162072 
184504000    275.37377    319.24089    292.44157   -27.506239    31.863423    26.799324    40.162701 
184508000    269.42575    300.11317    297.02075   -27.108201    32.542073    3.0924207    40.162437 
184512000    266.94023    300.24399    292.38426   -26.386397    31.322761     7.859727    40.163072 
184516000    269.33238    336.60783     269.7019   -28.598417    33.543883    66.905933     40.16243 
184520000    257.87964    283.92128    266.12146   -25.081919    33.998193    17.799811    40.162263 
184524000    266.42091    310.49699    270.68892   -27.106579    32.648758    39.808067    40.161973 
184528000     263.7783     313.3488    257.88842   -28.675437    34.053873    55.460384     40.16258 
184532000    272.53097    330.80371    269.79006   -28.779854    34.031414    61.013647    40.162073 
184536000    274.19158    302.75023    311.47764   -28.487212    32.141087   -8.7274163    40.162044 
184540000    274.05462    321.35399    283.21338   -28.465386    32.694506      38.1406    40.162799 
184544000    268.23503    317.90222    271.66827   -28.535592    34.442383    46.233946    40.162928 
184548000    271.50927    334.72935    272.13706    -29.30861     34.10515     62.59229    40.162875 
184552000    271.79041    344.40725    272.31027   -29.506216    33.351394    72.096974    40.162859 
184556000    264.99598    313.66584    273.04224   -28.990919    33.614886    40.623602    40.161942 
184560000     271.8465    322.42026    281.08212   -28.729515    33.891311    41.338136    40.162384 
184564000    268.42318      324.842    263.70455   -29.546927    34.208754    61.137446     40.16252 
184568000    275.05582    345.74539    273.76554   -29.313132     33.14877    71.979841    40.162535 
184572000       264.77    310.66387    282.32449   -28.179043    33.483202    28.339385    40.161505 
184576000    264.00326    334.57017    248.34587    -29.98568    33.312839    86.224298    40.161755 
184580000    265.11196    295.00439    288.10753   -27.324185    32.057565    6.8968657    40.161048 
184584000     267.4963    328.51664    264.12023   -28.044944    32.799619     64.39641    40.161853 
184588000    277.06429    343.91394    275.51693   -29.014902    32.427803    68.397017    40.161787 
184592000    264.68755    315.14873    249.63597   -27.854067    34.354896    65.512758    40.162661 
184596000    256.58387    298.29138    254.86596   -27.356682    33.685086    43.425421    40.163601 
184600000    262.57845    320.16405    266.63624   -28.851727    34.309991    53.527808    40.164399 
184604000    266.35056    321.25397    259.88608   -29.701041    34.151184    61.367888    40.163761 
184608000    268.97397    303.03852    269.91419   -28.225725    32.534298    33.124326    40.164485 
184612000    278.93385    351.87206    290.89184   -29.437569    31.612898    60.980224    40.164457 
184616000    267.62098    327.14446    279.33981   -28.027431    33.333292     47.80465    40.163757 
184620000    272.15059    317.89495    285.86886   -27.929979    32.096754    32.026085    40.163344 
184624000    275.93854    350.13895    285.81848   -30.126859    33.034212    64.320477    40.163366 
184628000    276.53375    305.83799    296.81281   -27.715185    32.643144    9.0251801    40.163241 
184632000    264.48294    312.26662    288.16715   -28.660138    32.538886     24.09947    40.164216 
184636000    261.73267    319.67629    269.69027    -29.03267    34.015005    49.986022    40.164524 
184640000    282.93217    327.75742    303.21594    -29.80449    31.581997    24.541475    40.163659 
184644000    266.80067    318.04808    271.09998    -29.22918    32.986829    46.948098    40.163376 
184648000    274.48186    319.77679     297.1666   -29.731996    32.205913    22.610191    40.163023 
184652000    273.57764    329.81806    273.44223   -29.306974    33.568722    56.375837    40.162252 
184656000    270.69606    304.45562    281.62439   -27.892006    31.791392    22.831232    40.162056 
184660000    263.71687    301.70205    268.50752   -28.299994    33.347833    33.194532    40.162687 
184664000      281.272    315.35813    290.88437   -28.937721     32.02056    24.473763    40.163806 
184668000    268.97904    347.84653    275.99387   -31.559424    33.025521    71.852655    40.163598 
184672000    262.66257    294.90989    281.03844   -28.473928    31.900584    13.871445    40.162933 
184676000    277.40485    319.80933    282.27463   -29.803158    32.092027    37.534691     40.16255 
184680000    270.07838    320.61143    270.13681   -29.046174    32.381644    50.474614     40.16178 
184684000    268.70839    308.31923    286.97569   -28.797958    30.973971    21.343549    40.162717 
184688000    265.81818    298.69343    296.48918     -28.1606    32.305105     2.204248    40.161654 
184692000     286.3812    352.87795    299.14778   -29.925757    32.116212    53.730171    40.161986 
184696000    278.66002    310.38244    310.32268   -28.512247    32.041907  0.059756593    40.161864 
184700000    284.72097    361.28373    277.93989   -31.080963     33.18008     83.34384    40.161988 
184704000    269.41676    301.79246    281.79778   -28.138402    31.886324    19.994685    40.160846 
184708000    266.34033    317.25827    253.98271   -28.795069    33.200398    63.275557    40.161497 
184712000    267.58422    334.66925    261.47104   -29.113691    32.817699    73.198211    40.162598 
184716000    272.84736      310.144    289.09053   -28.760622    31.823422    21.053468    40.163069 
184720000    269.56889    301.41488     282.6849   -28.424466    32.727804     18.72998    40.162135 
184724000    279.33214    320.94256    284.79341   -30.210056    32.907815    36.149158    40.161615 
184728000     276.4574    322.88731    299.46466   -30.052028    31.393648    23.422647    40.162639 
184732000    273.29416    327.84459    266.51012   -31.271838    33.325002    61.334469    40.162971 
184736000     264.8834    316.25138    277.82406   -29.492549    33.520063    38.427324    40.162235 
184740000    276.36203    311.14747     297.8342   -30.124444    33.013998    13.313268    40.162586 
184744000    268.30165    297.83221    297.25682   -29.351512    32.780817    0.5753858    40.162737 
184748000    275.19114    341.49007    277.97227   -31.695606    33.482081    63.517799    40.162076 
184752000    269.62192    308.96141    271.33998   -29.540967    34.466328    37.621429    40.162192 
184756000    274.82307    319.88639    282.38666   -31.458985    33.146656    37.499725    40.162878 
184760000    261.99005    291.95932    276.76091   -28.937053    33.338561    15.198409    40.162853 
184764000     275.0658    317.36309    288.42736   -30.455778    32.124966     28.93573    40.163052 
184768000    272.51385     314.3816    277.26669   -29.610048    33.885623    37.114913    40.163395 
184772000    262.76306    297.70422    280.39814   -28.698655    32.856772     17.30608    40.163326 
184776000    272.20797    329.11107    265.04476   -31.158774    34.380587    64.066315    40.163402 
184780000    272.73216    322.44035    281.93052   -30.451102    31.372645    40.509836    40.163473 
184784000    279.56173    320.90856    291.29037   -30.138281    32.073685     29.61819    40.163619 
184788000    281.28041    321.01267    298.07766   -29.594071    32.136458    22.935012    40.163694 
184792000    272.27413    314.50464    302.43651   -29.780241    31.841591    12.068136    40.164305 
184796000    272.01842    307.90904    310.30881    -28.68896    31.302724   -2.3997727    40.163665 
184800000    271.62678    304.38312    290.74024    -29.90173    32.187774    13.642886    40.162394 
184801000     265.9957     300.8383     275.3382   -29.865793    33.284123      25.5001    40.162394 
Loop time of 23479.2 on 4 procs for 16000000 steps with 1498 atoms

Performance: 14.719 ns/day, 1.630 hours/ns, 681.455 timesteps/s
99.6% CPU use with 4 MPI tasks x no OpenMP threads

MPI task timing breakdown:
Section |  min time  |  avg time  |  max time  |%varavg| %total
---------------------------------------------------------------
Pair    | 11719      | 16168      | 20765      |3429.9 | 68.86
Bond    | 71.999     | 113.84     | 151.86     | 354.7 |  0.48
Neigh   | 129.94     | 129.96     | 130        |   0.2 |  0.55
Comm    | 324.27     | 4611.4     | 9027.4     |6292.8 | 19.64
Output  | 9.1068     | 9.1977     | 9.4681     |   5.1 |  0.04
Modify  | 1259.6     | 1882.1     | 2544.9     |1071.0 |  8.02
Other   |            | 564.6      |            |       |  2.40

Nlocal:    374.5 ave 714 max 35 min
Histogram: 2 0 0 0 0 0 0 0 0 2
Nghost:    2376.5 ave 4269 max 496 min
Histogram: 2 0 0 0 0 0 0 0 0 2
Neighs:    13049.2 ave 25870 max 313 min
Histogram: 2 0 0 0 0 0 0 0 0 2

Total # of neighbors = 52197
Ave neighs/atom = 34.8445
Ave special neighs/atom = 0.518024
Neighbor list builds = 28752
Dangerous builds = 0

write_restart FINALCONFIG
WARNING: Using a manybody potential with bonds/angles/dihedrals and special_bond exclusions (../pair.cpp:218)
Neighbor list info ...
  update every 1 steps, delay 0 steps, check yes
  max neighbors/atom: 2000, page size: 100000
  master list distance cutoff = 16
  ghost atom cutoff = 16
  binsize = 8, bins = 3 3 23
  4 neighbor lists, perpetual/occasional/extra = 4 0 0
  (1) pair lj/cut, perpetual, skip from (4)
      attributes: half, newton on
      pair build: skip
      stencil: none
      bin: none
  (2) pair morse, perpetual, skip from (4)
      attributes: half, newton on
      pair build: skip
      stencil: none
      bin: none
  (3) pair eam, perpetual, skip from (4)
      attributes: half, newton on
      pair build: skip
      stencil: none
      bin: none
  (4) neighbor class addition, perpetual
      attributes: half, newton on
      pair build: half/bin/newton
      stencil: half/bin/3d/newton
      bin: standard

#and everyone lived happily ever after, THE END
Total wall time: 6:50:21
