LAMMPS (16 Mar 2018)
#lammps script for united atom polymer simulation (full-scale run)

# 1. INITIALIZATION
#allows pair, bond, bending and dihedral interactions
atom_style molecular

  # periodic (video game) boundaries in all cartesian directions
boundary p p s

  # uses real units (instead of units based on pair potential parameters).  List of units used in manual
units metal

###########
# 2. ATOM DEFINITION
##########

   ##
   # Read in data from starting configuration file
   ##

#read_data lammps-AT-config

 #use to restart
read_restart RESTART
  orthogonal box = (0 0 -29.1214) to (20 20 152.979)
  1 by 1 by 4 MPI processor grid
  1498 atoms
  197 bonds
  96 angles
  95 dihedrals
  2 = max # of 1-2 neighbors
  2 = max # of 1-3 neighbors
  4 = max # of 1-4 neighbors
  6 = max # of special neighbors

   ##
   # Specify the nature of the bond interactions
   ##

bond_style harmonic
bond_coeff 1 19.51 1.54
bond_coeff 2 22.45 1.82
bond_coeff 3 10000.0 2.0
special_bonds lj 0.0 0.0 0.0 angle no dihedral no

angle_style harmonic
angle_coeff 1 2.683 114.00
angle_coeff 2 2.683 114.40

dihedral_style opls
dihedral_coeff * 0.06071 -0.011743 0.1363628 0.0

mass  1   14.00
mass  2   32.06
mass  3  196.97
mass  4  196.97


pair_style hybrid lj/cut 14.0 morse 14.0 eam
pair_coeff 1 1 lj/cut 0.00395 3.95 14.0
pair_coeff 2 2 lj/cut 0.01594 3.62 14.0
pair_coeff 3 3 eam Au_u3.eam
Reading potential file Au_u3.eam with DATE: 2007-06-11
pair_coeff 4 4 eam Au_u3.eam
pair_coeff 1 2 lj/cut 0.0000 3.785 14.0
pair_coeff 1 3 lj/cut 0.00258 3.44 14.0
pair_coeff 1 4 lj/cut 0.00 3.44 14.0
pair_coeff 2 3 morse 0.879 1.47 2.7 14.0
pair_coeff 2 4 morse 0.000 1.47 2.7 14.0
pair_coeff 3 4 lj/cut 0.00 2.934 14.0


group freeze type 4
100 atoms in group freeze
fix startend freeze setforce 0.0 0.0 0.0



################
# 3.  Simulation Settings
###############

neighbor        2.0 bin
neigh_modify    every 1 delay 0 check yes



# Define some variables
variable Lx          equal xhi-xlo   # Ang
variable Ly          equal yhi-ylo   # Ang
variable Lz          equal zhi-zlo   # Ang

variable dz          equal ${Lz}/30  # Ang
variable dz          equal 182.100820164033/30  

variable zzlo        equal zlo  # Ang
variable zzhi        equal zhi  # Ang
variable vol         equal ${Lx}*${Ly}*${Lz}  # Ang^3
variable vol         equal 20*${Ly}*${Lz}  
variable vol         equal 20*20*${Lz}  
variable vol         equal 20*20*182.100820164033  
variable TEMP        equal 300.00 # K
variable TThi        equal 320.00 # K
variable TTlo        equal 280.00 # K
variable dt          equal 0.00025 # ps

timestep     ${dt}
timestep     0.00025

variable zlo1      equal -26.0
variable zlo2      equal -11.0
variable zhi1      equal 135.0
variable zhi2      equal 150.0

# heat layers

region          hot  block  INF INF INF INF ${zlo1} ${zlo2}
region          hot  block  INF INF INF INF -26 ${zlo2}
region          hot  block  INF INF INF INF -26 -11
region          cold block INF INF INF INF ${zhi1} ${zhi2}
region          cold block INF INF INF INF 135 ${zhi2}
region          cold block INF INF INF INF 135 150
compute         Thot all temp/region hot
compute         Tcold all temp/region cold


# Second Equilibration
fix             1 all nve
fix             hot all langevin ${TThi} ${TThi}  0.005 59804  tally yes
fix             hot all langevin 320 ${TThi}  0.005 59804  tally yes
fix             hot all langevin 320 320  0.005 59804  tally yes
fix             cold all langevin ${TTlo} ${TTlo} 0.005 287859 tally yes
fix             cold all langevin 280 ${TTlo} 0.005 287859 tally yes
fix             cold all langevin 280 280 0.005 287859 tally yes
fix_modify      hot temp Thot
fix_modify      cold temp Tcold

variable        tdiff equal c_Thot-c_Tcold
thermo_style    custom step c_Thot c_Tcold f_hot f_cold v_tdiff
thermo            4000
run             800000
WARNING: Using a manybody potential with bonds/angles/dihedrals and special_bond exclusions (../pair.cpp:218)
Unused restart file peratom fix info:
  fix style: STORE, fix ID: layers_COMPUTE_STORE
Neighbor list info ...
  update every 1 steps, delay 0 steps, check yes
  max neighbors/atom: 2000, page size: 100000
  master list distance cutoff = 16
  ghost atom cutoff = 16
  binsize = 8, bins = 3 3 23
  4 neighbor lists, perpetual/occasional/extra = 4 0 0
  (1) pair lj/cut, perpetual, skip from (4)
      attributes: half, newton on
      pair build: skip
      stencil: none
      bin: none
  (2) pair morse, perpetual, skip from (4)
      attributes: half, newton on
      pair build: skip
      stencil: none
      bin: none
  (3) pair eam, perpetual, skip from (4)
      attributes: half, newton on
      pair build: skip
      stencil: none
      bin: none
  (4) neighbor class addition, perpetual
      attributes: half, newton on
      pair build: half/bin/newton
      stencil: half/bin/3d/newton
      bin: standard
Per MPI rank memory allocation (min/avg/max) = 10.93 | 11.62 | 12.32 Mbytes
Step c_Thot c_Tcold f_hot f_cold v_tdiff 
117601000    301.38259      283.548           -0           -0    17.834595 
117604000    344.09922      258.439   -1.2596437  0.080371939    85.660221 
117608000    334.01308    275.76074  -0.56917117  -0.19200599    58.252342 
117612000    308.96718    295.25157    1.1624582  -0.79801108     13.71561 
117616000     297.6739    268.03347   0.65940679   0.16824149    29.640423 
117620000    304.78887     283.6469    1.6137426   0.32254234    21.141961 
117624000     332.6772      284.818  -0.20275196   -1.6900338      47.8592 
117628000    348.33694    283.34258   -1.4466482  -0.58741874    64.994362 
117632000    311.37024    291.17903   -1.5129968   -1.0503798    20.191211 
117636000    328.14171    280.92688  -0.58179931   0.16510182    47.214836 
117640000    365.68923     257.4248   -2.4657233     2.626986    108.26443 
117644000    313.42432      272.043  -0.76268652    1.6830738    41.381318 
117648000    326.41917    288.36543   -1.6115078  0.046206398    38.053739 
117652000     327.2383    279.87155  -0.60258627   -0.2385267    47.366755 
117656000    338.85083    272.08692   -1.4910802   0.98522655    66.763903 
117660000    311.80215      281.746   0.71051932   -0.9052897    30.056158 
117664000    319.14828    275.83939   -1.2161898  -0.36063405    43.308893 
117668000    338.32066    291.17957   -1.5301411  -0.49508243    47.141092 
117672000    303.76933    296.75112   0.19401095   -1.7044156    7.0182048 
117676000    326.64221    273.37264  0.044428275  -0.34171251    53.269563 
117680000    302.85974    295.51156     1.872881   -1.9145919    7.3481853 
117684000    343.84927    286.30724  -0.42239475  -0.24298107    57.542032 
117688000    353.31984    285.23723   -1.0796714 -0.068201072    68.082607 
117692000    317.42979    296.25718    2.2093615   -1.7168093    21.172617 
117696000    332.24437     280.5859   0.74932299    -1.084803    51.658469 
117700000    308.71052    295.85029    1.0314191   -1.4111978    12.860227 
117704000    332.02747    275.43447  -0.18608478   -1.2278609    56.593001 
117708000    350.50406    275.22005    -0.127383  -0.68135351    75.284007 
117712000     330.0985    246.17737    1.2495492   0.51625884    83.921136 
117716000    328.78984      286.586   0.73101917    -1.279113    42.203833 
117720000    317.00904    280.96913    1.3982482  -0.89030053    36.039909 
117724000    307.12326    275.41493    1.9164241   0.38053351    31.708327 
117728000    316.38004     295.3095    1.9214205   -0.5691288    21.070546 
117732000    352.82391    265.89379   0.23456373   0.58193148    86.930128 
117736000    300.26757    299.81302    1.6737585   -1.7111167   0.45455273 
117740000    346.07463    302.90559  -0.64168697   -1.9075651    43.169037 
117744000    331.28494    277.07692   -1.5433483   -1.0628423    54.208026 
117748000    327.63214    269.84875   0.13335501   -1.1426236    57.783392 
117752000    308.21707     266.2086     1.776917   0.65915466    42.008471 
117756000    322.29155    262.40084  -0.31177227   0.24992013    59.890719 
117760000    319.98994    283.57358   0.11624608  -0.35040974    36.416359 
117764000    310.42986    278.22012   -0.7024176   -0.3063683    32.209744 
117768000    329.23392    294.27946   -1.4890222   -2.2241944    34.954466 
117772000    335.57061    278.49851   -1.0990985   -1.2459319    57.072097 
117776000    310.80532    278.27752   0.57820934  0.057982494    32.527798 
117780000    330.73425     279.9615  -0.45096122  -0.51566967    50.772751 
117784000    312.13913    269.47417   0.87394451   -1.1100857    42.664952 
117788000    316.84577    306.58224  -0.21701902   -1.3192496     10.26353 
117792000    339.84047    266.04055    0.2462137    1.0932035     73.79991 
117796000    355.64037    275.72735   -1.6809573   -1.0906681    79.913026 
117800000    306.93669    273.79423   0.22705478  -0.10278514    33.142461 
117804000    319.72994    291.90306 -0.020810182   -2.0476307    27.826883 
117808000    316.78189    291.15929   -1.2011724   -1.5658629    25.622596 
117812000    304.21508    256.15632    1.0175337   0.48953093    48.058756 
117816000    320.09564    291.10036    1.2513714   -2.0949761    28.995277 
117820000    318.09263    270.87206  -0.58886933   -0.7865817    47.220562 
117824000    319.14845     274.0576 -0.034971409   0.24445806    45.090855 
117828000    312.05284    262.13384    0.5832547     1.493776    49.918994 
117832000    349.59266    255.96241  -0.67049952   0.85292268    93.630248 
117836000    315.79982    263.44664   0.47273515  -0.15326851    52.353176 
117840000    323.33818    272.80486   0.80771636  0.064005598    50.533322 
117844000     327.6757    267.78558    0.3427679   0.47219799    59.890111 
117848000    322.85554    282.62319  0.019620605   0.95835355    40.232348 
117852000    316.04404     297.5714    1.1615426   0.28890997    18.472633 
117856000    321.88448    288.39827   0.45438942    1.4690066    33.486204 
117860000    325.90706    273.20384   0.41831052    1.8811039    52.703218 
117864000    313.52802    276.10822   0.16853031   0.85744836    37.419805 
117868000    305.58213    288.90759   0.42054762     1.315416    16.674541 
117872000    339.00765    287.82992   -2.2486399   0.28214944    51.177728 
117876000    301.63042    280.36172   0.35713714    0.2919368    21.268692 
117880000    329.14368    282.82153  -0.99455021   0.44182618    46.322154 
117884000    328.49091    283.64597   -1.2790676 -0.092562846    44.844935 
117888000    342.62142    273.42547   -2.2862452   0.75134587    69.195952 
117892000     312.2816    300.46517  -0.65737253  -0.61607013    11.816425 
117896000    317.02165    263.81498    0.5926436    0.8844955    53.206671 
117900000    335.54337    286.97012   0.75980774  0.037534603    48.573248 
117904000    303.42052    279.03318    1.1231943   0.70790366    24.387333 
117908000    312.30549    254.72557    1.1583552    1.5275586    57.579914 
117912000    347.19496    280.95714   -1.1515343  -0.21193147     66.23782 
117916000    321.56301    278.43863   0.86019107   0.59509744    43.124373 
117920000    309.01855    272.80144    1.2961941   0.27423262     36.21711 
117924000    312.78611    278.20061   0.88147589  -0.47702137    34.585499 
117928000    348.78933    277.42588  -0.88538742   0.60883673    71.363446 
117932000    342.02667    284.04545  -0.84525207  -0.60330676    57.981225 
117936000    326.27881    263.71828   0.56698268   0.81819209    62.560525 
117940000     315.1518    287.74733  -0.67792932   -1.2840444    27.404466 
117944000    308.22236    277.65341  -0.54324848  -0.49404855    30.568954 
117948000    339.11286    276.56694   -1.2153855   0.89218974    62.545919 
117952000    317.31173    282.79002  -0.76083657  -0.17622395    34.521709 
117956000    332.06161    259.40542   -1.2716603  -0.13042753    72.656193 
117960000    323.06067    282.36675   0.47175217   -1.4150201    40.693919 
117964000    323.05281    297.39449   0.71351959   -1.7379821    25.658317 
117968000    302.58314    305.56796 -0.0051586258   -1.5984575   -2.9848213 
117972000    326.67001    288.15501   0.92387839  -0.43633908    38.515001 
117976000    327.64675    281.82445   0.47465461  -0.43507201    45.822297 
117980000    305.73956    291.60131    1.2460477  -0.65607282    14.138247 
117984000    302.91383    291.91891 0.00023660851  -0.73827044    10.994916 
117988000    341.06996    266.00298   -1.6687103 -0.063853677    75.066971 
117992000    316.49077    288.03039    1.0843801   -1.2188743    28.460388 
117996000    323.57977    273.94451   0.37592064   0.69140523    49.635259 
118000000    304.07884    271.88705   0.55938439  0.086369059    32.191792 
118004000    298.15654    302.87541    0.9864913   -1.8616101   -4.7188686 
118008000    326.31754    268.38319   -2.0719972  -0.17355783    57.934342 
118012000    311.92018    284.85718 -0.019600636  -0.30527492    27.062996 
118016000    308.89646    284.15597    1.3370059   0.69395318    24.740491 
118020000    325.53109    274.32489  -0.80823436   0.41911844    51.206201 
118024000    321.55004    282.87904  -0.96820475  -0.18589479    38.671006 
118028000    314.96529    307.15461  -0.10245092    -1.213371    7.8106872 
118032000    323.58996    285.08139   0.26951661  -0.22697963    38.508562 
118036000    310.17385    282.95534   0.58936968  -0.34026692    27.218511 
118040000    318.54918    274.17869 -0.032408054  0.044171325    44.370486 
118044000    295.00296    273.00413   0.38499341  -0.16659406    21.998834 
118048000    339.25335    255.28883  -0.96704516    1.6434342    83.964514 
118052000    338.01232    285.58486  -0.84686351   0.14502864    52.427462 
118056000    320.09644    284.14032  -0.52839379   -1.4877315    35.956118 
118060000    320.17161    289.23184   0.15847288   -0.8580426    30.939769 
118064000    317.33141    278.82469   -1.0159721  -0.91279196    38.506714 
118068000    301.32989    284.10694   0.46924936   -1.3482602    17.222953 
118072000    329.31203    305.75513 -0.019039716   -2.5241222    23.556893 
118076000     291.9922    267.06138   0.81296984   0.52347154    24.930825 
118080000    324.74379    275.16845   -1.9255593   -0.4902645    49.575331 
118084000    335.49176    271.76591   -1.4679512  -0.78614579    63.725845 
118088000    313.13507    274.75722  -0.92226936   -1.1383287    38.377851 
118092000    313.16471    268.39592  -0.16594093  -0.44231711    44.768797 
118096000    352.53857    312.20044   -2.7388993   -2.9651124    40.338132 
118100000    327.48152    279.99398  -0.33812733   -1.7830929    47.487537 
118104000    323.04257    273.89315   -1.6729225   -1.5013317    49.149417 
118108000    324.45826    282.86665  -0.59832562   -1.1414759    41.591605 
118112000    315.39794    268.93733 -0.086965985  -0.92930693    46.460606 
118116000    323.11101    275.54633  0.088435453  -0.44761352     47.56468 
118120000     331.3323    271.18223    -2.190423  -0.51065196    60.150063 
118124000     326.2724    313.51385   -1.6176257   -2.4221776    12.758554 
118128000    310.52277    282.70263   -0.8795688  -0.75439667    27.820137 
118132000     311.8245    269.97514 -0.031001815   0.31034783    41.849356 
118136000    320.75663    284.88102   -2.1720295   0.14707966    35.875606 
118140000    318.79817    280.35624   0.32910546  -0.69781577    38.441929 
118144000    329.47334    275.29364  -0.92882736   0.80229583      54.1797 
118148000    320.91542    277.64345  -0.58395002   0.10446605    43.271965 
118152000     321.2555     323.6379  -0.87643267   -2.5292244   -2.3823956 
118156000    312.76025    270.57279   -1.2645056  -0.72255588    42.187456 
118160000    317.52769    289.24156  -0.16022086   -0.9646468    28.286133 
118164000    323.74782    276.86652  -0.28506766 -0.019379926    46.881296 
118168000    298.58936    295.57895    1.0971195   -2.1783101    3.0104035 
118172000    338.67106    263.80109   -2.5447276  -0.33746948    74.869976 
118176000    337.56838    269.93532   -1.9735638  -0.45508889    67.633062 
118180000    321.90144    294.96275   -1.1040327   -1.8816911    26.938687 
118184000    321.95248    278.43897  -0.25987464  -0.83695956    43.513509 
118188000    313.31281    288.31534  -0.42740847   -3.0264613    24.997468 
118192000     293.2551    291.33143    1.5494836   -2.8258728    1.9236761 
118196000    316.82662    282.68179   0.45519942   -2.9397268    34.144835 
118200000    329.80527    289.17598 -0.089851321   -2.2401567    40.629293 
118204000    302.70839     292.8892   0.12821618   -2.1970205    9.8191945 
118208000    333.13094    274.42303  -0.42556973   -1.0734408    58.707918 
118212000    307.81583    283.79317  -0.16176557   -1.6464907    24.022658 
118216000    321.05026    277.02886    0.1873638   -1.1866219    44.021402 
118220000    326.23596    284.51042   0.80703332   -1.7208615    41.725539 
118224000    332.30314    296.17969 -0.069027466  -0.79264412     36.12345 
118228000    303.88918    285.53601    1.5679399  -0.91167661    18.353167 
118232000    312.87158    256.39651 -0.016189239  -0.20636652    56.475071 
118236000    343.32638    262.92677  -0.92390451   0.45119525    80.399611 
118240000    325.17796    290.40257   0.37668202   -0.8665098    34.775396 
118244000    304.40653    277.68657   0.39184103  0.020165101    26.719959 
118248000    340.76939    290.48155  -0.34413803   -1.4330348    50.287834 
118252000    330.16816    260.16109  -0.74287642  -0.79454655     70.00707 
118256000    320.00299    285.91085  -0.47235211  -0.61311066     34.09214 
118260000    311.75692    283.33356   0.78392467    -1.198096    28.423361 
118264000     313.6715    272.31029 0.0061598957  -0.40849178    41.361214 
118268000     334.5234    287.60751   -1.4843241  -0.87891193    46.915883 
118272000    331.42767    263.93848   -1.1324298   0.54151816    67.489187 
118276000    343.65539    282.30058   -2.6507284  -0.99307258    61.354814 
118280000    337.08066    289.08907  -0.86615662   -2.0113774    47.991586 
118284000    314.60933    274.89818   0.39500411   -0.8288059    39.711149 
118288000    318.90815    295.40277   0.49664989   -1.8986018    23.505385 
118292000    322.82247    302.93013   -1.4019207   -1.6156523    19.892342 
118296000    300.11251    302.35895  -0.45104701  -0.91106814   -2.2464379 
118300000    325.31898    277.76613   -1.1996888  -0.44933665    47.552858 
118304000    325.26021    275.36048   0.51809193  -0.39398035    49.899723 
118308000    347.06982    268.50723  -0.89866498   -1.6405713     78.56259 
118312000    330.26406    277.26886   -0.6760135   -1.3044648    52.995201 
118316000    306.21679    279.08183   0.33358342  -0.93223405    27.134952 
118320000    330.30714    279.16865   -0.8201594   -1.1474057    51.138493 
118324000    348.67292    286.96165   -1.3461964   -1.6098513    61.711271 
118328000    331.73381    298.42488  -0.88802225   -1.5798482    33.308933 
118332000    332.77762    278.92583  -0.88238689  -0.80957414    53.851788 
118336000    327.06588    272.48009   -1.2966239  -0.01016496    54.585785 
118340000    317.35723    290.91725   -0.3140661  -0.29930351    26.439987 
118344000    337.74047    268.90484  -0.42815591  -0.36649662    68.835629 
118348000    310.14607    271.26057   0.64350419  -0.11979586    38.885493 
118352000    327.47797    296.02053  -0.63106899   -1.9135158    31.457445 
118356000     325.0422    270.41325   -1.4876592  0.017559478    54.628948 
118360000    336.35943    265.99287   -1.8071192  -0.20216928    70.366564 
118364000    324.38124    286.08217  -0.18295924  -0.24827722    38.299066 
118368000    324.98212     285.5297  -0.83160916   0.71059836    39.452424 
118372000    318.94707    291.73345   0.18200702  -0.29450459    27.213625 
118376000    310.92256    287.19844 -0.065479063   -1.7169987    23.724118 
118380000    316.23048    284.00505  -0.57283158  -0.51947278    32.225426 
118384000    328.67093     277.0783  -0.91660123   -0.2473928    51.592622 
118388000    334.81933    247.04727  -0.37145661   0.74504537    87.772061 
118392000    324.24887    303.28063   -1.3737579   -1.2019807    20.968238 
118396000    330.40817    276.94302  -0.70590306   0.58320267    53.465145 
118400000    307.14379    278.34865  -0.13666565   0.92088707     28.79514 
118401000     341.2334    282.97485   -1.0218081   0.68622125    58.258557 
Loop time of 1066.84 on 4 procs for 800000 steps with 1498 atoms

Performance: 16.197 ns/day, 1.482 hours/ns, 749.879 timesteps/s
99.6% CPU use with 4 MPI tasks x no OpenMP threads

MPI task timing breakdown:
Section |  min time  |  avg time  |  max time  |%varavg| %total
---------------------------------------------------------------
Pair    | 533.64     | 736.11     | 946.74     | 733.2 | 69.00
Bond    | 3.272      | 5.1372     | 6.8873     |  76.7 |  0.48
Neigh   | 5.8595     | 5.8608     | 5.8621     |   0.0 |  0.55
Comm    | 14.02      | 209.46     | 412        |1346.2 | 19.63
Output  | 0.0054031  | 0.015586   | 0.025707   |   5.8 |  0.00
Modify  | 56.381     | 85.395     | 115.9      | 231.5 |  8.00
Other   |            | 24.86      |            |       |  2.33

Nlocal:    374.5 ave 714 max 35 min
Histogram: 2 0 0 0 0 0 0 0 0 2
Nghost:    2375.5 ave 4264 max 496 min
Histogram: 2 0 0 0 0 0 0 0 0 2
Neighs:    13074 ave 25893 max 313 min
Histogram: 2 0 0 0 0 0 0 0 0 2

Total # of neighbors = 52296
Ave neighs/atom = 34.9105
Ave special neighs/atom = 0.518024
Neighbor list builds = 1420
Dangerous builds = 0
unfix 1


# PRODUCTION

fix             1 all nve
fix             hot all langevin ${TThi} ${TThi}  0.005 59804  tally yes
fix             hot all langevin 320 ${TThi}  0.005 59804  tally yes
fix             hot all langevin 320 320  0.005 59804  tally yes
fix             cold all langevin ${TTlo} ${TTlo} 0.005 287859 tally yes
fix             cold all langevin 280 ${TTlo} 0.005 287859 tally yes
fix             cold all langevin 280 280 0.005 287859 tally yes
fix_modify      hot temp Thot
fix_modify      cold temp Tcold

variable        tdiff equal c_Thot-c_Tcold
thermo          4000

dump gigo all atom 4000 dump.cords_xyz.dat
dump_modify gigo scale no
dump vfgigo all custom 4000 dump.velo.dat id vx vy vz fx fy fz

# thermal conductivity calculation
# # reset langevin thermostats to zero energy accumulation
#
compute         ke all ke/atom
variable        temp atom c_ke/1.5/0.00008617333262

fix             ave all ave/time 100 40 4000 v_tdiff ave running
thermo_style    custom step temp c_Thot c_Tcold f_hot f_cold v_tdiff f_ave

#compute         layers all chunk/atom bin/1d z lower 0.05 units reduced
compute         layers all chunk/atom bin/1d z lower ${dz} units box
compute         layers all chunk/atom bin/1d z lower 6.0700273388011 units box
fix             2 all ave/chunk  100 40 4000 layers v_temp file profile.langevin

run             16000000
WARNING: Using a manybody potential with bonds/angles/dihedrals and special_bond exclusions (../pair.cpp:218)
Neighbor list info ...
  update every 1 steps, delay 0 steps, check yes
  max neighbors/atom: 2000, page size: 100000
  master list distance cutoff = 16
  ghost atom cutoff = 16
  binsize = 8, bins = 3 3 23
  4 neighbor lists, perpetual/occasional/extra = 4 0 0
  (1) pair lj/cut, perpetual, skip from (4)
      attributes: half, newton on
      pair build: skip
      stencil: none
      bin: none
  (2) pair morse, perpetual, skip from (4)
      attributes: half, newton on
      pair build: skip
      stencil: none
      bin: none
  (3) pair eam, perpetual, skip from (4)
      attributes: half, newton on
      pair build: skip
      stencil: none
      bin: none
  (4) neighbor class addition, perpetual
      attributes: half, newton on
      pair build: half/bin/newton
      stencil: half/bin/3d/newton
      bin: standard
Per MPI rank memory allocation (min/avg/max) = 12.03 | 12.29 | 12.44 Mbytes
Step Temp c_Thot c_Tcold f_hot f_cold v_tdiff f_ave 
118401000    281.01733     341.2334    282.97485           -0           -0    58.258557            0 
118404000    273.67739    341.59061    254.03153  -0.36174483   0.80092694    87.559087            0 
118408000    275.97929    330.76687    258.46999   0.38100008   0.26862381    72.296876    38.225914 
118412000    275.77411    321.02277    278.02249  -0.42189924  -0.46099178    43.000281    39.851648 
118416000    264.11543    302.75299    268.88367    1.1745914   0.31317564    33.869316    39.460648 
118420000    279.21568    312.13481    293.30326   0.95359446  -0.40858663    18.831546    39.881536 
118424000    278.79874    330.10196    289.90442  -0.80111458    -1.102367    40.197543    40.398157 
118428000    276.31613    336.78672    280.73537  -0.86599353  -0.27350479    56.051351    40.462495 
118432000    276.63446    327.79228    288.63405  -0.78907936  -0.33703758    39.158231    40.485229 
118436000     276.5692    335.20621    276.44169   0.22492627   0.09412518    58.764523    40.839446 
118440000    279.05943    332.14751    286.40498 -0.096909506  -0.63964504    45.742523    40.449438 
118444000    286.51194    329.51897    296.02899 -0.073347903   -1.6773684    33.489984     40.33752 
118448000    272.97295    318.15761    274.63892   0.37807195   -1.6284471    43.518684    40.578674 
118452000    273.99612     320.4181    267.82718  -0.39142262  -0.78919793    52.590918    40.557774 
118456000     275.9192    321.85051    277.65974   0.58759279  -0.80054207     44.19077    40.185064 
118460000    281.15821    319.27837    280.55824  -0.64930726   -1.0377765    38.720129    40.399121 
118464000    273.24166    309.81004    281.82518   0.60284297   -1.4086865    27.984855    40.304251 
118468000    279.30086    322.50038    269.19947   0.31760929   -1.9977228    53.300912    40.214792 
118472000     284.2192    324.81552    290.23071 -0.010843318   -2.2793751    34.584807    40.518322 
118476000    268.64402    318.52093    258.63913    1.5173053  -0.17346934    59.881801    40.519426 
118480000     277.0334      307.905    289.05796    2.1926609   -1.7265859    18.847036    40.710349 
118484000    271.94912    301.68789    281.47844    0.8389107   -1.0579637    20.209448     40.47458 
118488000     277.1511    341.08733    273.88704  -0.97053319  -0.95765394    67.200297    40.649197 
118492000    272.44295    315.97341     283.0637 -0.094464496  -0.75722549    32.909711    40.634951 
118496000    273.27284    297.88711    274.21072  -0.53417091   -1.0465324    23.676389    40.706635 
118500000    276.90813    299.01452    291.44226   0.73953441   -1.8751341    7.5722599    40.695073 
118504000    270.57195    330.84916    272.94566  -0.16791991   0.38771645    57.903498    40.713882 
118508000    286.97741    339.81435    286.59148  -0.94436835  -0.87932554    53.222873      40.7711 
118512000    275.97599    326.59858    270.68225  0.001365547  -0.40697157    55.916326    40.555714 
118516000    280.01346    335.87006    285.14404  -0.63049956   -1.0786881    50.726022    40.466522 
118520000    262.10366    287.18006    284.40394    1.8345307   -1.2354176    2.7761185    40.418212 
118524000    266.60888    291.27616    279.18802   0.19097067   -1.3475115    12.088137    40.350689 
118528000    268.55141    311.26247     282.3511   0.36656435  -0.49226794    28.911368    40.218409 
118532000    282.52708    327.51391    281.45836  -0.72175564  -0.82552452    46.055548    40.323782 
118536000    271.50291    305.56469    283.25773  -0.80770953  -0.92687417     22.30696    40.298894 
118540000    274.59148    311.60535    283.90128  -0.83833737  -0.59166228    27.704067    40.247072 
118544000    279.50977    318.58703    283.25336   -1.7858713 -0.047530865    35.333666    40.280199 
118548000    273.38078    317.35067    269.94525    -1.416416   0.26736013    47.405424    40.158158 
118552000    277.57593    343.00141    256.72383   -1.3344369  0.044251294    86.277577    40.187524 
118556000    280.33536    317.38766    295.31445   -1.1716581   -1.6074221    22.073218    40.355667 
118560000    268.61749    310.16332    267.27172   0.61294371   0.11843836    42.891599    40.380151 
118564000    283.29112    320.60105    299.24362  -0.16671503   -1.3056903     21.35743    40.470557 
118568000    284.85452    313.53368    295.40117   0.50735822   -2.2614071    18.132507    40.427093 
118572000    280.90128     338.9089    273.04332  -0.72249394   -1.1957694    65.865585    40.596916 
118576000    276.63128    322.59817    279.00603   0.20038535    -1.369256    43.592139    40.610074 
118580000    278.58891    331.87349    270.44281   0.49913759  -0.81636307    61.430682    40.692409 
118584000    274.81582    317.48464     276.3917   0.59920195   -1.8456087    41.092936    40.666016 
118588000    281.16559    344.33242    278.16502  -0.98595637   -0.7840128    66.167404    40.794305 
118592000    281.00275    321.78389    284.51345  -0.38170202   0.32925802    37.270434    40.742538 
118596000    288.00368    342.40615    290.61657   -1.0926502  -0.97678341    51.789578     40.69344 
118600000    278.92993       312.21    295.32959   0.65324232    -2.274434    16.880406    40.546395 
118604000    277.26268    300.69408    284.30359   0.70595042   -1.5335955    16.390488    40.565924 
118608000    283.43831     327.9063    293.42182   0.18604013   -2.3067385    34.484482    40.527167 
118612000    268.25653    316.81249    261.65835 -0.017472325  -0.24555839    55.154133    40.561241 
118616000    282.52897    327.74081    289.60537  -0.95439009   -2.9570599    38.135443    40.540332 
118620000    273.09243    305.26639    271.93493  0.020439957   -1.1581894    33.331461     40.46566 
118624000    280.34333    336.41797    275.90555   -0.5449221   -1.6451935    60.512416    40.499594 
118628000    269.96753    310.00357    270.76314   0.23538606  -0.86682818    39.240424    40.532964 
118632000    280.72481     352.8472    258.25498   -1.6616859    -1.138864     94.59222    40.503778 
118636000    266.18656    303.89448    264.35938   0.82846224   -1.4550927      39.5351    40.569143 
118640000     276.0302    341.86834    264.47112  -0.81251668   -1.6798753    77.397218    40.564224 
118644000    280.34663    320.02898    273.29321    0.2764928  -0.75632591    46.735769     40.57787 
118648000    277.77968    323.21045      290.487   0.37347475   -1.1118779    32.723458    40.635223 
118652000    281.49732    328.40675    295.13628  0.021624438   -2.2308859    33.270471    40.606564 
118656000    278.85844    332.93355    288.61374    1.0583771   -1.0619917    44.319812    40.699588 
118660000    273.37363    328.77369    281.23772  0.056273678   -1.0226017    47.535972    40.782804 
118664000    277.48594    332.35988    278.91993  -0.92164912   -1.1047512    53.439955    40.774093 
118668000     274.9981    319.24424    304.83956    1.2511766   -2.3850546    14.404677    40.723002 
118672000    276.11152    323.62632    270.96043  0.028954169 -0.030306088    52.665891    40.729061 
118676000    278.52813    312.82038    305.36796   0.83588735   -2.2715394    7.4524193     40.76411 
118680000    274.16098    316.26291    274.35718  -0.47878668   -1.2426898     41.90573     40.74001 
118684000    278.71677    336.67777    286.50446  -0.45017333  -0.69333895    50.173309    40.682407 
118688000    266.69269    306.53106    264.95039      1.29733    0.1533697    41.580674    40.761117 
118692000    282.07073    336.48171    283.58491   -1.2375525   -1.1925134    52.896807    40.807529 
118696000    266.82743    300.16195    263.68594    1.6892677   0.41934851    36.476005    40.759927 
118700000    278.15332    319.85723    292.00719   0.13375191   -2.0251364    27.850042    40.774258 
118704000    264.13607    293.97796    261.03426    1.0462671  -0.35994444    32.943705    40.835296 
118708000    273.30151    314.34609    272.80745   -1.3473483  -0.61258349    41.538634    40.839367 
118712000    283.79391     346.2521    277.13877   -1.8083578  -0.80341016    69.113328    40.834767 
118716000    276.90269    329.53917    272.64386   0.11229553   0.37859407    56.895307    40.822906 
118720000    267.48776    295.66847    273.90559    0.3492242   0.67451679     21.76288    40.848066 
118724000    282.87083    318.21154    295.42021   0.17711092  -0.92675307    22.791323    40.879821 
118728000    279.81289    319.83931    270.02164    0.1396865  -0.48339341    49.817676    40.864166 
118732000    279.57051    324.13003    279.96504   -1.2960607   0.12354392    44.164986    40.857873 
118736000    270.50697    316.36978    293.39166   0.94412165  -0.29844723    22.978122    40.887853 
118740000    275.87738    320.42119    279.69057  0.036252539  -0.98829967    40.730625    40.900491 
118744000    273.88584    317.57344    285.05165   0.48217693  -0.49132291    32.521789    40.921811 
118748000    277.10425    310.70991    284.12646   0.79098278  -0.93453821     26.58345     40.92384 
118752000    285.15204    319.17168    294.07009  -0.49858994   -1.5074021    25.101585    40.933561 
118756000     277.9336     326.4234    274.24326   -1.7958221  -0.90629205    52.180136    40.938008 
118760000     283.6965    320.31731    290.96733  -0.89168831   -1.3740044     29.34998    40.965289 
118764000    282.03975    327.46017     279.1743   -2.0722871   -1.9784287     48.28587    40.955965 
118768000    287.92504    304.31451    290.95233   0.20088063   -1.2593247    13.362181    40.951483 
118772000    277.30688    306.49443    276.91641  0.060446532  -0.96619494    29.578027    40.974163 
118776000    275.30689    315.09178    296.34495  0.024960222   -2.1136107    18.746839    40.933442 
118780000    268.21983    298.47995    265.93829  0.032405815   -0.9210854    32.541658    40.961993 
118784000    275.06761    307.26394    279.81915   0.36392141   -1.4360573    27.444784    40.928234 
118788000     281.2379    316.59058    293.64579   -1.2547453   -1.1850136    22.944791    40.911952 
118792000    285.92751    301.49211    319.68562  -0.47613027   -2.6064881   -18.193515    40.890212 
118796000    278.72299    328.70659    281.67893   -0.9381392  -0.62788745    47.027663     40.88499 
118800000    281.84598    323.04794    268.75711  -0.67767482 -0.025711296    54.290834    40.900452 
118804000    274.38378    321.12416    280.47291   -1.2855135   -1.7405682    40.651253    40.906998 
118808000    282.30931    350.30381    284.75094   -2.1135096  0.064524676    65.552861    40.902311 
118812000     279.9465    319.50212    284.79329  -0.17710354   -1.1396374     34.70883    40.929246 
118816000    275.49861     336.0356    286.87444   -1.2836404 -0.011316938    49.161161    40.958469 
118820000    278.23709    319.98716    287.06324  -0.23602963  -0.65645448    32.923922    40.872963 
118824000    283.15848    334.48679    287.77848   -1.3200787   -1.2914293     46.70831    40.864812 
118828000    276.31477    294.09612    302.46351    0.7732562   -1.7325827    -8.367386    40.808857 
118832000    276.31244    293.83501    306.87565   0.24921401   -1.4458875   -13.040633    40.775961 
118836000    279.96991    321.97806    290.75259  -0.81287767  -0.37671804    31.225476    40.782084 
118840000    270.37403    312.02907    268.17946  0.079785402  -0.24400916    43.849608    40.810481 
118844000    276.82222    305.07543    279.79097   0.26955836   -1.4882368    25.284457     40.77175 
118848000    275.30536    327.80899    271.86333   -1.8029376     1.203236    55.945657    40.800163 
118852000    273.37539    321.63602    257.80675   -1.3015965    1.6576752    63.829264    40.791218 
118856000    279.71516    332.86408     260.8331   -2.5995188    1.8934163    72.030983    40.783674 
118860000    272.87308    318.71329    281.73986   -1.7913439    1.3183088    36.973428    40.791475 
118864000    285.67253    321.40072    301.73897   -1.3767005   0.53937673    19.661747    40.760575 
118868000    276.43804    317.00671    285.87834  -0.54326416   0.13101993    31.128368    40.742355 
118872000    278.97982    328.24681    276.07304   -1.8485886   0.19994045    52.173765    40.795663 
118876000    273.13468     300.2261    288.59604   0.19208585   0.30139269    11.630059    40.800913 
118880000    271.67053    298.17302    265.68701   0.36546469    1.1659368    32.486006    40.741595 
118884000    281.74165     333.1803    290.40905   -2.1582694    0.2218655    42.771247    40.729549 
118888000    278.95769    309.67283    283.13918  -0.25806325  -0.83451236    26.533647    40.677913 
118892000    274.41522    329.96772    284.01482 -0.060309157 -0.094387413    45.952907    40.709799 
118896000    284.62874    347.21013    290.52331   -1.7759307  -0.13455581    56.686818    40.735686 
118900000    284.73604    350.94847    274.91162   -1.2723933  -0.22213327     76.03685    40.742483 
118904000    283.02424    344.62849    272.62993   -2.1494561   -0.7373604    71.998564     40.73691 
118908000    285.89509    329.37497     303.0233   -1.6102536   -2.6177997    26.351677    40.721314 
118912000    288.88177    312.25317    304.26815    -0.218561   -1.9605777     7.985022    40.706663 
118916000    279.14666    300.28909    293.69842   0.90299539   -2.7463685    6.5906773    40.702452 
118920000     285.6884    332.33501    266.93366   -1.4842901   0.32030862    65.401348    40.746253 
118924000    288.43254    338.86256    309.21754   -1.6279265   -2.1265176    29.645021    40.723934 
118928000    264.97919      297.762    268.23779  -0.42394954 0.0093699131    29.524212    40.683577 
118932000    281.29739     317.9751     298.5831   0.18024234   -1.4352121    19.392002    40.641832 
118936000    273.73963    305.80582     260.8989   0.40417481  -0.20665572    44.906914    40.658101 
118940000    284.31613    333.94483    288.57336  -0.27632046    -1.726526    45.371468    40.648183 
118944000    272.08695    317.61645    269.50682   -1.0489714   0.59054689    48.109628    40.646502 
118948000    279.05346    327.82104    292.90861   -2.0073949 -0.0010726972    34.912431    40.645266 
118952000     273.2864    326.53226    258.67254   -1.7440004    1.1502511    67.859722    40.612352 
118956000    283.07497    338.27388    282.77569   -3.1447646 -0.050979671    55.498183    40.595237 
118960000    279.07153    335.92451     261.8364   -2.6074925    1.0669946    74.088111    40.601123 
118964000    279.18016    316.63699    274.52704  -0.44590565  -0.37314105    42.109948    40.552205 
118968000    274.26634    305.57867    275.75897 -0.056926688  -0.21681221    29.819704    40.555723 
118972000    271.89929    323.53243    270.46652   -1.1523202   0.19058126     53.06591     40.54784 
118976000    279.89643    307.69622    288.93181   -2.1350191  -0.84546842    18.764404     40.48527 
118980000    278.37329    320.95763    293.33967   -1.1711484  -0.28030317    27.617964    40.473426 
118984000    284.59305    325.93606    291.68618   -1.4300528  -0.75322232    34.249873    40.468704 
118988000    278.77309    331.11542    287.86686   -1.7467547  -0.47203677    43.248561    40.492832 
118992000    275.40569    314.36041    301.93484  -0.88706878   -1.7771746    12.425571    40.471594 
118996000    276.05151    314.26095    276.28569   -1.4398289  -0.26855923    37.975256    40.493339 
119000000    268.65856    295.19201    277.11153 -0.093333985   0.14809265    18.080479    40.489633 
119004000    276.34536    313.54963    308.80456   -2.1853162   -1.2809655    4.7450642    40.471514 
119008000    286.90746    351.15643    298.48243   -3.9711635   -1.0131537    52.674001    40.453477 
119012000    278.64594    319.50079    281.00806    -1.471329  0.021825404    38.492731     40.46327 
119016000    274.26219    321.14481    259.12974   -1.7256311    1.3131474    62.015077    40.465931 
119020000    284.01031    325.67957    297.78607   -1.6026522   0.59818549    27.893499    40.465111 
119024000    289.24865    337.01154    307.04697   -1.6462205   -1.4329183    29.964569    40.460686 
119028000    281.72869    321.62286    279.10632   -1.2708817    1.3986635    42.516541    40.468631 
119032000     282.5469    335.55743    279.59635   -1.1934375  -0.57978103    55.961082    40.496086 
119036000    287.37703    341.22827    285.98444  -0.96695351   -0.1875539    55.243832    40.470438 
119040000    273.22849    330.49147     261.7914  -0.21513336   0.57088903    68.700066    40.480553 
119044000    268.64164    299.05007    271.82563    1.0156273   0.11687124    27.224438    40.486855 
119048000    278.33579    324.22742     285.1732  0.077080941  -0.83789351     39.05422    40.486051 
119052000    282.86054    336.85169    278.27329   -1.1651172  -0.79096819    58.578404    40.496921 
119056000    281.50671    331.54713    276.04407  -0.43851526   0.60708286    55.503062    40.516583 
119060000    269.91198    304.91676    276.01568  -0.41106915   0.33193837    28.901081    40.484035 
119064000    278.00233     318.2761    282.30881   -1.6355909  -0.33464556    35.967289    40.458951 
119068000    273.45794    317.42068    278.04552  -0.84530926   0.81691137    39.375158    40.437063 
119072000    277.54907    318.97985    273.34336   -1.4215829  -0.29340084    45.636493     40.42028 
119076000    276.51586     321.8216    288.77234   -1.0669656  -0.32413172    33.049257    40.400398 
119080000    264.10047     300.4607     249.7419   0.21947193    1.8185221    50.718801    40.387248 
119084000    269.97693    317.64144    266.24456   -1.3516632     1.369934    51.396883    40.405754 
119088000    275.42043    326.30817    272.51641  -0.79343215  -0.30626248    53.791755     40.42719 
119092000    276.08096    319.37902    289.23633  -0.92133085  -0.84137816    30.142687    40.415753 
119096000    270.69502    315.06675    284.53078  -0.19348214    1.2823032    30.535973    40.410431 
119100000     281.0625    323.41938    286.05615  -0.66419446   0.17132271    37.363229    40.415731 
119104000    275.82388    320.49498    270.93361   -0.2295895   0.86155711    49.561366    40.398483 
119108000     282.9006    335.51867    288.80116  -0.62718008  0.022373338    46.717511    40.388485 
119112000    277.07891    336.94281    260.92056   -1.0900065    1.7793346    76.022253     40.38061 
119116000    279.62977    323.97951    290.21978   0.41955153  0.031137447    33.759733    40.375417 
119120000     277.1956     323.5956    278.74774   0.19161699   -1.0201515    44.847859    40.350314 
119124000    281.18736     352.7106    269.87208   -1.5249609     1.363486    82.838526    40.361459 
119128000    279.23732    331.98454    291.20517   -1.1310597   0.65474679    40.779367    40.362737 
119132000    267.97989    311.16111    273.26475  -0.10340849     1.977226    37.896358    40.374472 
119136000    277.03334    326.49698    276.80274   -1.6580365    1.2999855    49.694242    40.386083 
119140000    275.27795    311.86451    273.42044  0.049858382   0.58220102     38.44407    40.389398 
119144000    278.11616    338.07107    286.49668   -2.9039692  -0.34828888    51.574394    40.398548 
119148000    273.04954    317.72939    272.31983  -0.52912535   0.68084833     45.40957    40.405549 
119152000    272.74315    320.02583    277.71091   0.11575093   0.64717871    42.314917     40.39974 
119156000    279.63934    338.84066    274.87909   -2.2466652   0.41799349    63.961569    40.375928 
119160000    281.77442    346.78972    278.38212   -2.8080026   0.27795878    68.407601    40.379139 
119164000     273.2259    318.06645    273.74381    -1.997583   0.35652338    44.322637    40.390604 
119168000    270.62358    319.60353    272.73486   -1.8486643    2.0273016    46.868667      40.3693 
119172000    278.47049     341.0959    273.30697   -3.2749635    2.0426115    67.788929    40.377937 
119176000    278.82603    318.70602     309.1681  -0.49816457   -1.0800492     9.537914    40.369247 
119180000    266.04044    305.47922    276.97093  -0.54197043   0.43660722    28.508291    40.385598 
119184000    274.48734    328.19127    272.83783   -2.4028384   0.95874249    55.353433    40.371402 
119188000     276.9884    331.42898    274.77851  -0.38146018   0.83622525    56.650468    40.365281 
119192000    260.57123     294.8752     276.4039    0.2775719    1.2266193    18.471308    40.347989 
119196000    268.24974     301.4054    271.49134  -0.10436218    2.3605033    29.914055    40.367505 
119200000    273.76118      334.495    279.42406   -1.0500419    2.4368736    55.070942    40.361052 
119204000    273.04083    307.01404    291.90317   0.82355038    1.1662046    15.110868    40.340663 
119208000    270.09701    307.80492    275.48058    0.4137364    1.4023208     32.32434    40.339428 
119212000     268.7033    307.27117     264.9024  -0.55540911    1.1196022    42.368771     40.34269 
119216000    272.39615    311.70254    282.55578  0.015900066    1.2992366    29.146764    40.349442 
119220000    283.44768    338.55752    289.54354  -0.67439755    1.2867735    49.013985    40.356538 
119224000    278.52062    347.08376    285.70851    -2.322478    1.3103866    61.375253    40.365238 
119228000    268.24261    309.62549    276.10287  -0.95453326    2.6338614    33.522618    40.384744 
119232000    274.90204    328.58024    289.63341   -2.4070542    1.8113341    38.946836    40.370901 
119236000      277.504    313.03839    297.05025   -2.2604168   0.55917069    15.988135    40.378131 
119240000    269.50432    325.88392    280.03998   -2.0041256    2.9599722    45.843945      40.3798 
119244000    275.83534    327.72837     263.9498   -1.5097978    3.1982881    63.778572    40.386601 
119248000    284.51963    337.72073    296.61929   -3.0765055    1.5650229    41.101434    40.397668 
119252000    271.73745    327.36483    285.86419    -1.415808    2.4531718    41.500643    40.410358 
119256000    269.01909    311.47716    274.06125   -1.5606411    2.8051255     37.41591    40.424008 
119260000    272.60816    309.00406    288.23133   -2.2609846    3.2110873    20.772737    40.437101 
119264000    269.93489    302.68569    285.70001   -1.8798044    2.6526586    16.985677    40.448071 
119268000    271.30078    311.74036     280.4321   -1.4935133     1.573393    31.308261    40.440933 
119272000    274.64601    321.37653    274.17186   -2.3130559    2.0897088     47.20467    40.442579 
119276000    261.71775    301.60271    254.69838   -1.4570028     2.633887    46.904332    40.435871 
119280000    276.69628    321.56142    280.15216   -2.5581633     2.687614    41.409258    40.433461 
119284000    281.16499    344.78478    278.92435   -3.6869981    2.8496772    65.860425    40.422621 
119288000     284.5049    332.89318    277.66018   -3.4379538    2.1670925    55.233001    40.414401 
119292000    275.78901    312.58898    277.93468   -2.2855911    2.0724371    34.654303    40.418365 
119296000    266.37981    292.70346    282.44609   -1.0939215    2.1838251    10.257367    40.412192 
119300000     269.7142    308.32771    277.46808   -1.3143572    1.6064603    30.859631    40.418931 
119304000    273.50581    317.87956    279.39328   -3.4001586    2.2919063    38.486279    40.428648 
119308000    268.88037    319.14736    272.35251   -2.4613257    3.8678442    46.794845    40.440686 
119312000    275.75436    321.50501    272.98742   -3.3744528    1.9504661    48.517591    40.439388 
119316000    280.92372    332.24119    292.34842   -3.7316611    1.8680821    39.892767    40.437482 
119320000    277.50375    324.47273    292.34802   -2.6249411    2.1829787    32.124711    40.446566 
119324000    276.60261    332.37449    288.90985   -2.2725691    1.3318503    43.464635    40.467967 
119328000    274.95961    326.99357    276.88905   -2.1626739    2.5434277    50.104519    40.464212 
119332000     265.2512    288.88641     272.7218   -0.9871076    3.3456172    16.164601    40.460918 
119336000    267.05129    316.31183    256.65792   -2.0348898    4.7881617     59.65391    40.468073 
119340000    282.50896    339.48535     275.5999   -3.2195366    4.3061347    63.885445    40.482196 
119344000    269.81658    346.32025    256.95502   -2.2876193    3.7538844    89.365225    40.479274 
119348000    276.94198    310.64039    289.96182   -1.7377041    2.6871963    20.678571    40.485578 
119352000    274.34028    305.89167    279.60024   -2.4801616    3.3493735    26.291427    40.501193 
119356000    278.53761    365.78091    272.39345   -4.7955792    3.5725597    93.387456    40.523308 
119360000    273.66322    310.02174    288.77299   -1.9493612     2.260127    21.248751    40.518992 
119364000    273.13935    326.96352    281.79371   -3.3117393    3.1320953    45.169805     40.53436 
119368000    270.10723    320.83985    272.76248   -1.9887729     4.554142    48.077376    40.519567 
119372000    269.55991    318.80072    265.60663    -2.930049    3.5308251    53.194085    40.509127 
119376000    276.28129    336.49922    285.45489   -3.4260521    2.2204318    51.044326    40.493247 
119380000    277.88648    332.99649    284.62015   -2.9931748    2.3390155    48.376336    40.484364 
119384000    264.47102    299.50636    264.74927    -0.211658    3.9626277    34.757087    40.483416 
119388000    280.87983    336.09661    303.32245   -1.1449822    1.6874797    32.774162    40.485272 
119392000     269.2695    317.05817     260.2173   -1.3147666    3.7544914    56.840866    40.475682 
119396000    269.36788    332.82845     275.5874   -2.7124304    2.1530334    57.241052    40.463408 
119400000    273.15469    311.05529    265.65753   -1.7410984    3.8623293    45.397754    40.454115 
119404000    279.03454    332.09393     286.0598   -3.3041186    1.5325327    46.034129     40.45891 
119408000    272.96001    313.38894    288.41338   -2.3647361    1.4683765    24.975564    40.447049 
119412000    279.03439    312.15549    288.19989   -1.6016492    1.6516448    23.955592    40.436766 
119416000    262.21711    302.70326    253.96683   -1.5003937    3.8833176    48.736426    40.437521 
119420000    282.25465    329.42014    276.78181   -3.6453721   0.39136707    52.638325    40.436342 
119424000    272.12834    309.89804    278.46281    -2.780743   0.94393244    31.435225    40.429615 
119428000    280.89421    346.47793    276.98855   -3.3303099    2.5310526    69.489382    40.423065 
119432000    276.84243    341.21475    259.57648   -3.4448058    2.8952189    81.638268    40.423559 
119436000     278.5396    326.22277    262.99893   -2.4217393    1.3910801    63.223845    40.410272 
119440000    274.18455    328.30295    267.40814   -2.8805928    1.3550063    60.894809    40.409216 
119444000    278.72118    316.99162    274.33481   -4.9776787   0.91589066    42.656809    40.385816 
119448000    279.93132    326.44972    275.94055   -4.4889409   0.42512987    50.509173    40.392995 
119452000    273.99914    317.89969    248.96509   -4.5903251    2.0439717    68.934602    40.388308 
119456000    281.92485    338.22523    277.90032   -5.0589468   0.51641969    60.324902    40.404183 
119460000    281.72284     324.0309    254.25501   -3.5608315    2.8310006    69.775889     40.41451 
119464000    282.63696    313.52318    297.59789   -3.0977754    1.0216608    15.925295    40.423624 
119468000    280.46765    330.37364    274.44448   -4.5027801    1.6370399    55.929154    40.421264 
119472000    282.06078    336.95322    271.24978   -3.8645856    3.1616798    65.703445    40.433639 
119476000    273.43805    325.37036    279.43914   -3.9271745    2.7747354    45.931223    40.440568 
119480000    276.27389    318.11348    273.82621   -3.9650796    1.2488541    44.287263    40.421962 
119484000    271.73407    301.60236    276.59923   -2.9232762    2.6454094    25.003126    40.417775 
119488000    282.23383    322.39315    303.30218   -3.3130609   0.31259612     19.09097    40.404388 
119492000    283.05615    343.72686     274.5646   -3.9286108    1.2603847    69.162261    40.396398 
119496000    280.37023    353.15709     280.7886   -4.8397525    2.2003661    72.368496    40.394341 
119500000    274.02785    328.74002    277.77889   -3.4843705    1.7745515     50.96113    40.397698 
119504000    279.34447     325.9823    288.89774   -3.5147073    1.4718415    37.084559    40.398242 
119508000     281.7695    320.74481    304.23593   -2.8463795    1.5183865    16.508877    40.396991 
119512000    276.19164    318.83156    273.95833   -2.3947352    2.7053568     44.87323    40.389755 
119516000    263.92364    310.95245    255.72225   -1.0335458    2.8877293    55.230199    40.384496 
119520000    268.50272    311.92818    253.72712   -2.6735664    2.9774381    58.201058    40.383962 
119524000    270.15907    317.59045    270.62633   -2.4848308     3.457938     46.96412    40.390321 
119528000     273.1574    318.73869    256.74782   -2.3567615    3.0062064    61.990876    40.387144 
119532000    277.21339    328.53529    286.79827   -2.5688475    1.7698156    41.737019    40.395325 
119536000    268.11273    294.50655    272.06316   -1.9138727    2.8727592     22.44339    40.392623 
119540000    266.83629    304.90146    268.45329   -1.7907696     2.110405    36.448168    40.414006 
119544000    274.20695    309.97399     290.6217   -1.3955846    1.0029322    19.352293    40.405698 
119548000    279.13102     319.0519    282.20876   -1.4890932   0.54294783    36.843135    40.401689 
119552000    279.80776    337.26948    281.42088   -2.3694343    1.9542415    55.848603    40.404731 
119556000     283.6127    345.98585    282.48905   -3.9686497    2.3793822    63.496792    40.393798 
119560000    273.23769    313.24934    286.05999   -2.5129682    1.6678204    27.189349    40.391377 
119564000    276.11229    331.12746    271.12476   -2.8383636    2.9594996    60.002691    40.398273 
119568000    275.50633    336.39954    287.97798   -3.5488681   0.84126052    48.421558    40.403325 
119572000    267.29931    299.90595    270.57031    -1.246805    1.5780756    29.335642    40.400189 
119576000     279.7868     303.5019    294.10325   -1.3664222    1.8898588    9.3986461    40.398197 
119580000    274.99726    295.56626    295.88767  -0.28575857   0.87881839  -0.32140468    40.388197 
119584000    273.28476    325.06821    268.47041   -2.5249278    2.7977681    56.597801      40.3819 
119588000    275.14685    310.00468    281.04266    -1.690273    3.0695499    28.962025    40.394727 
119592000    281.97955    332.81907    290.76603   -3.1507701    2.0180447    42.053042    40.405308 
119596000    279.73718    348.45836    292.45508   -2.5079297    1.9614328    56.003275    40.418088 
119600000     276.2245    309.22881    292.94161   -3.1504673    1.4303935    16.287204    40.404628 
119604000    271.56813    303.00491    281.82448   -2.8437362    3.2688729    21.180436    40.417824 
119608000    280.46091    329.06821    267.37727   -4.4043662    3.8858913    61.690947    40.408801 
119612000    270.89709    308.24201    272.00175   -1.5140658    2.6524494    36.240261    40.415896 
119616000     281.0584    324.41327    291.74679   -2.3008192    1.6992305    32.666477    40.402712 
119620000    273.98248    311.05364    275.45733   -2.3673429    1.4991211    35.596311    40.402307 
119624000    280.66423    312.02858    293.32005   -2.1941702     1.905566    18.708529    40.409295 
119628000    274.41888    318.58225    279.11032   -2.3828214    1.3871652    39.471932    40.388992 
119632000    292.53796    346.67881    282.15562   -4.0475819    1.6719909    64.523192    40.399968 
119636000    278.27618    294.31413    276.88647   -1.8731786     2.497848    17.427662    40.399199 
119640000    278.57965    335.14476     269.6918   -3.6960366    2.3641382     65.45296     40.39027 
119644000    272.93467    303.26052    280.93801   -2.4425245   0.75290618    22.322518    40.380079 
119648000    276.62651    312.37501    275.33115   -3.4360737 0.0041039799    37.043866     40.37132 
119652000    282.90954    336.94744    271.90471   -4.2419963    1.0833699    65.042737    40.387967 
119656000    275.43641    318.79613    281.41778   -2.5757369     2.256472    37.378358    40.411872 
119660000    282.02411    319.01191    301.60255   -3.1509894  -0.29414869    17.409359    40.400558 
119664000     285.2646    330.93884    299.04178   -3.7015332    1.2493622    31.897061    40.385235 
119668000    277.61528    315.66634      276.852   -2.2649494    1.9839152    38.814334    40.381247 
119672000    281.87407    331.76289    275.36053    -3.812925    1.4717343    56.402362    40.379257 
119676000    280.45146    322.31521    274.42166   -2.9366167    1.2668239    47.893546    40.376068 
119680000    276.85313    323.52217    267.10512   -2.7383924    2.3717198    56.417046    40.385877 
119684000    277.03291    306.51244    273.84416   -2.3896237    1.9357255    32.668286     40.39173 
119688000    280.86361    322.05778    281.32655    -3.905525    1.6512106    40.731235    40.402771 
119692000    263.08218    299.07937     264.7012    -2.635594    3.7095314    34.378169     40.41632 
119696000    277.96727     322.6124    267.25229   -4.4548968    3.4811955     55.36012    40.415303 
119700000    278.24576    317.45366    287.24788   -2.6346517    1.5738935     30.20578     40.40695 
119704000    278.40743    313.73578     287.2869   -3.9316939   0.99709869    26.448882    40.406953 
119708000    283.49295    334.40523    289.71246   -4.1478075   0.14833126    44.692765    40.398568 
119712000    272.91493    301.14895    270.50546   -1.9372485    1.2391976    30.643493    40.396669 
119716000    283.55795    313.35136    285.86927   -3.2798639    1.4724259     27.48209    40.409363 
119720000     273.2701     302.1652    278.07251   -2.0548073    2.7907074    24.092686    40.398989 
119724000    279.89103     312.3434    283.63357   -2.9364486   0.91477595    28.709826    40.398853 
119728000    278.68297    334.50351    273.26516   -5.6513345    1.2855836    61.238351    40.401301 
119732000    277.18588    325.17899    282.10927   -4.0571325    1.0920156     43.06972    40.407054 
119736000     284.4693    316.85665    290.89778   -3.4455383    1.0180134    25.958875    40.401608 
119740000    290.38081     339.0884    299.85292   -4.7016862   0.19497748    39.235483    40.398109 
119744000    275.83579    306.27895    286.49268   -2.7630269    1.9672408    19.786267    40.408202 
119748000    285.46116    329.82913    285.63523   -4.5768577    1.6018529    44.193901    40.421996 
119752000    280.41085     317.5723    284.05332   -2.4042756   0.73375329    33.518986    40.420032 
119756000    277.32956    326.16543    264.79549   -3.3362375    2.4730713    61.369942    40.422117 
119760000    270.99589    301.65705    258.76275   -2.1661956    2.7962045    42.894303    40.418774 
119764000    287.84092    330.53934    280.11903   -3.4709305    1.3684114    50.420306    40.428872 
119768000    282.03854    315.69076    276.35618    -2.718902    2.3215271    39.334576    40.425932 
119772000    287.28284    346.24958    274.91151   -5.3197768    1.5321382    71.338066    40.420063 
119776000    289.42824    316.63127    306.04344   -4.6121399 -0.022846219    10.587824    40.419428 
119780000    275.39581    332.10868    277.05606   -3.9775934    1.5165326    55.052618     40.41361 
119784000    281.59588    321.17251    288.50566   -1.9438796    1.2467709    32.666853     40.43103 
119788000    274.67945    305.88347    283.11192   -2.9698393    1.8377254    22.771552    40.433581 
119792000    282.45907    309.95601    295.47143   -3.6559766    1.8056097    14.484584    40.415837 
119796000      272.479    327.02185    273.84777    -3.197207    1.6699987     53.17408    40.430376 
119800000    274.46648    329.45721    268.02503   -4.4838705    3.1582745    61.432171    40.441658 
119804000    283.08014    326.66898    274.84595   -3.6888679    2.1608983    51.823028    40.438095 
119808000    280.74341    306.71272     290.0905   -2.9541532   0.15918362    16.622215    40.439251 
119812000    280.58086    309.10793     276.5298   -3.2257781    1.5004449    32.578135    40.426086 
119816000    277.44249    297.47453     297.3407   -2.4101989  0.092406835   0.13383477    40.427778 
119820000    284.63583    334.39096    279.14585   -3.8660586    1.9361305    55.245102    40.423268 
119824000    276.82166    330.42821    254.96054   -3.9936163    1.9014482    75.467679    40.432596 
119828000    279.29378    322.14048    274.35233   -4.1194299    1.7350439    47.788148    40.424467 
119832000    274.35688    312.24243    285.94047   -2.3571211   0.65556389    26.301963    40.419095 
119836000    278.04149    322.33457    277.51168   -4.0747022    1.5316183    44.822891    40.409181 
119840000    284.98391     328.4626    300.37931   -3.7155166   0.79741789    28.083289    40.413689 
119844000    286.91138    327.83541    299.57442   -3.6100028   0.84753596    28.260989    40.417193 
119848000    271.86101    304.08019    260.94626   -1.9915781    2.1217066    43.133935    40.424095 
119852000    275.46986    306.03046    263.78404   -3.4377537    2.9458473     42.24642    40.439153 
119856000    281.29032    331.79354    272.80434   -4.1604533    3.1729744    58.989202    40.441544 
119860000    291.21155    331.00986    303.64312   -4.6858166  0.085925118    27.366739    40.455313 
119864000    279.31665     333.6171    285.79617   -4.6618361    1.3379015    47.820935     40.44612 
119868000    279.54777    323.94505    265.33661   -5.3316907    3.5618613    58.608445    40.447558 
119872000    281.69116    316.61778    296.03499   -5.1411561    1.7329638    20.582788     40.44692 
119876000    283.03334    307.83024    303.81119   -3.6952979   0.62571056    4.0190511    40.454039 
119880000    282.22246    338.99511    271.44675    -5.320193    2.8347534    67.548357    40.455589 
119884000    285.26299    321.24922    283.51894   -3.9719098    2.0912526    37.730277    40.442836 
119888000    278.71955    345.57285    289.08487   -4.6463197 -0.049947984    56.487986    40.442911 
119892000    277.43993    314.29275    258.57433   -5.1124958    3.1554981    55.718421    40.444138 
119896000    275.66215    325.23714    277.31104   -5.2535239    1.8606676    47.926104    40.448399 
119900000    289.11697    340.42877    298.82873   -5.4690394   0.73327064    41.600035     40.44164 
119904000    275.36526     298.6086    296.63565   -4.0500768    1.4155055    1.9729455    40.439809 
119908000    271.49921    315.61198    260.58083   -3.3498885    3.2642182     55.03115    40.447648 
119912000     275.0418    311.88788    274.85926    -4.394258    2.9141751    37.028622    40.452212 
119916000    282.14223    329.51288    265.73948   -6.0733002    3.5969467    63.773401    40.452108 
119920000     281.4036    347.54516    280.83157   -4.8890219    2.7096749    66.713585    40.460754 
119924000    285.75943     317.1959    289.98638   -4.2817444    2.8706714    27.209518    40.459505 
119928000    284.61404    328.14961      286.456   -4.5692659    1.2723862    41.693606    40.457429 
119932000     282.0893     329.8868    289.57333   -3.9481346    1.3724197    40.313475    40.458084 
119936000    283.35583    321.00099    274.16955    -3.654443    1.8326055    46.831444    40.459484 
119940000    284.79102    334.48997    279.02297   -4.8869265    2.5616755    55.467002    40.464271 
119944000    282.92021    325.86364    306.04136   -2.9609725    2.0817822    19.822284    40.460187 
119948000    278.45045     309.8139    281.79719   -3.2885326    1.8727894    28.016712    40.454293 
119952000    277.24764    321.06537    266.89611   -5.2207068    3.2603462    54.169261    40.447345 
119956000    276.15005    322.45652    283.53671   -4.3748143    2.2802518    38.919807    40.451907 
119960000    280.67113    322.33064    283.09253   -4.2341289    2.1352665    39.238107    40.455146 
119964000    271.69534    305.91655    275.94369   -4.0936835    2.3838101    29.972865    40.443455 
119968000    280.41795    313.93537    279.84512   -4.5158757     2.626327    34.090248    40.442304 
119972000    275.71328    316.53606    266.71791   -3.4397144    3.0776563    49.818152    40.448559 
119976000    283.26661    337.31811    287.16603   -3.4076686    2.2560475    50.152083    40.438141 
119980000    284.84583    344.48831      281.991   -4.0434414     2.300905    62.497318    40.435282 
119984000    269.30885    322.13657    272.64932   -3.3501584    3.3050576    49.487247      40.4378 
119988000    281.34204    321.63591    273.09246   -2.7035324    3.7190063    48.543456    40.436891 
119992000     279.5639    310.14215     275.9613   -1.9693148    2.9623665    34.180855    40.431745 
119996000    273.30054    307.51783     282.6369   -2.4808649    2.7490431    24.880925    40.423292 
120000000    278.76415    330.99181    274.63449   -3.7142549    2.6773898    56.357322      40.4263 
120004000    273.60094    302.29605    289.40319   -2.1745131    1.9337315    12.892857    40.417567 
120008000    279.40309    314.70973    284.81887   -2.8583196    2.5419569     29.89086    40.412306 
120012000    273.49681    314.91063    276.06679   -2.8640628    2.1455963    38.843835    40.406348 
120016000    274.27776    324.79035    289.81779   -3.8599549    2.1721146    34.972563    40.395039 
120020000    279.01703    333.24463    271.87385    -3.545864    2.5004153     61.37078    40.386749 
120024000    280.68688    338.27893     272.7658   -3.9371437    4.1474951    65.513134    40.392825 
120028000    274.56209    315.85311    273.37736   -2.7578545    3.2140317    42.475747    40.398183 
120032000    274.63276    319.97858    280.40771   -3.4159955    3.0232299     39.57087    40.396339 
120036000    275.37976    315.53718     299.3071   -2.6468035    1.0404502    16.230086    40.388983 
120040000    267.99244    304.48497    282.36568   -3.4768031    2.3787496    22.119284    40.392601 
120044000     280.8389    324.33935    304.85174   -3.7645296    2.3000255    19.487617    40.395493 
120048000    272.68523    326.18027    267.44427   -3.3274618    3.4294545    58.735993    40.399192 
120052000    275.58916    337.63026    269.96752   -3.9261744    4.4889928    67.662742    40.399848 
120056000    268.49815    300.03412    283.04102   -3.4390857    3.2792339    16.993095    40.404571 
120060000    271.19009    304.05675    286.10488   -2.4098513    3.1018835    17.951875    40.394825 
120064000    279.23821    336.17259     272.0004   -3.6936041    3.4897969    64.172185    40.401792 
120068000    276.30482    312.52972    265.38393   -2.3338278    3.5470585    47.145787    40.411627 
120072000    272.08278    322.95058    283.50034   -3.0513158     2.536705    39.450245    40.406383 
120076000    282.20945    323.98908    288.67298   -3.8570181    1.3288533    35.316093    40.403709 
120080000    285.13344    332.87074    291.05235   -3.6085294   0.76568704    41.818391    40.409257 
120084000    286.28013    343.30374    298.86605   -4.2536924    2.3686898    44.437692    40.414673 
120088000    277.14296    322.99461    294.25997   -3.4908196     1.387305    28.734644    40.407041 
120092000    279.26036    305.85241    298.46399   -2.7109958    2.1057236    7.3884222    40.401772 
120096000    279.39852    311.10739    283.73849   -3.2402915     2.633307    27.368897    40.399085 
120100000    279.90454    339.23087    281.26006   -5.4285683    3.1762277    57.970813     40.40786 
120104000    276.71373    306.19545    278.13599    -2.867847     1.822862    28.059459    40.404186 
120108000    279.92201    306.74014    290.24459   -3.3421428    1.8548525    16.495547    40.408286 
120112000    274.86139    295.27937    297.12166    -3.435843    1.5420763   -1.8422847    40.413978 
120116000    286.42112     339.0935    285.20617   -5.0056355    1.6135749     53.88733    40.426282 
120120000    271.72037    297.90196    269.02387   -2.8048421    3.0710615    28.878083    40.422665 
120124000    274.34452    311.01799    273.03205     -4.17446    2.8845009     37.98594    40.423409 
120128000    270.07372    317.68408    265.47058   -3.3678541    3.6516575    52.213499    40.430385 
120132000    269.90508    286.32597    289.96444   -2.8230023    2.9285513   -3.6384731    40.430573 
120136000    274.96306    311.20864    268.46355    -5.293325    3.3002233    42.745086    40.428915 
120140000    279.30073    323.09815    289.46626    -5.498199    2.3715469    33.631888    40.415994 
120144000     281.8481    346.41423    270.36413    -6.780404    4.2401168    76.050094    40.416854 
120148000    281.02084    323.75016    282.44188   -4.7144878    2.7049101     41.30828     40.39553 
120152000    277.24731    291.16213    284.35649   -4.5200187     2.903845     6.805645     40.40181 
120156000    286.71555    335.87223    275.53136   -5.7188201    3.8425821    60.340872    40.378384 
120160000    274.48606    307.46526    260.93383    -4.542167    2.8298266    46.531431    40.378285 
120164000    285.22037    324.50635    275.16969   -7.4657585    4.0944817     49.33666    40.373682 
120168000    278.77762    313.66012    279.36614   -6.5811959    3.6078061    34.293976    40.375153 
120172000    277.56231    319.17221    277.61301   -4.4868443    3.1192612      41.5592    40.381695 
120176000    269.59327    312.02673    269.78526   -3.6537581     4.744107    42.241475    40.384426 
120180000    284.10132    360.74913    279.91453   -6.6578359     2.940907    80.834599    40.374764 
120184000    277.08871     298.5422    273.49954   -3.2522372    3.7601563    25.042664    40.369891 
120188000    286.25455      329.323    293.45895   -6.0683223    2.8922604    35.864045    40.357873 
120192000    278.28709      306.023    289.71252   -4.4607279    2.5817115    16.310484    40.353391 
120196000    281.90957    339.69319    271.20114   -6.9759191    3.4439736    68.492047    40.355018 
120200000    282.53636    327.39947    271.10262   -6.0158401    4.0896909    56.296851    40.353344 
120204000    275.06332    307.60705    281.83576   -3.3189058    2.9460815    25.771296    40.343939 
120208000    270.84281    292.70909    264.96721   -3.6620309    4.6714445    27.741872    40.332249 
120212000    283.01821    342.92872    273.55223   -3.8937917    4.1683717     69.37649    40.338842 
120216000    268.91425    313.12992     276.3383   -3.3103753    3.6664267    36.791621    40.337949 
120220000    276.82258    318.45011    282.82302   -3.7681667    3.2183329    35.627097    40.333519 
120224000    279.34924    290.08345    315.19493   -2.1547219     1.747661   -25.111475    40.335714 
120228000    274.91297    325.97673    270.13334   -4.6141947    3.6155509    55.843389    40.340256 
120232000    273.19974    319.81299    279.86914   -5.3232825    3.0792566    39.943852    40.338149 
120236000    271.27616    315.92935    286.21183   -4.5296247    3.0194364    29.717517    40.330006 
120240000    274.91075    320.37584    281.87609   -4.9472038    3.9319138     38.49975    40.327024 
120244000    275.98521    330.61025    279.29887   -4.8680804    3.9513938    51.311384     40.31934 
120248000    274.82886    310.52431    272.64315   -3.5402336    2.8741265    37.881165    40.318733 
120252000    272.20656    331.04292    275.44587   -5.5537365    4.1276546     55.59705    40.327929 
120256000    263.70581    293.20387    275.80228   -2.8867369    4.5464158     17.40159    40.321495 
120260000    285.89183    324.82844    301.63629    -3.902616    3.2967973    23.192145    40.309428 
120264000    266.55612    302.56074    272.84333   -3.0416766    4.4858662    29.717407    40.305109 
120268000    274.97576    324.14497     283.9549    -4.193874    3.5720536     40.19008    40.301808 
120272000    275.88347    324.52118     285.7172   -4.1164505    4.5395377    38.803975    40.293632 
120276000    267.23722     307.9533    280.83022   -3.2878552     6.058719     27.12308     40.28712 
120280000    280.81062    319.76666    282.15843    -4.780014    5.2868991    37.608229    40.301718 
120284000    279.01255    314.85553    301.26882   -4.3481793    4.2087205    13.586705    40.305936 
120288000    278.86685     332.3262    286.73642   -5.3670821     4.265498    45.589771    40.315038 
120292000     278.9849    330.43653    280.61438   -6.1263769    4.0637592     49.82215    40.317594 
120296000    280.10363    330.41453    272.22033   -4.1140556    4.9193448    58.194201    40.322062 
120300000    274.48091    316.47461    260.00515   -4.9559976    4.4411107    56.469462     40.32268 
120304000    283.50146    302.17293    308.46554   -3.4368148    2.2666759   -6.2926104    40.322975 
120308000    270.77068    325.08916     258.7917   -4.2313229     4.720603    66.297469    40.325566 
120312000    284.81761     337.8013    310.31026   -5.9238765    3.3918287     27.49104    40.329137 
120316000    277.40323     316.0352    296.38483   -3.7946421    3.1835464    19.650372    40.327111 
120320000    273.47782    300.07534     273.2757   -4.7906634    4.5328807    26.799649     40.33161 
120324000    266.40692    302.74113    271.05688   -4.2468138    4.7500883    31.684247    40.321759 
120328000    280.73465    321.72577    285.37862   -4.2585863    3.5975158     36.34715    40.317659 
120332000    279.07331     337.9361    281.19593   -5.6234646    2.0234473    56.740162    40.312299 
120336000    278.63152    338.66534    277.14209   -5.7875155    2.5399083    61.523251    40.304332 
120340000    276.54129    318.99814     266.4969   -4.8290586    3.5484428    52.501242    40.306519 
120344000    273.74426    315.55351    260.64479   -4.2027734    4.3571634    54.908712    40.308938 
120348000    275.87517    314.05157    273.85921   -4.4101354    3.7634845    40.192355    40.317542 
120352000    277.54791    331.15364    271.80535   -6.0113144    3.1765657     59.34829    40.323192 
120356000    287.46825    350.19459    286.77169   -6.8349182    3.3825417    63.422904    40.332113 
120360000    289.25332    351.72316     284.2193   -6.0608736    4.6146572    67.503861    40.333295 
120364000    279.86602    354.88825     272.6353   -5.0811087    4.2232106    82.252957    40.337175 
120368000    273.47372    306.51746     278.7363   -4.9062915     4.259746    27.781156    40.339372 
120372000    272.27804    306.36264    277.86285   -4.5353529    4.8871558    28.499793    40.345826 
120376000    279.34031    325.60404    288.28745   -4.4916832    4.6727659    37.316597    40.349914 
120380000    275.63353    334.45254    270.52726   -5.2478816    5.2117277    63.925278    40.349796 
120384000    269.15306    310.83311     262.9427   -3.7200189    6.2489967     47.89042    40.350636 
120388000    289.99701    355.52808    300.28557   -6.7853378    4.3152973    55.242516    40.352651 
120392000    271.03366    298.15273     294.2361   -4.0165831    4.0998772     3.916623    40.353146 
120396000    271.37726    323.68457    267.92513   -5.8005708    5.5750374    55.759443     40.34972 
120400000    280.86201    323.68247     294.8473   -5.3525478    4.8236147    28.835175    40.341941 
120404000    282.67586     337.2859    296.36742   -5.8593911    3.8743241    40.918481     40.35091 
120408000    266.12106    320.45695    263.67042   -4.9944105    4.8070648    56.786534    40.355857 
120412000    272.53015    323.48487    255.36087   -5.3421432    5.7750893    68.124002    40.351213 
120416000    271.86901    325.25131    262.54641   -4.7547499    5.2329136    62.704906    40.355512 
120420000    268.17924    306.94988    272.86431   -4.3898331    5.4635166    34.085573    40.364056 
120424000    277.36267    322.00141    298.75617   -4.7830834    4.0030112    23.245246    40.364711 
120428000    283.55743    362.49709    288.75152   -5.9315363    4.2376484    73.745566    40.367885 
120432000    267.83263     312.2078    261.55901   -3.4458002    5.6800722    50.648794    40.367849 
120436000    273.26507    307.24513    286.28872    -3.457216    3.6771722    20.956405     40.36973 
120440000    279.95531    335.50688    268.41845   -5.5738497    4.8627221    67.088431    40.369948 
120444000    272.00586    308.93914    263.95461   -3.8069821     5.369677    44.984528    40.367709 
120448000    268.55461    309.18555     252.7835   -4.2451013    6.6424908    56.402051    40.358855 
120452000    269.99634    303.08177    284.82191   -4.9195212    4.1952181    18.259859    40.362902 
120456000     268.6532    307.07055    282.30824   -4.9284081     6.073419    24.762305    40.364891 
120460000    269.59948    313.69583    277.40163   -5.7176477    6.6393881    36.294205    40.371988 
120464000    279.50977    344.35852    279.23207   -6.1578598     6.700006    65.126445    40.372407 
120468000    269.16323    318.01673    280.37697   -4.4551996    5.7924559    37.639761    40.375777 
120472000    270.54375    302.89885    291.68704   -4.6848618    5.2843522    11.211812    40.369526 
120476000    269.94763    305.92752     271.9525   -5.6970437    6.9856167    33.975014    40.372907 
120480000    263.47218    297.66891    247.17616   -6.3365761    8.2221922    50.492751    40.379074 
120484000    269.53708    298.73295    281.51859   -4.7628949    6.5405364    17.214366    40.373241 
120488000    268.12504    307.32995    279.44035   -3.8717971    6.0093282    27.889602    40.370704 
120492000    277.99183    330.26265    274.81869   -4.7153689     6.185622    55.443961    40.386024 
120496000    266.55091    298.27133    279.88125   -2.7713047    4.4880201    18.390076    40.380975 
120500000    270.01872    317.80813    276.41892   -4.3856377    6.4675902    41.389205    40.373404 
120504000    273.00987    331.61161    270.68321     -5.11464    7.2406212    60.928397    40.378796 
120508000    270.91764    311.00279    287.93525   -4.2758348    5.5224426    23.067531      40.3781 
120512000    275.04641    320.64009    289.14626   -5.3500174    4.2958852    31.493828    40.374203 
120516000    274.57395    324.17098    278.32005   -5.5499634     5.261129    45.850921    40.372147 
120520000    279.83321    362.43399    275.35029   -6.9794295    5.3727777    87.083695    40.383373 
120524000    279.51006    318.08431    298.41674   -5.0065334    4.9942465    19.667576    40.384115 
120528000    275.91889    330.18336    265.16134   -5.5006237    6.9474962    65.022021    40.392523 
120532000     273.6002    318.64842    281.40821   -4.8469672    5.9276143    37.240218    40.388691 
120536000    280.65471    323.02452     282.2417   -5.5652312    5.5850425    40.782827    40.382209 
120540000    274.04253    323.38834    265.50185   -4.4323495    6.3155315    57.886487    40.372753 
120544000     288.5489     343.2836    306.73172   -7.8046886    4.5216704     36.55188    40.379757 
120548000    276.15354    326.79803    282.53442   -5.6947948    5.3527463    44.263611    40.367515 
120552000    271.66513     323.1307    266.67142   -6.4473908    6.2716345     56.45928    40.363024 
120556000    270.72822    318.85173    254.31658   -5.8794162    7.7150093    64.535157    40.360798 
120560000    271.74062    305.04332    284.38232   -5.8106963    5.6480839    20.660996    40.363089 
120564000    278.24543    308.99993    284.04521   -5.0671797    5.6390126    24.954717    40.362497 
120568000    276.57991    307.97718    279.05362   -5.3938881    6.2082874     28.92356    40.349767 
120572000    277.22055    324.84171    286.30328   -5.1710719    5.8642721    38.538432     40.34976 
120576000    278.72394    315.46828    296.13056   -5.3528822    4.8774149    19.337721    40.345495 
120580000    275.86091    332.52689    265.89448   -7.3308324     5.919681    66.632409    40.351772 
120584000    277.63077    332.32411    282.77095   -6.0129518    4.6617664    49.553165    40.346675 
120588000    288.14108    347.18966    294.29336   -6.9293436    5.2572057    52.896301    40.339252 
120592000     282.7556    343.51038      282.174   -7.5474625    5.0459158    61.336382    40.336665 
120596000    270.65033    315.31473    272.89061    -5.144879    5.1886102    42.424126    40.337252 
120600000    274.71259     300.9247    287.08954   -4.7888121    4.8515736    13.835165    40.333791 
120604000    284.74689    327.91712    302.13306   -7.1539381    4.4369627     25.78406    40.331224 
120608000    275.06016    329.83852    284.53689   -7.3212996    5.1589458    45.301626    40.322606 
120612000    268.32798    286.24637    277.99806   -5.4606089    6.5831966    8.2483087    40.322341 
120616000    263.06029    304.54373    255.95553   -5.5813964    6.9118599      48.5882    40.321684 
120620000    282.66852    316.07477    282.94658   -5.4311129    4.9659723    33.128186    40.328289 
120624000    276.50018    325.69021    287.86516   -5.5006436    5.0004636    37.825048    40.325556 
120628000    271.52702    329.33497    260.27626   -4.6028615    7.1509989    69.058713    40.330048 
120632000    276.41975    298.38816    308.62455   -4.1751937      3.79821    -10.23639    40.334507 
120636000    271.64017    313.60025    278.55354   -5.0138748    5.1125095    35.046712    40.333306 
120640000    270.87505    298.34228    281.23449   -4.7237728     5.388144    17.107788    40.335431 
120644000    285.22824    342.21798    291.43336   -7.2912295    6.0369378    50.784625    40.335575 
120648000    267.22206    317.12178    254.56746   -5.1370413     5.600741    62.554317    40.336827 
120652000    275.43434    319.92448     275.0703   -7.0501366    5.6153608    44.854178    40.350036 
120656000     285.5378    324.39261    303.41747   -6.1209907    4.0008748    20.975144    40.350638 
120660000    270.28474    293.34512    283.03874   -4.3352281    4.9795738    10.306377    40.347452 
120664000    269.33524    302.11425    275.25219   -5.1419895     5.011465    26.862056    40.349283 
120668000    276.62265    325.99662    286.02446   -6.0421332    5.5977589    39.972156    40.348685 
120672000    271.46793    317.15947    277.16603    -5.856829    5.0274335    39.993437     40.34692 
120676000    268.65298    318.46202    277.94625   -5.0849297    5.4203879    40.515766    40.341274 
120680000    274.17214    316.91383    283.70436   -4.6868543    3.9941468    33.209469     40.34462 
120684000    277.72339    328.46122    273.82297   -5.4052721    5.4016168    54.638242    40.351397 
120688000     267.8369    309.61456    291.50877   -3.5458977    4.0615272    18.105785     40.34474 
120692000    269.22214    312.12191    283.30093   -4.1267107    5.8475624    28.820975    40.342613 
120696000    270.97205    319.82641    289.27194   -5.1345524    5.0830427    30.554477    40.340582 
120700000    268.48972    319.90632     265.8418   -4.4895737    6.9129227    54.064521    40.340459 
120704000    273.75587    313.42257    279.78883   -4.7473362    6.7066945    33.633742    40.344203 
120708000    264.97466    311.91282    253.64732   -3.7258713    7.4348685    58.265501    40.342405 
120712000    276.14259    332.42903     287.0258    -4.000053    5.3312706    45.403227    40.342374 
120716000    267.91542    329.56037    271.02367   -4.8265563    6.3769721    58.536692    40.345054 
120720000    266.67244    335.21972    259.82941    -4.665919    5.9482867    75.390312    40.344889 
120724000    267.13384    308.18378    272.42022   -3.8664016      5.08988    35.763564    40.343956 
120728000    274.85933    338.01911    263.41776   -4.6351172    5.3043672    74.601345    40.332221 
120732000    272.64709    333.79049    283.68934   -5.3392516    4.4201901    50.101152    40.326578 
120736000    271.48081    309.40851    274.02322   -2.6998872    7.2045286    35.385292    40.327688 
120740000    282.02047    332.26351    307.11993   -5.3311241    5.0395473    25.143573    40.321073 
120744000    266.72441     326.2808     262.6046   -4.4540248    6.6280138      63.6762    40.325116 
120748000    279.71356    335.53099    289.78967    -6.213296    5.5548372    45.741327    40.324865 
120752000    272.19383    315.79489    284.32226   -6.2199775    5.8393018    31.472625    40.322899 
120756000    268.43133    329.05777    272.67869   -5.3248007    6.5850909    56.379082    40.313004 
120760000    271.79952    320.58124    277.48775   -5.3718323    6.2179532    43.093486    40.315609 
120764000    271.67051     317.6441    288.75282   -3.3750066    6.2022643    28.891284     40.31532 
120768000    270.64055    329.90709     275.4161   -4.2415822    6.7706182    54.490994    40.316443 
120772000    270.63585    325.78609    299.27403   -4.5727614    5.5864014    26.512052    40.311947 
120776000    267.84518     314.6772    264.00179   -5.2577771    6.9376851    50.675408    40.303006 
120780000    265.20125    304.27237     256.1047   -3.6880089    7.6681125    48.167664    40.306759 
120784000    268.92989    318.30872    270.73093   -5.2977651    6.1781791    47.577793     40.31021 
120788000    285.99102    347.10143     287.0423   -5.7578693    5.3890983    60.059126    40.313217 
120792000    267.89161    320.57798    265.01079   -4.4782264    7.6780059     55.56719    40.316714 
120796000     275.5776    325.63635    277.27604   -5.9365257    6.4556058     48.36031    40.320665 
120800000    271.91309    326.97856     272.4678   -6.3295214     6.560978    54.510767    40.317483 
120804000    269.53671    322.62278    273.06992   -6.4398819    6.6302927    49.552862    40.324026 
120808000    268.58574    342.10454    255.90482   -7.0763437    7.3647463    86.199717      40.3271 
120812000     274.9004    304.26052    289.58724   -4.6476792    5.5306261    14.673286     40.32895 
120816000    268.44068    311.94557    280.70909   -5.2873046    6.4986503    31.236482    40.332078 
120820000    276.88743    327.39538    283.99011   -5.0976755    6.7134026    43.405266    40.331227 
120824000     273.7805    337.69112    278.10308   -5.8403871    6.1162671    59.588045    40.329581 
120828000    267.36023    320.39462    288.74194   -3.7518737    5.8873411    31.652679    40.323951 
120832000    273.90861    338.34424    277.12854   -5.9462845    4.4627384    61.215702    40.317898 
120836000    270.33114    312.57831    287.44414    -4.642839    4.4640319     25.13417    40.318193 
120840000    271.88848    327.25568    287.73021    -4.461764    5.7263873    39.525478    40.327699 
120844000    276.73357    335.24989    275.97724   -5.0854955    5.3507109    59.272648    40.332809 
120848000    269.80341    318.53774    270.60959   -4.9334482    5.4955997    47.928149    40.330657 
120852000    275.36202    323.39978      270.454   -5.1170125    5.5250096     52.94578    40.327466 
120856000    274.11075    318.12699    284.67764   -4.4517751    5.3028719    33.449342    40.327272 
120860000     269.3365    316.60009    298.16423   -4.9713561    4.4507929     18.43586     40.32824 
120864000    279.78957    313.85711    325.01774   -4.4905276    3.2679818   -11.160624    40.324107 
120868000    280.60426    324.14598     287.2266   -4.9444106    5.0402578    36.919387    40.329028 
120872000    276.10028    330.75355    283.06745   -5.3431687    6.1865166    47.686101    40.321141 
120876000    279.85053    342.81177    281.83566   -6.3552436    5.9176527     60.97611     40.31779 
120880000    274.07548     326.7018     291.0559   -5.3086886    5.2055294    35.645898    40.320339 
120884000    266.24678    311.00349    258.26953   -3.8380079    6.7488685    52.733956    40.314141 
120888000    274.62503    323.06011    288.66965   -5.3783214    5.0373021    34.390467    40.311043 
120892000    273.50188    321.91541    295.52261   -4.7776066    5.0708916    26.392802    40.305843 
120896000    271.89256    317.79023     285.1482   -4.5539035    4.1640308     32.64203    40.300154 
120900000    279.50829    324.31958    292.31726   -6.0510582    5.0372136    32.002316     40.30374 
120904000    283.45327    350.79658    292.81214    -7.875127     5.110829    57.984436    40.300186 
120908000    271.09527     315.0234    278.07312    -5.376579    6.3461174    36.950271    40.304267 
120912000    277.58707    320.70385    293.57461   -5.9847134    5.4974354    27.129239    40.301523 
120916000    273.22924    313.26859    280.60771   -4.5491546    5.6494067    32.660882    40.300448 
120920000    277.32085    295.01104    294.80411   -5.2636625    4.6457848   0.20692871    40.295548 
120924000    273.77555    331.88946    277.20692   -5.9648569    6.2143036    54.682531     40.30269 
120928000    262.78402    313.61822    255.51541   -3.8042804    7.1699955    58.102805    40.301352 
120932000    277.35761    322.84611    287.62778   -5.1229209    4.5742543    35.218335    40.302589 
120936000    272.59017    308.33882    271.96536   -5.3391039    5.1738105    36.373458     40.30747 
120940000    277.43829     325.3358    282.32625   -5.8723101     4.509532    43.009546     40.30626 
120944000     283.2921    346.84773    282.84749   -7.5933912    4.1386292    64.000242    40.301635 
120948000    287.66523    337.84569    299.34098    -6.957381    4.3019823    38.504717    40.304066 
120952000    277.39448     327.4289    279.01087   -6.0623946     5.298183    48.418029    40.305725 
120956000     282.1495    326.51245    297.38251   -7.3419486    1.9611795    29.129943    40.311992 
120960000    276.30501    313.90075    257.92061   -6.5001948    4.2167603    55.980141    40.311636 
120964000    278.12683    319.08426    289.29384   -6.2475412     2.438322    29.790418    40.308816 
120968000    274.06836    319.85896    275.24419   -5.9321916    4.1563601    44.614773    40.303836 
120972000    276.88271    327.67143     272.5462   -5.9150029    4.8041854    55.125233    40.301908 
120976000    287.50007    317.58615    294.69207   -5.6949278    3.2669051    22.894081    40.305887 
120980000    287.94998    334.28323    297.36026   -6.2788609    2.8948963    36.922973    40.310472 
120984000    281.27136    308.05093     292.4537   -5.0744684     3.512682    15.597227    40.305078 
120988000    278.28782    309.02815    288.47024   -5.2814612       4.3171    20.557916    40.306972 
120992000    285.71477    331.42962    276.16671   -6.7395792    3.0659664    55.262911    40.307908 
120996000    285.89844    347.49789    267.27303   -6.7093471    3.7780326    80.224864    40.310029 
121000000    285.20887    334.49898    288.58392   -6.3475382     2.990241    45.915066     40.30341 
121004000    283.79072    325.87581    296.06782   -4.7310635    3.4765963    29.807989    40.296648 
121008000    273.59229    332.71857    282.67691   -5.1812301    3.9718183    50.041654    40.295135 
121012000    279.85718    343.65601    295.14524   -7.2202225    4.1558099    48.510766    40.295916 
121016000    270.04707    316.32353    279.53585   -5.8866411    5.2457452    36.787671    40.298816 
121020000      279.191    327.19639     306.1783   -5.8845446    2.9456359    21.018085    40.290784 
121024000    283.04547    336.83729    288.38093   -6.2683524     5.929903    48.456357    40.291573 
121028000    284.50607    328.77803    291.05264   -6.0165962    4.2714353     37.72539    40.294605 
121032000    276.93993    323.31074    275.37137   -5.0180816    5.6963504    47.939366    40.291557 
121036000    282.16644    321.99548    285.25269   -4.0806994    5.9352635    36.742786    40.293343 
121040000    278.73427     320.1723    294.17609   -4.9693512    4.5166825    25.996212    40.288892 
121044000    268.31373    308.26057    272.64067   -5.0720263    5.2042262    35.619898    40.288129 
121048000    267.65644    302.43308    267.66499   -4.8740732    6.0461867     34.76809    40.289629 
121052000    276.60968     315.7253    274.73042   -6.3181368    5.9785676    40.994885    40.287796 
121056000    281.95943    327.74539    291.39583   -6.2648373    6.2459754    36.349564    40.284466 
121060000     269.7679    295.43225    292.82505   -3.8501084    5.5847384    2.6072019    40.284763 
121064000    277.68782    310.02871    305.99417   -4.4584892    4.6352342    4.0345382    40.283473 
121068000    271.71648    318.31215    281.30666   -4.7059713    6.3672901    37.005486    40.279158 
121072000    279.60701    326.54409    302.25995   -6.6548266    5.7425408    24.284139    40.271312 
121076000    274.93629    320.18518    305.88759   -5.4270894    4.9017048     14.29759    40.271587 
121080000    277.41234    320.59723    289.14503   -5.4230595    6.3403732    31.452197    40.275898 
121084000    264.67228    299.97535    271.72031   -4.3347383    6.0938478    28.255042    40.279819 
121088000    273.22778    314.67248    298.76354   -4.2471313    5.1049057    15.908936    40.283021 
121092000    269.25553    319.27664     260.8412   -3.2953467    5.7482483    58.435436    40.280614 
121096000    280.99112    351.59449    275.40747   -5.9349233    5.4099975    76.187019    40.285858 
121100000    279.72291    319.82892    302.11817   -4.7298304    4.0374901    17.710749    40.277313 
121104000    269.84273    294.57468    280.98904   -3.4702507    6.4736058    13.585641    40.274144 
121108000    278.50983     349.4901     287.4265   -6.1605859    6.9396755    62.063591    40.276555 
121112000     271.7722     315.1513    279.40954   -6.3841063    6.4931609    35.741756    40.274493 
121116000    279.80086    331.20891    294.76164   -5.9711676    5.2485378    36.447271    40.272924 
121120000    273.20701    326.35536    284.56645    -5.163985    5.7160945    41.788914     40.26453 
121124000    263.92562    311.01921    280.62767   -4.2016584    5.2368297    30.391541     40.25466 
121128000    276.28095    318.26203    286.77235   -4.2309082    5.4566919    31.489673    40.262791 
121132000    272.36788    323.01081    289.94696    -5.535744    5.5493668    33.063848    40.262668 
121136000    274.22594    324.55458    288.37974   -5.5119616    5.2170428    36.174838    40.258002 
121140000    269.19842    321.72561    276.79719   -6.4311345    5.9014847    44.928417    40.257404 
121144000    288.10114    328.00652    309.60309   -6.9827379     4.133554    18.403431    40.255653 
121148000    267.92157    302.16101    297.98493   -6.1778571    4.0328269    4.1760873    40.258394 
121152000    281.05263    343.29269    270.90109   -7.7735238    5.4680805    72.391603    40.259177 
121156000    273.75799     312.9257     272.9041   -6.1419845    5.0617954    40.021603    40.255102 
121160000    281.50131    345.70924    279.37283   -7.9014657    3.9286073    66.336411    40.251796 
121164000    281.65995    331.14093    289.43505   -6.2978659    5.0796368    41.705889    40.253235 
121168000    277.73951    315.46738    305.95807   -6.9054869    3.3324126    9.5093048    40.257565 
121172000    273.50325    327.81449    278.15396   -6.4016654    5.0991742    49.660523    40.256748 
121176000    277.65113    322.65049    290.65421   -4.6914173     4.219352    31.996272    40.256746 
121180000    282.43739    324.53214    299.45358   -6.3869791    4.0544641    25.078564    40.250765 
121184000    281.17691    330.35282    278.95698   -5.9462931    4.8803494    51.395845    40.242848 
121188000    269.04943    304.50594    285.78594   -4.5536145    5.3509889    18.719996    40.246488 
121192000    274.50351    306.74175    289.66471   -5.5139322     4.423966    17.077034    40.240968 
121196000    267.80095    298.82535    264.11016   -5.5706162    5.5023613    34.715198    40.236594 
121200000    280.31987     337.8199    274.58757   -5.7136919    4.2193925    63.232331    40.234722 
121204000    283.73247    345.48858    291.82122   -6.3817134    3.9098778    53.667363    40.230872 
121208000    269.15234    319.49679    272.67655    -5.580604    5.2524828    46.820246    40.227347 
121212000    277.03662    332.60309    279.97607   -5.4847249    5.5986243    52.627024    40.225265 
121216000    277.30387    320.68346    283.00202   -5.5424252    4.3432125    37.681436    40.224223 
121220000    271.29841    311.23087    278.29069   -4.5712278    4.9709935    32.940184    40.225206 
121224000    271.92886    344.82222    253.90922    -7.474434    6.6720789    90.913003    40.225975 
121228000    275.48963    321.57065    280.84236   -6.0803185    5.9675192     40.72829     40.22994 
121232000    275.42871    314.04773    295.94019   -6.5026636    5.2626256    18.107531    40.228366 
121236000    269.66455     313.2599    277.68741   -5.3833743    5.6127465    35.572484    40.226303 
121240000    274.25558    321.52949    265.82604   -5.8396657    6.5487582    55.703456    40.230203 
121244000    274.27763    338.50945    262.93878   -6.2791324    6.7976954     75.57067    40.231274 
121248000    281.02411    334.31045    273.82114   -6.0208987    5.3152192    60.489309    40.233467 
121252000    265.40453    294.38244    284.69332   -4.6383784    5.9661376    9.6891161    40.233923 
121256000    279.52321    336.73094    279.38445   -5.9790338    7.0165567    57.346491    40.240488 
121260000    274.22466    326.42294    268.24254   -7.0530362    6.2201743    58.180398    40.240304 
121264000    270.62058     329.4018    274.73513   -5.4006502    7.4093803    54.666668    40.237124 
121268000    271.95294    325.61116    260.07747   -5.1310862    7.9055582    65.533694    40.233862 
121272000    277.12439    325.63693    281.60059   -5.5418899    6.7950174    44.036341    40.234744 
121276000    284.97376    336.32004    296.29663   -7.3564334     7.159936    40.023409    40.242001 
121280000    278.50581    318.04665    295.02556   -7.1010822    6.4654832    23.021096    40.238148 
121284000    275.08066    314.84322    310.25248   -5.5753918    5.9122389    4.5907472    40.228752 
121288000    262.50939    297.02848    297.33126    -4.034682    5.4451276  -0.30278103    40.228735 
121292000    263.49119    313.94763    263.81461   -5.6073526    7.7388751    50.133023    40.227067 
121296000    279.07127    326.67344    292.48305   -5.8426465    6.7964285     34.19039    40.221678 
121300000    272.31117    310.29613    268.17837   -6.3007128    7.1052778    42.117761     40.22901 
121304000    275.61309     341.5326    268.93792   -8.1041829    6.5950083    72.594677    40.225033 
121308000    270.88448    320.82697    278.86537   -6.8903999    7.3061794    41.961598    40.225216 
121312000    269.65909    307.92277    284.24422   -6.2910538    7.4801057    23.678551    40.225686 
121316000    283.63192    358.60783    269.85204   -7.2603416    6.7294645    88.755782    40.222211 
121320000    285.77477    345.05783    280.83927   -8.5599564    7.5482055     64.21856    40.227825 
121324000    278.26127    317.77522    284.22022   -6.6986032     6.977941    33.554999        40.23 
121328000    275.22474    324.45332    262.75604   -5.5422816    7.9561189     61.69728    40.230965 
121332000     273.9199    328.99002    272.00576   -6.2964796    7.1673249    56.984267    40.235703 
121336000    273.62481    334.76594     267.6911   -8.7322607    7.4198819    67.074838    40.234743 
121340000    271.39537    309.59799    291.90715   -6.2120575    6.2366995    17.690833    40.231203 
121344000    277.11999    346.66818    264.51825   -8.1174546    7.2101044    82.149927    40.224157 
121348000    282.48981    317.72823    291.06902   -6.6774423    5.6049071    26.659211    40.224882 
121352000    274.53364    331.99698     267.1454   -6.2387259    6.1466548    64.851571    40.225051 
121356000    271.32838    324.80339    274.98165   -6.0722109     6.870102    49.821738    40.231397 
121360000    270.72276    328.24455    279.36756   -6.6696193    6.7511061    48.876985    40.233075 
121364000    278.26885    330.50437    286.55183   -7.3869619    7.1846462    43.952537    40.236753 
121368000    261.58474    278.35911    281.14062   -4.9760224    6.3758323   -2.7815048    40.232818 
121372000    270.81392    299.03853    301.71723   -4.0610223    5.8837135   -2.6787003    40.235867 
121376000    262.05984    308.78658    259.57021   -5.4381461    8.1855416    49.216365    40.230748 
121380000    272.02684    308.72201    305.68723   -6.1775724      5.37676     3.034784    40.233078 
121384000    280.31502    318.18824    293.11785   -5.6966837     6.254678     25.07039     40.23069 
121388000    285.77831     327.3805     306.1392   -5.8298714    5.0899916    21.241304    40.231227 
121392000    276.26691    304.13715    281.37686   -5.5866145    6.9926651    22.760291    40.232556 
121396000    268.69238     325.6357    259.45863   -5.6311093    8.7214326    66.177071    40.232142 
121400000    278.58986    321.48197    294.00708   -7.5922899    6.1325899    27.474893    40.227063 
121404000     272.3397    292.32984    295.18009   -4.9978236    5.9791102   -2.8502428    40.233519 
121408000    268.58443    305.60128    283.20775   -4.3692325    7.3373857    22.393531    40.229195 
121412000    281.40843    331.07375    292.61176   -8.1892883    7.2092138    38.461992    40.234633 
121416000     275.6457    317.36779    290.47515   -5.8790513    6.3785938    26.892634    40.233305 
121420000    271.32972    325.04633    290.52891   -7.6181536     6.734137    34.517428    40.232203 
121424000    266.04426    310.51818    294.35798   -5.3062495    6.5644592    16.160201    40.229484 
121428000    267.96168    301.47063    282.45674   -5.2850143    7.0147545    19.013889    40.225181 
121432000    272.16606    329.76178    279.45645   -6.7692798    7.8005752    50.305335     40.23056 
121436000    275.31925      325.578    277.63722   -6.8551451    7.2117345    47.940777    40.227694 
121440000    281.21577    343.50117    278.38595   -7.6852469    6.6749241    65.115224    40.228616 
121444000    271.32024    319.76086     279.5368    -6.159353    7.0438967    40.224059     40.22423 
121448000    271.68779    330.38765    266.75621   -6.4934646    7.8393338    63.631443    40.222303 
121452000    272.97179    314.74116    280.24206   -5.5861792    7.1556366    34.499096    40.227321 
121456000    279.67167     334.3246    288.81224   -7.5293581    7.1289795    45.512358    40.236524 
121460000    270.90467    307.71044    273.79418   -6.5815127    6.7860844     33.91626    40.232872 
121464000    268.72085    320.58166     286.4334   -6.7622836    6.3536095    34.148256    40.232531 
121468000    267.62644    307.29607    274.31221   -5.8626303     6.995452     32.98386    40.227506 
121472000    278.04324    346.02738    279.60511   -7.9210093    6.9032146    66.422271    40.226511 
121476000    277.56501    316.14047    280.30253   -7.0388175    5.2816438    35.837945     40.22004 
121480000    279.36868    336.53886    269.51334   -8.9206598    5.0763161    67.025512    40.219742 
121484000    283.67601    337.11845    296.97365   -8.1258743    3.5418537    40.144802    40.221593 
121488000    276.93218    297.43384    275.32461   -5.3594262     5.877394     22.10922    40.218344 
121492000    279.83415    313.88069    270.63896   -7.3466813    6.3475272    43.241723    40.216152 
121496000    275.80846    309.68602    267.33302   -8.1131489    5.8211004    42.352991    40.218794 
121500000    279.10919    326.19462    298.64065    -8.876265    6.2818378    27.553968    40.225066 
121504000    277.59365    294.85604    275.70058   -7.9295924    5.8775618    19.155462     40.22316 
121508000      279.454     320.5447    281.70804   -7.8906004    5.5715957    38.836662    40.224017 
121512000    276.04051    328.16456    278.11728   -8.9856454    5.4404201    50.047282    40.220417 
121516000    283.24334    319.55436    275.56945   -8.0878928    5.5156782    43.984915     40.21711 
121520000    277.50408     323.0813    281.49487    -7.084141    5.8014564    41.586433    40.219184 
121524000    280.58923    306.95822    302.09276   -6.7358201    5.4793893    4.8654642     40.21927 
121528000    284.14281    326.80149    288.50125   -8.0290481    6.0726285    38.300238    40.211108 
121532000    271.75199     312.7283    271.72682   -7.0321299    6.9395002    41.001482    40.211934 
121536000    274.63734    328.79021     256.4803   -6.8978669    7.3221267    72.309916     40.21647 
121540000    272.18774    297.09803    291.43583   -5.3488717    5.3637441    5.6622005     40.21885 
121544000    278.40175    313.06694    288.63762   -6.8354534    5.2530678    24.429323    40.218987 
121548000    279.85483     333.1638     272.7275   -8.4447967     5.108801    60.436294    40.215163 
121552000    280.51018    322.60221    282.11099   -8.9730115    6.6804778    40.491222     40.21906 
121556000    269.46251    315.05333    261.16697   -7.6200009    6.3369699    53.886365    40.216997 
121560000    273.84126     327.7581    258.87705   -8.1489213    8.0241453    68.881043    40.218361 
121564000    283.68565     327.4862    289.69944   -8.5579922    5.8634931    37.786754    40.214136 
121568000    277.24469    316.15092    271.04804   -7.5510259    7.0335163    45.102881     40.21314 
121572000    272.42873    309.04353    253.46894   -6.9321971    7.4126554    55.574593    40.214943 
121576000     278.6689    320.65821    281.42873   -7.4947188    5.7809968    39.229485    40.213526 
121580000    274.29807    329.40075    248.14907   -7.8678013    7.8393653    81.251679    40.218476 
121584000    275.42249    324.20207    280.50078   -7.7305041    5.8785957    43.701289    40.218333 
121588000    285.32041    323.47093    284.91782   -7.6748428    5.5194682    38.553105    40.215232 
121592000    286.18599    344.24705    285.31849   -8.9583594    5.5579494    58.928556    40.220975 
121596000    285.14622    327.24523    304.10363   -9.5079635    6.3704414      23.1416    40.218883 
121600000    282.95059    347.55179    284.64621   -8.5662557    5.6158505    62.905577    40.225572 
121604000     274.4896    303.34153    282.36059   -7.2100054    5.5647625    20.980942    40.223586 
121608000    274.46511    326.52439    279.99338   -8.2049074    6.7769958    46.531009    40.223477 
121612000    278.60578    322.89557    283.84648   -8.0012623    5.8172162    39.049087    40.222568 
121616000    279.69659    322.93055    290.84425   -8.2597733    5.4212251      32.0863    40.218684 
121620000    278.82361     320.7966    283.80763    -7.463781    6.1672267    36.988978    40.217124 
121624000    270.90982    294.95034    294.72977   -6.2954559    5.8115742   0.22057721    40.214835 
121628000    277.47082    338.19843    280.66346   -8.6394797    6.5079647    57.534977    40.215476 
121632000    271.86878    330.48982    255.18985   -7.1526772    8.3897591    75.299969    40.218827 
121636000    275.37443     335.8008    257.69238   -6.9644488    8.0284051    78.108426    40.226338 
121640000    266.65435    285.01442    270.35977   -5.1271653    6.2300888     14.65465    40.220125 
121644000    275.35489    309.26985    278.00483   -6.0586098    6.7318748    31.265024    40.219674 
121648000    271.69953    323.98884    272.84592   -7.4080443    6.9356905    51.142916    40.220641 
121652000    277.56735     316.3427    289.01137   -6.9948531    6.3224175     27.33133     40.21881 
121656000    274.38167    312.33626    275.15787   -5.8714998    6.5656067     37.17839    40.218367 
121660000    270.71068    337.54734    276.06536   -6.5031988    7.0512975    61.481982    40.219662 
121664000    280.91687    326.78494    289.11006    -6.980502    6.6474599    37.674875    40.218591 
121668000    272.31271    322.81903    283.88898   -7.1078512    6.5145513    38.930052     40.21854 
121672000    275.32234    325.01686    281.94144   -7.2445502    6.1087442    43.075424    40.216143 
121676000    270.59421    301.92961    281.19064   -5.7559154    7.4904045    20.738969    40.218503 
121680000    281.29013    338.54706    287.53903   -6.3095456    7.2142364    51.008029    40.219158 
121684000    276.41348    307.99047    297.62932   -5.1941081    6.3173408    10.361153    40.222513 
121688000     275.6045    328.72481    275.32033   -6.1298463    6.8559016    53.404482    40.224947 
121692000    269.64075    324.31474    276.87504   -7.8396469    6.6361249    47.439701    40.225976 
121696000    269.29349    329.65707     274.2141   -6.6239425    6.5102086     55.44297    40.232967 
121700000    280.78069    331.50901    289.93383   -7.4211815    5.7764731    41.575186    40.233304 
121704000    277.24473    334.59334    282.90162   -6.7437878    6.9647644    51.691716    40.231136 
121708000    276.44142     326.0239    294.48864   -7.0350648    5.9107532    31.535264    40.227798 
121712000    265.78013    302.69543    286.80528   -6.3105861    7.1621958    15.890149    40.227646 
121716000    285.93402    335.51046    313.62186   -8.0196357    5.0074576    21.888601     40.22646 
121720000    272.53309    319.63934    283.47737   -7.4812828    7.0161909    36.161972    40.231441 
121724000    280.46978    319.76809    293.61292    -6.145547    6.4130163    26.155171    40.230567 
121728000    271.71696      323.695    264.73065   -7.1496901    7.1341712    58.964348    40.230407 
121732000    275.33448    338.00915    292.20535   -7.7186201     6.377934    45.803804    40.225153 
121736000    279.26581    347.80392    290.91785   -8.5456155    6.0282224    56.886074    40.224969 
121740000    267.56792     306.3985      272.023   -6.2750929    7.1208632    34.375509    40.222764 
121744000    278.63545    326.36188    289.62344   -7.2345189    6.8707126    36.738447    40.224916 
121748000    278.10311    313.17921    296.52586   -6.4171591    6.1743291    16.653344    40.221514 
121752000    276.90884    338.12419    284.97227   -7.3839267    5.4064111     53.15192    40.216282 
121756000    274.66629    345.63225    273.47914   -7.3004757    7.4121626    72.153114    40.223285 
121760000    279.45108     331.5056    286.80028   -6.1522322    6.9182551    44.705324    40.220957 
121764000     272.5754      307.557     274.8087   -6.0902786    6.5918591    32.748301    40.218507 
121768000    275.16732     320.2263    266.44534   -7.4884443    7.5653382    53.780962    40.213261 
121772000    278.39024    313.03835    291.73544   -7.6665668    6.0992258    21.302916    40.211283 
121776000    271.46102    319.72547    272.37299   -7.4764177    6.6726213    47.352481    40.211476 
121780000      282.105    311.33832    286.71577   -8.0823954    5.7327364    24.622549     40.21182 
121784000    267.77259    311.88276    264.13386   -7.1243829    6.9109743      47.7489     40.21472 
121788000    276.23865    318.81616     280.6658   -6.2341494    6.6789486    38.150365    40.211896 
121792000    274.99141    305.29894    271.80313   -7.1866395    7.4682905    33.495811    40.211896 
121796000    277.05595    329.21438    268.97664   -9.0441778    6.6904455     60.23774     40.21327 
121800000    283.86713    335.86651    278.99468   -8.3128391    6.7106549     56.87183    40.213131 
121804000     282.5049     325.9037    287.33382   -8.3349336    5.9266541    38.569876    40.216571 
121808000    275.44416    322.06146    269.32353   -8.6548757    8.3620953    52.737935    40.213186 
121812000    280.30758    321.93642     299.7012   -8.0557783    5.6801872    22.235218    40.220332 
121816000    260.06391    289.32194    266.21249   -6.8014354    7.5585564    23.109446    40.217313 
121820000    277.48462    336.05808    271.10662   -7.0134739    7.3146997     64.95146    40.220568 
121824000     273.8685    316.00992    292.83543   -6.6966208    6.8472887    23.174494    40.218916 
121828000    273.34192    324.62029    284.06585   -7.2362439    5.8973903     40.55444    40.228887 
121832000    279.32207     342.2352    272.50911   -9.4731283     7.896433    69.726091    40.224188 
121836000    268.37956    311.26439      262.859   -6.0210326    8.1907662    48.405396    40.229423 
121840000    272.51012    316.91289    272.34562   -6.7575153    7.3265836    44.567271    40.226646 
121844000    273.39382    300.41339    301.42967   -6.3888004    6.7860318   -1.0162733    40.223609 
121848000    277.26506    310.26716    283.31285   -6.3894828    7.2312219    26.954309    40.222815 
121852000    276.37844    331.64551    285.90969   -7.0388521    7.3575711    45.735823     40.21486 
121856000    275.68726    333.69511    289.55598   -7.1283983     6.861178    44.139131    40.214807 
121860000    263.49928    309.06687    271.35094      -6.1757     7.523043    37.715933    40.212667 
121864000    270.48883     303.0454    277.01628   -5.4746226    6.4009124    26.029117    40.210588 
121868000    268.15155    334.89639    258.85835    -7.065364    8.5868487    76.038044    40.209989 
121872000    271.39752    282.84187    287.35877   -6.0400838    6.8646571   -4.5168963    40.211885 
121876000    273.01834    311.52968    298.04484   -5.3212364    7.3263977     13.48484    40.210845 
121880000    272.24247    326.19409    293.20797   -5.4271176    7.0808089    32.986116    40.205542 
121884000    266.24884    327.97678    268.81699   -5.2520252    8.1365365    59.159793    40.209783 
121888000    268.80645    320.01816    273.35805   -6.9217125     7.816365    46.660113    40.211103 
121892000    268.53926    318.71146    276.86357   -5.7520529    7.8079477    41.847891    40.206677 
121896000      268.609    328.09041    266.04656   -5.8814235    7.4959824    62.043847    40.207379 
121900000    266.69951    311.22653    283.25903   -5.6577963    7.8057947    27.967498    40.207721 
121904000    269.87739    330.47397    280.18097   -6.4204025    7.9342945    50.293003    40.212726 
121908000    279.34438    337.50993    281.36993   -7.2176713    8.1117897    56.139994    40.211004 
121912000    278.06723    328.48766    281.40822   -7.2006399    7.5571134    47.079431    40.214486 
121916000    277.61239    325.48751    301.28467   -7.3880154    7.4032119    24.202845    40.212022 
121920000    270.29916    318.48019    269.50025   -6.9176327    8.4768895     48.97994    40.214595 
121924000    269.59969    308.59055    276.98938   -6.3600108     8.168755    31.601173    40.216458 
121928000    279.69896    322.21051    298.68943   -7.5914128     7.627742    23.521075    40.222144 
121932000    278.28499    311.64783    306.47724   -8.1717886    6.5982187    5.1705918    40.217786 
121936000    274.39283    306.59808    291.94183   -7.4226146    7.2237161    14.656253    40.219775 
121940000    274.63785    314.80882    299.42445   -8.0556122    6.6319537     15.38437    40.222348 
121944000    274.73532    330.81397    288.23324    -8.823422    7.3528699    42.580732    40.225299 
121948000    270.55177    330.78691     277.5607   -7.6613786    8.7558088     53.22621     40.22978 
121952000    274.08497    335.64218    290.40579   -7.9010961    7.0034236    45.236391    40.227201 
121956000    272.06482     324.2471    289.52113   -8.0011711    7.0553271    34.725971    40.229844 
121960000    271.44866     325.8887    288.70345   -6.5515982    7.7616058    37.185248    40.233706 
121964000    263.52508    303.95154    269.60633   -5.3091465    8.9188809    34.345209    40.234516 
121968000     266.0371    305.64093    272.22005   -7.5758587    9.5301136    33.420882    40.233583 
121972000    269.23521    299.86682    288.23353   -7.1029709      8.01112    11.633297    40.241553 
121976000     272.3048    309.33269    284.45402   -7.5310453    8.2640718    24.878676     40.23487 
121980000    274.74941    325.50726    278.01645   -8.5791671    8.1988507    47.490816    40.238985 
121984000    277.09601    338.31861    283.47729   -8.9651948    7.3429122    54.841317    40.240155 
121988000    272.59151    307.76761    300.07847   -7.4013974    7.4220186    7.6891471    40.237235 
121992000    273.72468    332.08816    273.86995   -7.3148325    9.1553559    58.218217    40.237473 
121996000    269.43037    299.70096    298.92039   -6.6236108    7.8057049   0.78057243    40.239766 
122000000    262.58593     302.3098    286.10402   -6.5578428    7.6748644    16.205778    40.240133 
122004000    272.61458    336.73812     275.9985   -7.1328619    9.0391323     60.73962    40.242157 
122008000    276.21997    335.74827    288.54704    -6.856177    7.5117053    47.201227    40.246045 
122012000     267.6111    303.21042    278.24761   -6.4372998    8.1298068    24.962811    40.237457 
122016000    269.91147    350.38169    262.06755   -9.1271842    9.2137771    88.314136    40.237569 
122020000    276.27424    326.06306    271.31172    -7.629613    9.2953764    54.751346    40.235026 
122024000    276.71649    333.85031    297.86117   -6.8008245    7.3598654    35.989147    40.231018 
122028000    268.69565    314.36126    277.54118    -6.324215     8.060218    36.820078    40.228966 
122032000     273.2785    332.80002    281.32042   -6.1915304    7.4819185    51.479591    40.233658 
122036000    271.81337    320.43847    282.62367   -8.4498064    7.4133828    37.814802    40.236812 
122040000    271.32097    319.92129    257.54603   -7.6617567    9.1372152    62.375259    40.240728 
122044000    274.74035    299.83886    290.34059   -7.8330595    7.2039177    9.4982677    40.242788 
122048000    269.05587    300.36742     262.9639   -7.5016516    7.5450568    37.403522    40.236749 
122052000    279.17999    325.44562    283.52232   -7.7098129    6.3871615    41.923296    40.236097 
122056000    270.86941    319.59704    285.55913   -8.5626112    6.8247279     34.03791    40.229409 
122060000     280.9695    321.65289    294.92001   -8.0238578     6.219428    26.732881    40.232603 
122064000    282.19907    337.64393    291.50482    -8.064912    7.3524879    46.139109    40.231255 
122068000    278.43919    323.72756    286.44027   -8.1991489     7.173737    37.287285     40.23312 
122072000    270.60717    305.64453    275.98429   -6.7279127    7.8002097    29.660234    40.230746 
122076000    272.89281      313.968    261.44243   -8.7201453    8.1486634    52.525568    40.226205 
122080000    269.41914    311.49631    281.25838   -8.3900001    6.5372776    30.237933    40.223879 
122084000    266.71211    306.45876    279.04806   -8.3195728    7.7150412    27.410695     40.22319 
122088000    280.56594    332.89238    301.36247   -8.8724913    6.4645706    31.529912    40.223379 
122092000    279.51849    307.33971    284.92294   -8.1855014     6.455724    22.416761    40.222225 
122096000    272.91018    295.04763    287.25653    -5.721991    6.7526458    7.7910994    40.224188 
122100000    283.68393    322.11327    290.42178    -8.466549    7.5294222     31.69149    40.223528 
122104000    271.54665    323.89513    265.26365    -8.169651    8.1847863    58.631475    40.226536 
122108000    281.07846    331.44892    273.58207    -8.240936    7.4339875    57.866852     40.22721 
122112000    280.79431    311.64098    294.56903   -8.3836834    5.3825472    17.071951    40.226253 
122116000      275.726    316.50765    264.00909   -7.9954579     7.422367    52.498562    40.226656 
122120000    280.76823    336.73785    280.33348   -9.9195381    7.0125743    56.404371    40.230732 
122124000    274.21407     314.8402    289.51355   -7.8338584    6.7126868     25.32665    40.235779 
122128000    277.04747    305.53687    290.54998   -7.3601218    6.4846307    14.986893    40.239422 
122132000    287.71364    352.14535    287.22116   -9.1795083    7.1429539    64.924196    40.239834 
122136000    279.71644    321.84775    300.48607   -7.7247094    5.7190433     21.36168    40.237335 
122140000    284.39724    339.98432    283.68229    -9.109712    6.7729434    56.302033    40.233276 
122144000    279.77247    318.67404    278.40744   -9.6612128     6.855672    40.266607    40.228281 
122148000    276.72617    311.52551    283.35977   -8.2335603    8.1090312    28.165743    40.226224 
122152000      283.681    326.70867    300.88823   -9.9663422    6.5666522    25.820436    40.224839 
122156000    272.48363    298.78941    269.20498   -8.0279525    6.4265306    29.584431    40.233438 
122160000    273.40442    325.52599    275.44505   -9.0987184     6.933505    50.080935    40.225622 
122164000    273.86682    331.19757    261.99095   -9.0404216    7.0182225     69.20662    40.225827 
122168000    275.11901    324.48994    273.16548   -9.8588315    6.8181937    51.324458     40.22215 
122172000    274.41583    311.37911    287.92867    -8.084804     7.341338    23.450443    40.227363 
122176000    279.81562    342.52969    294.75762   -8.5715703    7.1329779    47.772071    40.224981 
122180000    282.37269    324.48238    290.31777   -8.4686408    7.3952876    34.164615    40.223758 
122184000    267.53301    304.86394    278.28005   -8.1571405    7.8791607    26.583891    40.220803 
122188000    287.84886    342.36359    304.82182   -8.9042724    6.9229775     37.54177    40.222527 
122192000    268.20277    297.95453    262.04108   -6.1869592     9.695801    35.913456    40.216163 
122196000    276.73899    328.42865    278.35475   -8.2038534    8.2010805    50.073906    40.216919 
122200000      285.283    342.88508     296.8215   -8.1516895    7.4172136    46.063578    40.219248 
122204000    277.38905     330.0566     268.6977   -7.6986535    8.4176868    61.358908    40.218633 
122208000    288.73544    345.96127    316.86166    -8.536918    5.9526318     29.09961    40.214999 
122212000     281.3607    328.18666    287.61252   -7.8927528    7.0463485    40.574138    40.218517 
122216000    274.05945    303.15078    274.68868   -6.9843973      7.80217    28.462098    40.221205 
122220000    284.06153    337.93222    296.03814   -9.3910688    7.3643298    41.894073    40.226625 
122224000    267.45138    311.58157    276.38604   -8.5638281    7.1930738    35.195521    40.225608 
122228000    277.48996    324.93949    295.99034   -8.8372703    7.5221581    28.949149    40.224473 
122232000    277.12785    334.48701    274.73786   -9.3454609    7.6793686    59.749154    40.224146 
122236000    279.28147    316.17013    284.77795   -8.9482324    9.4438536    31.392178    40.220723 
122240000    285.97704     326.4436    296.87864   -9.9239385    6.7562752    29.564956    40.222311 
122244000    283.98318    336.38433     284.5088   -8.7771317    8.4333785    51.875533     40.22298 
122248000    267.66176     310.6736    276.15914   -7.2651917    7.9300756    34.514459    40.222515 
122252000    279.70789    323.51057    293.17505   -8.5907322    7.6418496    30.335528    40.226993 
122256000    276.29634    311.97748    284.16192   -8.5148341    7.8897152    27.815559    40.230457 
122260000    275.87843    328.18838    257.83936   -7.7569868    9.4354127    70.349014    40.226295 
122264000    279.22568    322.20095    265.72354   -9.8041064     8.642767    56.477409    40.226847 
122268000    270.62882    313.59197    280.40015   -8.9484527     8.102053    33.191819    40.229376 
122272000    271.07708    303.00081    277.34252   -8.1204626    7.9325071     25.65829     40.22831 
122276000     282.1179    310.11248    290.58452   -8.9858766    6.8485259    19.527958    40.228368 
122280000    269.51082    303.58347    264.04186   -10.088688    8.4112598    39.541602    40.224779 
122284000    282.02823    320.11494    271.23073   -10.081891    8.7394041     48.88421    40.225632 
122288000    278.43876    321.12508    288.28122   -9.8535614    8.0083793    32.843856    40.225687 
122292000    279.09109    314.66823    279.04904   -10.341151    8.3993272    35.619191    40.223104 
122296000    282.39393    353.94034    257.55706    -13.71812     9.718932    96.383279    40.225082 
122300000    283.30938    332.95155    273.88371   -11.174929    7.9499475    59.067837    40.223079 
122304000    282.86488    333.77273    286.80505   -10.247673    7.9532638    46.967687    40.225003 
122308000    278.27134    294.86496    310.44812    -9.146467    6.9504342   -15.583164    40.223794 
122312000    278.73369      314.306    269.96515   -10.983432    7.9536933    44.340848    40.224436 
122316000    279.19426    302.68368    297.96348   -9.0758763    7.5070404    4.7201984    40.222099 
122320000    287.19208    353.58074    277.69457     -12.6624    7.5030914    75.886167    40.223119 
122324000    286.08867     336.7041    272.61173   -11.378989     7.816731    64.092363    40.224949 
122328000    280.29765    307.86576    288.67646   -10.142494    7.9809626    19.189304    40.221171 
122332000    265.98329    305.19778    267.93309   -9.0079262    7.5713289     37.26469    40.223917 
122336000    277.28195    339.75029    276.84809   -9.8260332     8.871523    62.902206    40.222585 
122340000    269.90363    298.08785    262.14694   -8.3307112    8.7702557    35.940916    40.221341 
122344000    270.09796    311.22684    272.37156   -9.5297991    8.8643718    38.855288    40.218315 
122348000    278.15453    331.97448    275.75336   -10.675986    9.2018179     56.22112     40.21862 
122352000    278.70549     320.4093    284.63326   -8.6175743    7.6305981    35.776039    40.224026 
122356000    278.57284    322.11752     276.2555   -10.604957    8.2733414    45.862022     40.22373 
122360000    280.48138    293.79643    283.75249    -8.200342    8.0102835     10.04394    40.219248 
122364000    277.53437    315.54981    278.83514   -8.6097252    7.1304698    36.714662    40.223177 
122368000    280.06841    321.19563    281.83632   -10.183152    8.5556857    39.359316     40.22548 
122372000     269.4485    291.12466    270.54339   -7.8204381    8.6317491    20.581268    40.220248 
122376000     271.5373    304.47095    272.63452   -9.8562486    8.3993968    31.836423    40.223247 
122380000    276.09549    346.24609    273.71652   -11.131191    8.9248726    72.529571    40.221581 
122384000    275.71701    295.65911    301.24709   -7.3869732    7.6529556   -5.5879785    40.219401 
122388000    279.29888    338.23914    281.45691    -10.55949    8.2549647    56.782227    40.222882 
122392000    277.15022    337.48095    264.62979   -11.114177    8.8010799    72.851155    40.222383 
122396000    275.98967    316.05305    282.99891   -10.442727    8.0185269    33.054132    40.221447 
122400000    275.10314    300.59729    300.33821   -10.675431    6.9160598   0.25907322    40.226056 
122404000    274.56703    310.02424    255.19501   -10.762384    8.9514038    54.829226    40.222259 
122408000      286.759    338.10663    289.04844   -11.668903    8.7234165    49.058189    40.223538 
122412000    285.32489    340.85845    280.89126   -12.413302    9.0388426     59.96719    40.229501 
122416000    277.48075    306.74676    269.73785   -9.6156586    8.5853696    37.008912    40.225514 
122420000    280.33666    332.26401    282.17257   -11.926917    7.8688623    50.091436    40.228403 
122424000    272.64412    317.30915    251.44635   -10.273748    10.163911    65.862801    40.223367 
122428000     284.8705     316.8114    304.34732   -11.192625    7.6669974    12.464083    40.225066 
122432000    281.45428    311.90702    283.81358   -9.8312448    8.0677555    28.093441    40.226767 
122436000    280.46902    335.24395    276.69195   -11.473134    8.6583777    58.552002    40.228115 
122440000    274.61079    317.71688    282.63783   -10.508333    8.5109359    35.079053    40.228859 
122444000    278.22282    308.26162    272.12713   -10.872026    8.8039938    36.134491    40.225909 
122448000    282.78453     322.1901    277.15923   -11.615717     9.424357    45.030875    40.227636 
122452000    276.88938    307.78231    288.27613   -10.487686    9.4442138    19.506181    40.226096 
122456000    286.73469    335.64099    289.79475   -11.605592    8.3173563    45.846245    40.229346 
122460000    276.63207    321.83894    284.25357   -9.8443328    7.8887871    37.585368    40.224827 
122464000    279.43464    299.17486    305.83595   -8.9338434    6.7888233   -6.6610982    40.222044 
122468000    280.00542     326.2182     272.6127   -11.294174    8.6890631    53.605497    40.220754 
122472000    280.93479    324.31718    278.38695   -10.185746    9.0595167    45.930227    40.223533 
122476000    273.97198    317.95622    291.82444    -11.20403    7.6857238    26.131783    40.225075 
122480000    276.25478    322.17497    296.00208   -10.888808    8.6564013    26.172889    40.223537 
122484000    282.92145    337.32835    286.45296   -11.730944     9.541349    50.875383    40.219317 
122488000    284.74682    337.31858    283.40545   -10.873008    9.4735794    53.913131    40.220768 
122492000    280.34072    312.32386    290.86499   -9.7838658    9.0128707    21.458874    40.215718 
122496000    267.64474    306.54138    260.69154   -9.5055966    9.8765575    45.849845    40.216072 
122500000    286.02007    340.66033    291.41078   -11.293168    8.1974762    49.249553    40.214011 
122504000    276.42688    329.81698    273.34431   -10.253057    10.003046    56.472667    40.214494 
122508000    279.97077    338.42795    287.91386   -11.058961    7.9437599    50.514092    40.209694 
122512000    281.19219    312.76052     285.6129   -8.9391624    7.7639729    27.147625    40.209926 
122516000    283.78858     325.1011     299.1998   -9.0339589     7.218067    25.901302    40.207774 
122520000     275.2333    318.12971     265.0427   -8.9461921    9.4843322    53.087008    40.205652 
122524000    280.18397    351.92079    278.67484   -10.943545    8.3682292    73.245952     40.20534 
122528000    280.03413    330.31688    276.01854   -9.2131237    8.8368933     54.29834    40.202984 
122532000    263.91305    307.20783    262.63548   -9.2123078    9.3837498    44.572343    40.203601 
122536000    268.59566    313.09488    265.51355   -9.2924848    9.6207205    47.581329    40.207119 
122540000     272.8629    304.51737    304.52011   -9.1688615    7.4030551 -0.0027468877    40.208249 
122544000    271.39073    299.15225     271.1883   -8.4734305    9.3523125     27.96395    40.206189 
122548000    275.52163    310.16972    303.02744   -9.2848516    7.3957443     7.142271    40.204622 
122552000    272.47683    321.13545    267.25793   -9.1673851      10.9536    53.877522    40.203475 
122556000    272.77549    315.66605    272.79779   -9.1958194    9.9637397    42.868256    40.203618 
122560000    272.10023    319.19095    294.20435   -8.3906591      7.53625    24.986597    40.201024 
122564000    273.38117      319.078    273.95852   -8.6646639    9.1549592    45.119485     40.19844 
122568000    273.17323    313.29258    275.49574   -8.2906126    8.7412521    37.796846    40.195853 
122572000    267.58706     312.5785    275.63669   -9.1609399    8.9707892    36.941819    40.198498 
122576000    277.33459    310.37884    294.12612    -7.816963     8.097087    16.252713    40.202227 
122580000    278.20018    335.38759    286.43826   -10.530154    9.5729738    48.949331    40.200705 
122584000    271.65056    302.41282    272.86176   -7.9722573     9.581408    29.551063    40.200519 
122588000    283.62607    318.77846    300.07553   -9.9010148    9.3043864    18.702933    40.203064 
122592000    277.26271     324.2441    288.68255   -10.025315    8.6869954     35.56155    40.205012 
122596000    269.91151    314.27481    295.79129   -8.6141025    9.3310155    18.483525    40.207328 
122600000    271.02482    304.70971     269.3764   -7.0271854    9.8564595    35.333303    40.206536 
122604000     274.7846    328.69958    275.53259   -8.1374471    11.296042    53.166986     40.20598 
122608000    272.15559    321.28381    267.34781   -9.0297197     12.22202    53.935993     40.20643 
122612000    278.23867     324.7844    310.50791   -10.740846    9.9053796    14.276491    40.206645 
122616000    273.26786    318.33602    283.53892   -8.7113042    11.107901      34.7971    40.208606 
122620000    275.08097    312.98497    277.79343   -9.5491908    11.013759    35.191536     40.20905 
122624000    262.79231    303.42558    268.88708   -9.9364764    11.388589    34.538503     40.20715 
122628000    276.06421    302.32874    295.18352   -9.4113007    8.7647677    7.1452183    40.205491 
122632000    276.37874     350.5137    278.97073   -9.8354495    10.118556    71.542968    40.203155 
122636000    270.69402    305.82144    278.09613   -8.2578787    9.8734447    27.725315    40.203231 
122640000    274.60643    301.80503    290.66247    -7.891733     10.08518    11.142556    40.200129 
122644000    274.79611    320.30784    276.59715   -10.565163    9.6935138    43.710688    40.200638 
122648000    280.10108    321.57672    289.03264   -10.294733    8.4607345    32.544084    40.205759 
122652000    282.92432    344.55786    286.52825   -10.802044     8.252017    58.029608    40.207234 
122656000    278.15652    321.91336    279.75163   -10.024724     9.038425    42.161732    40.209054 
122660000    288.22207    331.24001    306.24774   -10.726377     7.342501    24.992273    40.212409 
122664000     285.3707     333.2635     281.8467   -12.101866    8.6675466    51.416802    40.220766 
122668000    271.05729    313.83797    273.79235   -10.171193    9.4067365    40.045618     40.22212 
122672000    283.99834    325.21734    292.81974   -9.5538964    7.9060838    32.397597    40.226019 
122676000    278.20271    310.09199    282.17584   -9.7911751    9.3613969     27.91615     40.21904 
122680000     273.6175    318.28895    276.01882   -8.8590552    9.8950563    42.270126    40.213171 
122684000    280.25888    311.16533     309.0388   -9.5365453    8.0053031      2.12653    40.211648 
122688000    276.47261    316.75124    286.85939   -9.8801292    7.8749861    29.891848    40.212088 
122692000    273.91726    319.03908    279.29843    -8.960916    8.4638044    39.740656     40.21034 
122696000    279.72708    330.80059    272.08323   -8.7524466    9.2097358    58.717359    40.209126 
122700000    277.27629    325.59946     280.5292   -9.5310019    8.6502419    45.070264    40.208731 
122704000    272.86193    316.01405    279.18173   -8.6084459     7.555784    36.832318    40.207926 
122708000    279.72832    334.59471    272.74762   -8.7991562    7.8497621    61.847081    40.204129 
122712000    270.09484    305.95896    288.48916   -7.7006626    7.4223021    17.469805    40.202843 
122716000     272.8149    306.65972    271.80823   -8.1959431    7.7537677    34.851487    40.198053 
122720000    277.18522    318.00982    286.38552   -8.9024838    7.5613761    31.624303    40.196458 
122724000    276.64811    303.95906    288.92402   -8.9661751    6.8836175    15.035031    40.197951 
122728000    274.25078     314.1938    272.97398   -7.8590283    9.0280644    41.219821    40.200829 
122732000    282.60593    332.77441      286.065   -8.5666264    7.9034054    46.709404    40.197418 
122736000    272.94532    301.32831    280.08333   -7.5391896     8.218324    21.244976    40.194635 
122740000    280.39594    303.14385    302.63168    -7.908385    6.9549694   0.51217466     40.19497 
122744000    276.18311     329.2898    280.02155   -8.8912509    8.2855116    49.268245     40.19097 
122748000    285.32167    309.46365    288.91387   -8.5073223    6.6838631    20.549782    40.191849 
122752000     277.9966    324.25975    280.24024   -8.9562491    7.6936236    44.019512    40.194332 
122756000    272.81028    293.42628    283.03452   -7.1373037    6.7117516    10.391764    40.193417 
122760000    281.68686    339.73873    274.54095    -10.39267    7.7303036    65.197784    40.193042 
122764000    281.80216    332.74754     276.8098   -10.369667    8.0316482     55.93774    40.194151 
122768000    273.17393    329.32654    270.44652   -10.080285    8.8621842     58.88002    40.195574 
122772000     269.7519    314.02386    274.57837   -9.1549062    9.1759425    39.445487     40.19442 
122776000    274.36555    316.36242     270.4326     -9.54519    8.3925108    45.929815    40.194979 
122780000    279.88123    318.87392    285.10895   -8.4316558    8.2232968    33.764969    40.193889 
122784000     284.2093    327.79527    292.24946    -9.747637    8.3115678    35.545811    40.194699 
122788000    275.66643    303.73148    286.73127   -9.1339163    8.6812834    17.000209    40.195691 
122792000    284.48597    325.22033    281.77045   -9.0906445    9.4605409    43.449881    40.193926 
122796000    270.54989    311.18451    266.73061   -8.7903445    8.9734373    44.453901    40.196012 
122800000    277.98356    331.96498    277.35438   -9.8841639    9.3131658    54.610601    40.194896 
122804000    279.26111    334.05779    280.97514   -10.372934    8.5732116    53.082646    40.195244 
122808000    275.37064    308.06633    282.01898   -9.1500554    8.3434157    26.047353     40.18775 
122812000    276.85955    323.76997    278.08691   -9.7407381      7.75909    45.683062    40.188662 
122816000    275.90699    310.14574    280.34975   -9.3933598    7.5051826    29.795992    40.189555 
122820000    281.55384    330.81307    269.93384   -9.5928661    9.5954103    60.879226    40.188246 
122824000    277.77221    327.11073    281.36763    -11.36803    8.6783062    45.743102    40.191452 
122828000    284.63201    325.30977    293.67186   -10.818052    7.0007615     31.63791    40.192658 
122832000    279.07868    325.87321    291.36095   -9.7324442    5.8250574    34.512257    40.191946 
122836000     285.9026    355.00173    278.02421    -11.96032     8.583328    76.977521    40.186812 
122840000    272.48907    319.14249    286.33379   -8.9642256    8.7707099    32.808693    40.189145 
122844000    278.25972    308.96117     283.6178   -9.6400484    8.2848948    25.343376    40.186028 
122848000    285.63144    353.25721    284.62339   -11.199565    8.1398358    68.633819    40.185833 
122852000     278.0193    334.67193    282.66297   -11.294867    7.6623745    52.008959    40.182947 
122856000    290.57673    343.37107    301.25157   -11.718232    8.0692076    42.119501    40.180696 
122860000    277.85661    346.83767    277.58071   -11.355901     9.068824    69.256961    40.183652 
122864000    275.64293    313.33394    259.67311   -10.665154    10.080593    53.660822    40.184795 
122868000    275.99493    310.63512    272.01376   -9.1457167    9.2126179    38.621362    40.187746 
122872000    273.33957     309.4006    266.71626   -9.3999432    9.1299022    42.684334    40.190658 
122876000    288.86212    333.81098     283.9903   -11.441943    8.6638256    49.820675    40.185995 
122880000    275.83706    297.30567    282.25752   -9.9989084    9.7323132    15.048151    40.188625 
122884000    273.99477    311.86155    286.25054   -9.4500412    7.5431183     25.61101    40.185295 
122888000    282.34766    318.79873    297.82514   -9.4591652    6.9622606    20.973597    40.185883 
122892000     275.8382    325.85445    277.23174   -10.053819    8.9131191    48.622709    40.188317 
122896000    274.02473    310.68049    282.13494   -8.4213471    8.5228426    28.545545     40.18555 
122900000     277.1087    314.70114    297.99466   -8.3375292    8.4317164    16.706475    40.184063 
122904000    275.48601    310.37477    283.38562   -9.1649457    9.2474611    26.989145    40.180818 
122908000    271.42044    314.73896     264.0727   -10.109254    9.0333094    50.666262     40.18066 
122912000    280.69841    304.13559    294.86419   -9.6016733    6.5092103    9.2713972    40.176305 
122916000    267.10473    317.08902    262.84159   -9.6992652    9.7591321    54.247434    40.181432 
122920000    269.31273    310.58119     259.4735   -9.1284198    10.345723    51.107689    40.183291 
122924000    277.58765    345.12071    279.31353   -10.686307    10.162188    65.807178    40.183819 
122928000    285.68852    340.78381    289.29571   -11.500277     8.109273    51.488103    40.187092 
122932000    283.76243    333.42059    290.16897   -11.462005    8.4506457     43.25162    40.184147 
122936000    277.05778    319.65551    300.65506   -8.8404412    7.5102781    19.000456    40.183573 
122940000    270.49802    325.80416    263.24014   -10.451407    9.4785791    62.564028    40.183371 
122944000    284.04581    319.10683    299.62486   -9.2882979    7.2984311    19.481968    40.181407 
122948000    275.26977    332.70999    261.77327   -11.071423    10.161197    70.936721    40.182061 
122952000    279.32128    323.36678    288.12636   -9.0963664    8.3391586    35.240427    40.181604 
122956000    268.27226    311.62062    255.85817   -9.3945166    10.486284    55.762449    40.180602 
122960000     277.2948      306.947    291.99404   -9.7798747    9.5330353     14.95296    40.176619 
122964000    278.69473    339.52973    293.64934   -10.798617    8.7152355    45.880394    40.174778 
122968000     279.2765    318.18855    278.05839   -11.255098    9.0236785    40.130162     40.17704 
122972000    283.99765    344.51458    267.67539   -12.088007    9.8746264    76.839186    40.179029 
122976000    281.55991    324.90505    289.00934   -9.5568051    9.7621127    35.895706    40.177402 
122980000    272.75538    323.66817    271.54425   -10.705967    9.9978239    52.123923    40.176953 
122984000     279.0851    319.31254    291.35967   -9.4440511     8.831861    27.952875    40.172376 
122988000    282.62846    314.79802    299.08144   -10.414207    9.1903947    15.716582    40.170836 
122992000    275.56781    341.09406    270.73597   -10.529983    10.240592     70.35809    40.173853 
122996000    270.74133    316.44499    270.71413   -8.6140382    9.6699057    45.730868    40.173228 
123000000    270.94925    305.04827    275.85289   -8.8807227    9.5607297    29.195371    40.176276 
123004000    283.85163     333.4637    277.44769    -10.02229    10.294091    56.016017    40.174064 
123008000    278.30448    310.54436    290.74313    -10.07523     9.612279     19.80123    40.172322 
123012000    281.37432    314.14879    288.62915   -9.7495239    9.3830974    25.519642     40.17006 
123016000    276.53981    328.27453    264.90119   -11.168884     10.64951    63.373338    40.173095 
123020000    277.90548    324.26258    285.88521   -10.793082     9.541788    38.377371    40.171758 
123024000    270.51409    309.31334    266.32588   -9.6079003    9.4171981    42.987462    40.177715 
123028000    273.24055    308.38861    273.27715   -10.608518    9.3284451    35.111466    40.178456 
123032000    282.55712     332.0515    282.28522   -11.755741    8.8148653    49.766282    40.178275 
123036000    271.84585    300.37797    281.44189   -10.637744    8.6237237    18.936085    40.177263 
123040000     278.5043    318.91467    276.52071    -10.57487    9.4729311    42.393962    40.180522 
123044000    268.33432    308.33556    269.54472   -10.173975    11.278589    38.790835     40.17911 
123048000      278.802     320.7733    273.55469   -9.7121068    11.661054    47.218612    40.179335 
123052000     278.0308    323.35591    279.93799   -10.606089    9.5245889    43.417927    40.178532 
123056000    269.57678    324.01322    269.62272   -10.449069    10.047313    54.390498    40.182723 
123060000    281.33783    339.83631    278.90784   -12.528876    10.325279    60.928471    40.181069 
123064000    272.95877    315.32359    280.01828   -9.7730656    10.327169    35.305314    40.179341 
123068000    267.92194    308.03855    269.86179   -9.3877168    9.6313595    38.176758    40.176047 
123072000    279.48757     313.6065    287.69795    -10.78372    8.8635538    25.908546    40.177429 
123076000    272.76584    310.55738    280.31741     -9.05485    9.0224022    30.239964    40.182165 
123080000    272.01732    307.81188    279.17364   -10.094055    8.4641485    28.638241     40.18474 
123084000    281.23732    306.94426    288.27656    -9.437118    9.0194907    18.667692    40.183538 
123088000    273.96773    321.64127    275.78057   -10.443101    9.4942953    45.860699    40.186231 
123092000    273.24418    314.19332    275.29837   -12.170114    9.4617962    38.894946    40.186757 
123096000    285.05945    352.76845    289.07344   -12.768516    8.8683633    63.695008    40.187614 
123100000    272.46553    294.22323    295.14296   -9.1521132    8.8635668  -0.91972479    40.185628 
123104000    273.52256    323.85713     272.8281   -11.980648    9.8907752    51.029031    40.190602 
123108000    276.54968    309.22552       281.06   -11.348416    9.1860351    28.165518    40.189332 
123112000    281.06031    335.56319    267.83105     -11.3204    8.8905872    67.732146    40.192069 
123116000    279.26177    336.35119    268.56458   -11.939509    10.637572    67.786616    40.195306 
123120000    268.47346    306.34857    269.04206    -9.763168    10.122533    37.306512    40.196734 
123124000     286.2495    342.87585    292.47764   -12.014283    8.4820933    50.398212    40.198196 
123128000    281.96257    324.51069    279.94933    -10.44124    9.5546107    44.561361    40.197786 
123132000    273.56852    323.61927    276.65538   -11.083627    8.6235731    46.963894     40.19437 
123136000    283.75031    300.79831    294.02646   -10.431453    8.4978072    6.7718477    40.195235 
123140000    278.68288    311.74814    273.84831   -8.9420163    9.1971674    37.899835    40.195186 
123144000    285.72446    339.48798     294.9142   -12.195201    8.0384499     44.57378    40.197529 
123148000    280.66924    328.56144    271.34213   -10.855343    8.7978908    57.219305    40.196877 
123152000    287.71867    334.59551    291.62483   -12.442639    8.0154817    42.970682    40.194423 
123156000     282.1482    330.52927    283.97883   -11.619973    9.9156996    46.550444    40.195735 
123160000    278.39694    316.95812    286.82587   -10.783892    9.7820402    30.132249    40.194289 
123164000    278.71512    322.88249    288.01248   -10.917429    9.3777649     34.87001    40.194802 
123168000    284.03496     340.6952    287.17159   -11.565724    9.0733677    53.523615    40.194617 
123172000     274.7017     318.3731    277.98409   -10.998631    9.3249324    40.389008    40.193122 
123176000    280.81179    329.01528     298.6628   -10.290184    10.197878    30.352474    40.192522 
123180000    271.55977    327.00904    267.28641   -11.540757    10.212416    59.722631    40.188593 
123184000    267.50659    304.49116      274.954   -10.526585    10.755963    29.537161    40.186087 
123188000    269.11252    322.72198    275.51175   -10.081461    10.287222    47.210226    40.188213 
123192000    262.29624    298.83549    279.35935   -9.1810054    10.975069    19.476142    40.185882 
123196000    279.99346    330.79986     280.9417   -11.060611    9.8240621    49.858163    40.187217 
123200000    283.51022    335.77894    298.97455   -11.118602      9.21659    36.804391     40.18858 
123204000    267.69101    314.50237    272.09578   -10.675431    10.525798    42.406586    40.190141 
123208000    272.76082    329.92058    280.81293   -11.232365    10.610191    49.107643     40.19161 
123212000    269.71706    312.14716    261.80959   -10.922572    12.033788    50.337564    40.189853 
123216000    274.40403    317.70491    270.24596   -9.6233923    10.944558    47.458947    40.186105 
123220000    277.87838    329.97305    283.46048   -10.857368    9.7648262    46.512576     40.18499 
123224000     270.2749    332.71954    278.18838   -11.539501    9.8739154     54.53116     40.18103 
123228000    278.11997    338.34122    270.48551   -11.668159    9.8183269    67.855715    40.178771 
123232000    278.79223    325.59929     276.0094   -11.641032     9.962249    49.589892     40.17793 
123236000    277.85041    314.45063    284.35374   -10.429494    10.105847    30.096888    40.177938 
123240000    277.19081    312.51264    277.37775   -9.8656787     10.06664    35.134894    40.182246 
123244000    283.68778    333.95933     285.8234   -10.904453    9.9585056    48.135927    40.179411 
123248000    283.11176    306.40792    295.24714   -11.449267    9.7245712    11.160774    40.180846 
123252000     273.1129    310.24685    261.04541   -10.271436    12.183521    49.201441    40.184242 
123256000    270.22101    333.67686    266.77486   -11.175211    10.755231    66.901997    40.185006 
123260000    271.10771    313.91201     269.3619   -9.7359178    10.742386    44.550119    40.188843 
123264000    266.34669    302.17125    262.48931   -9.5725553    10.171284    39.681943    40.187005 
123268000    279.73979    322.63409    284.85662   -10.362447    9.9364613     37.77747      40.1865 
123272000    267.51482     300.6963    282.41958   -10.928017     9.817823    18.276721    40.187382 
123276000    266.71289    281.60189    282.87095   -9.0487079     10.09599   -1.2690566     40.18761 
123280000    276.42791    330.77817    278.65845   -10.439409    10.099714    52.119714    40.188721 
123284000    276.79291    316.27351    271.09234    -9.525112    9.6625252    45.181168    40.191146 
123288000    283.09181    318.95814    288.61378   -11.022229    9.4342932    30.344365    40.191324 
123292000    278.04319    310.32304    296.31229    -10.68133    9.3407294    14.010747    40.189398 
123296000    281.42323    331.04697    278.81755   -12.524294    10.005464    52.229417    40.184781 
123300000    276.78221    304.99682    283.35874   -10.582943    9.1492564    21.638077    40.187093 
123304000    274.24029    300.41249    272.00321   -11.581209    9.7196744    28.409279    40.185535 
123308000    287.26514     334.7233    289.27769   -12.744828    8.8122395    45.445616    40.182037 
123312000    268.51426    299.36353    273.80785   -10.581982    10.331651    25.555672    40.179771 
123316000    274.75355    333.07002    277.02381   -12.737684    8.9332098    56.046219    40.183057 
123320000    269.25071    323.49954    261.03683   -11.231997    11.024746    62.462709    40.187396 
123324000    271.88041    301.53456    281.02464   -9.5675104    10.302116     20.50992    40.186656 
123328000    283.03462    336.24809    276.61231   -12.452407    9.9360325    59.635779    40.189305 
123332000    285.20483    342.08387    289.62566   -10.117739    8.6885067    52.458204    40.188048 
123336000    270.85876    312.26408    278.36022   -10.492836    9.4633632    33.903868    40.182209 
123340000    277.62756    320.96966    292.52327    -10.33873    8.8951453    28.446385    40.181138 
123344000    286.77362    342.03286    286.52566   -11.214687    9.8818198    55.507199     40.18041 
123348000     277.0053    326.99827    273.26931   -10.157658    10.361762    53.728959    40.180379 
123352000     272.8559    305.33654    279.26189   -8.0844769    10.740767    26.074649    40.183155 
123356000     287.0976    346.92896    285.32486   -11.205828    9.6654632    61.604097    40.183595 
123360000    279.49413    325.48661    279.11623   -10.570985    10.468937    46.370386    40.184713 
123364000    272.31027    314.16859    264.40271   -9.3088787    10.615769     49.76588    40.180287 
123368000    278.68815    308.28207    294.33552   -11.193892    9.3413013    13.946552    40.178051 
123372000    282.63807    321.34818     312.5474   -10.846005    7.8177222    8.8007849    40.179519 
123376000    274.38438      335.759    271.29214   -11.488636     10.60823    64.466854    40.179012 
123380000    278.30724    323.56322    282.36113     -10.4287    9.6703476    41.202084    40.180718 
123384000    268.93322    302.22413    277.36369   -8.8476408    11.251776    24.860444    40.182775 
123388000    282.87034    333.09268    285.87738   -10.415717    9.3780241    47.215304    40.183976 
123392000    271.99934     301.0855    276.56166   -9.5882486    10.053857    24.523844    40.182412 
123396000    278.49876    320.21609    289.30636   -10.868776    10.372285    30.909731    40.177442 
123400000    274.13514    320.30234    282.48691   -10.724742    10.083191    37.815431    40.175832 
123404000    280.29822    326.99882    278.93739    -11.29693    10.092042    48.061433    40.179597 
123408000    275.76159    317.34916    273.27792   -9.9040794    10.889895     44.07124    40.180575 
123412000    280.52415    338.08951    286.19888    -10.83218     10.26551    51.890636    40.183906 
123416000    279.68049    312.24585    285.84741   -8.5120019    9.8909581    26.398432    40.187343 
123420000    275.25922    331.13811    281.92875    -9.020001    10.479102    49.209361    40.187279 
123424000     281.9963    349.06784    283.84799   -10.624408    10.234222    65.219854    40.185252 
123428000    281.21493    345.05197    287.04789    -11.21348    9.6540434    58.004076    40.185265 
123432000     268.3998    321.94807     270.5436   -8.8334444    10.966761    51.404469    40.183009 
123436000     271.2196    309.93872    291.83383   -8.8431621    9.8675751    18.104899    40.183389 
123440000    269.79222    321.09042     278.3506   -10.824485    10.709748    42.739814    40.183522 
123444000     269.7769    305.77279    281.27066   -9.8231689    11.001384    24.502131    40.182087 
123448000    272.49522    291.86308    303.21739   -8.8350146    10.155421   -11.354309    40.183389 
123452000    274.20285    333.05611    274.31482   -11.871913    11.413494    58.741293    40.183336 
123456000    267.38861    295.43457    281.40657   -9.2132098      11.2657    14.028001    40.179013 
123460000     274.7559    328.52445    275.45618   -10.507118    11.494686    53.068275    40.178199 
123464000    278.31812     308.7226    297.79058   -10.428856      9.66281    10.932019    40.177255 
123468000    274.39463    318.50482     281.4786   -10.890978    11.159558    37.026222    40.182947 
123472000    260.00155    304.57539    260.84618   -11.831896    11.304818    43.729217    40.183053 
123476000    268.96084    331.46916    266.34157   -12.194857     11.10102    65.127595    40.184191 
123480000    283.07597    336.15701    291.48306   -11.581514    10.650765    44.673952    40.183346 
123484000    282.86109    325.14556    289.25233   -12.874518     10.17546     35.89323    40.184126 
123488000    268.54611    295.24791    271.97726    -9.814582    10.686601    23.270656    40.183967 
123492000    272.29627     319.3209    262.36051   -10.490279    11.287862     56.96039    40.187012 
123496000    271.49458    302.74925    278.84301   -9.2187705    9.8019952    23.906236    40.189438 
123500000    274.93093    302.13287     281.2321   -9.4097708    9.1711743     20.90077    40.191651 
123504000    273.85679    321.18166    283.95607   -9.6886966    9.1056852    37.225595    40.192295 
123508000    273.44278    329.57985    273.86105   -10.471551    10.514088    55.718803    40.191055 
123512000    277.26412    344.60766    271.51989   -10.047532    10.011302    73.087775    40.194396 
123516000    271.50222    296.41162    285.67699   -8.6454723    8.8529378    10.734633     40.19552 
123520000    277.76406    326.48088    282.82052   -10.949795    9.3120607    43.660362     40.19601 
123524000    269.32031    315.25526    253.14073   -10.306784    10.496302    62.114527    40.195585 
123528000    270.18537    298.65436    304.17627   -10.304028    9.5874488   -5.5219083     40.19384 
123532000    284.23393    315.24835    314.46873   -9.7891015    7.9280861    0.7796212    40.191142 
123536000    278.96954    336.19887    272.85518   -12.355375     10.31684    63.343691    40.193188 
123540000    270.82262    300.92951    278.27826   -9.5732403    10.230843     22.65125    40.192877 
123544000    270.88834    317.83568     268.8333   -11.631638    9.8726626    49.002375    40.191013 
123548000    275.10441    339.94345    276.29339   -12.688757     9.875121    63.650058    40.186979 
123552000    279.50663    332.74811    271.71149   -10.921632    10.387468    61.036619     40.18866 
123556000    279.30715    335.59223    284.68952   -12.626865    10.281016    50.902703      40.1902 
123560000    273.19317    286.39772    302.33275   -9.2770985    8.4147575   -15.935027    40.188397 
123564000    283.75887    335.07839    302.07088   -10.425682    9.4183558    33.007505    40.187801 
123568000    280.69976    332.79524    293.06672   -12.323067    9.3267973    39.728526    40.186043 
123572000    270.53423    320.47959    265.52828   -11.066806    10.129782    54.951308    40.185591 
123576000    273.42746    308.06129    292.53239   -11.039154    9.1341249    15.528902    40.186747 
123580000    271.08861     315.4879    274.64472   -9.7554974    10.059352    40.843171    40.184892 
123584000    274.36566    320.94359     275.0458   -11.180425    9.4002969    45.897783    40.184529 
123588000    275.28943    314.18475    284.71297   -10.787705     9.729871    29.471785    40.185904 
123592000    277.92517    313.43165    295.77756   -11.248016    9.2553618    17.654084    40.186463 
123596000     280.7442    337.24996     284.0533    -12.27458    8.8635846    53.196662    40.191714 
123600000    275.64277    321.84481    285.38318   -12.164152    9.0024054    36.461629    40.194874 
123604000    281.51468    340.67253    280.70172   -12.011069    9.3976199    59.970808    40.198975 
123608000    276.66597     334.2099    268.90266   -11.345568    10.352176     65.30724    40.196368 
123612000    266.33871    301.65337    267.18458   -11.251632    9.9653246    34.468793    40.192188 
123616000    283.07968    316.93487    275.19765   -11.420896    9.7577998     41.73722    40.192459 
123620000     280.8704    312.19961     279.0112   -9.7116617    10.379452    33.188411    40.194493 
123624000    275.90159     307.2577    289.39625   -9.8007952    9.6128132    17.861457    40.195641 
123628000    286.79906    348.31158     266.4291   -13.870025    9.4963918    81.882477    40.198313 
123632000    286.05103    357.63615    277.76542   -14.737646    9.4644271    79.870722    40.199961 
123636000    280.90883    331.05052    289.69443   -13.667644    9.4841246    41.356087    40.198836 
123640000    277.11557    312.91621    279.09502   -11.887388    9.3164224    33.821193    40.194095 
123644000    275.13592    318.77345    285.41539    -11.96451    8.1154795    33.358053    40.195106 
123648000    275.40777     313.4891    284.45694   -11.846863    8.9718244    29.032157     40.19354 
123652000    273.99216    321.49994    276.08813   -11.084806    9.0605496    45.411817    40.190922 
123656000    271.86854    311.98939    268.44133   -10.942245    10.564058    43.548057    40.193108 
123660000    280.25464     314.2394    298.23807   -10.774339    8.7094413    16.001331    40.190195 
123664000    273.40069    299.98845    270.62512   -10.356618    10.081872    29.363336    40.188465 
123668000    276.93021    319.47405    286.83858   -11.302098    9.2196184    32.635475     40.18853 
123672000     280.0098    339.99085    278.85888   -12.287924    9.6585619     61.13197    40.185853 
123676000    281.18659    308.22773    279.39568   -11.101228    10.586952    28.832053    40.187012 
123680000    267.51508    306.74209    280.01345   -10.190198    10.470297    26.728649    40.184302 
123684000     279.9081    350.36658    272.19135   -12.707969    11.456998    78.175223    40.184138 
123688000    279.02814    322.97319    308.35824   -11.759975    9.1614741    14.614952     40.18455 
123692000    278.65822     320.1995    303.24991   -11.398827    9.2124547    16.949591    40.182017 
123696000    280.11334    337.34929    288.11311   -11.787457    9.9079219    49.236177    40.183025 
123700000    278.44812    333.77084    279.18009   -10.441328    10.244265     54.59075     40.18138 
123704000    269.30128    288.81491    281.89262   -8.9137442    10.363577    6.9222893    40.184458 
123708000    284.92511    339.61152    293.95722   -11.818117     8.505775    45.654301    40.184781 
123712000    273.39534    328.72013    267.19117   -11.953526    11.389205    61.528961    40.181975 
123716000    274.72329     328.9687    291.29691   -12.116453    10.757162    37.671789    40.183202 
123720000    280.77233    334.60227    282.36485   -12.348821    10.024518    52.237419    40.180953 
123724000     278.3787    323.86777    283.53462   -11.642216    11.458518    40.333145    40.180559 
123728000    274.01168    324.57623    267.82207    -10.34911    11.378714    56.754151    40.181653 
123732000    278.31831    348.01735    281.69071   -12.279099    11.237917    66.326635    40.181557 
123736000    277.06553    337.86135    273.76333   -12.431647    10.406919    64.098021    40.180977 
123740000    271.21394    301.91768    289.73189   -10.634805    10.157978    12.185782    40.182717 
123744000    281.27153    325.99748    289.40819   -9.4757737    8.8062077    36.589295    40.181565 
123748000    265.01101     296.7961    275.44538   -8.4954011    9.6916913     21.35072    40.180602 
123752000    274.17809    324.88281    278.36431   -9.7996403     10.14011      46.5185      40.1777 
123756000    273.27997    304.85077    284.38803   -9.2592045    9.5493314    20.462747     40.17586 
123760000    274.49351    312.78865    287.09527   -10.010076    9.7754388    25.693377    40.173481 
123764000    277.72046    315.28405    293.51158   -9.4336383    8.5936363    21.772467    40.172305 
123768000    277.71336    308.20587     282.6951   -10.841068    9.5205921    25.510775    40.173644 
123772000    279.26464    330.49444    282.38271   -12.531874    9.5476876    48.111725    40.171726 
123776000    266.61294     329.3647     253.8523   -11.719323    11.795216    75.512403    40.171794 
123780000    277.36542    316.96474    305.56289   -10.608623    10.083927    11.401847    40.170932 
123784000    268.84957    341.50379    257.88038   -11.293468    10.897859    83.623409    40.175546 
123788000     277.5626    340.27657    266.80401   -10.989506    9.4362703    73.472558    40.176771 
123792000    276.65536    329.64569    272.73065     -10.7021    10.924279    56.915043    40.181651 
123796000    268.05308    324.33197    262.45306   -10.046372     10.64492    61.878911    40.185434 
123800000    273.91514    324.62402    292.67776   -9.5732847    9.8131317    31.946259    40.182842 
123804000    266.23327    315.29784    276.88357   -10.142009    11.643254    38.414266    40.183307 
123808000    275.67679    311.01316    307.51894   -12.143181    9.5222468    3.4942219    40.185005 
123812000    274.33277    317.40281    267.34023   -11.460114    11.836448    50.062582    40.181023 
123816000    277.53935    329.30839    291.40052   -11.306442     9.469073    37.907861    40.182885 
123820000    267.85021    292.37264    264.59736   -10.380117    11.437551    27.775276    40.180152 
123824000     274.6755    326.13888    273.98996   -12.507038    9.5854674    52.148921    40.182094 
123828000    278.90424    311.18528    306.11005   -11.104859    10.155313    5.0752369    40.183062 
123832000    277.14015     317.6619    281.05346   -10.890458     11.02228    36.608442    40.186225 
123836000    278.68378    340.78023    279.84038   -12.344377    11.664427    60.939857    40.185826 
123840000     276.0616    359.45569    267.53599   -12.920831    11.360993    91.919699    40.189202 
123844000    266.26441    314.19351    239.92159   -10.276941    13.221189    74.271917    40.193127 
123848000    269.35688     326.6152    270.78838   -10.847235    11.807266    55.826821    40.195741 
123852000    279.95833    300.39221    293.19624   -11.764047     10.14004    7.1959732    40.194542 
123856000    265.99095    312.61247     258.4392   -11.472742    12.386922    54.173266    40.192852 
123860000    278.93074    326.80627    291.81874   -12.325846    11.209319    34.987531    40.192596 
123864000    278.01844    339.64966    272.42073   -12.758268    13.250067    67.228926     40.19408 
123868000    277.49324    335.21243    266.75193   -11.132921    12.982329    68.460495    40.196324 
123872000    272.42769    305.67255    287.72836   -10.419613    11.751141    17.944196    40.197888 
123876000    269.98597    339.46426    270.33925   -12.748839     12.40224    69.125005    40.197829 
123880000     269.0346    301.47292    283.57109    -9.732242    11.177112    17.901831    40.199323 
123884000    271.43695    316.01193    269.29447   -11.587319    11.765798    46.717463    40.200695 
123888000    276.54842    314.87663    286.55873   -12.090266    12.543806      28.3179     40.19955 
123892000    268.95773    309.16675    280.77043   -10.244502    12.096709    28.396319    40.198714 
123896000    269.90966    322.84268    260.75966    -12.17556    12.591439    62.083028    40.200493 
123900000    274.78787     317.7553    285.12035   -11.061502    11.169797    32.634956    40.196821 
123904000    270.04895    326.40055    266.19806   -11.276705    11.280813    60.202487    40.196101 
123908000    276.18089    332.34403    288.78674   -12.320986    11.714816    43.557293    40.194628 
123912000    273.28878    316.01776     297.4397   -10.323608    11.010664    18.578063    40.199905 
123916000    276.10397     352.1706    279.94889   -12.604674    11.575711    72.221715    40.197199 
123920000    262.10337    297.64227    279.40666   -9.3188387    12.255208    18.235612    40.197315 
123924000    268.64479    307.13924    283.51102   -9.2544678    10.880569    23.628222    40.198606 
123928000    273.87835     313.2529    304.32458   -10.939466    10.885727    8.9283217    40.201281 
123932000    274.91085    325.67849    294.71736   -12.334851    11.036635    30.961131    40.201331 
123936000    272.04909    339.95051    281.37756   -12.227261    12.711763    58.572946    40.199904 
123940000     265.5544    304.50703    284.56573   -10.707328    12.162996    19.941302    40.198711 
123944000    272.73259    317.14873    291.32014   -11.845414    13.155536    25.828591    40.197808 
123948000    274.54875     315.9766    299.76437   -11.129557    12.306801    16.212224    40.195531 
123952000    279.89213    334.99282    290.59509   -11.343186     12.33522    44.397723    40.193718 
123956000    264.28384    304.82562    272.67637    -10.48545    13.498898    32.149248    40.194228 
123960000    273.99014    317.16607    264.06076    -12.20215    13.425556    53.105303    40.193478 
123964000    277.66667    340.99528    296.54089    -12.92996    12.324834    44.454396    40.190938 
123968000    282.32799    327.22253    325.78692   -11.620594    11.741075    1.4356139    40.187547 
123972000    269.76931    334.31799    278.15415   -12.135122    12.816728    56.163842    40.186488 
123976000    276.78297    326.34753    294.18954   -11.827461    12.395688    32.157992    40.186957 
123980000    274.49372    299.92362    314.01529   -10.235115    11.058905   -14.091668    40.183747 
123984000     278.7247    324.07566    288.54044   -11.778661    11.921832    35.535227    40.182773 
123988000    270.23186    329.43782    271.83903   -12.651789    13.466495    57.598796    40.182162 
123992000    280.16899    340.53192    273.39746   -14.209994    13.414875    67.134466    40.184433 
123996000    276.34521    324.15508    283.99551   -12.460782    12.997652    40.159568    40.182334 
124000000    274.16599    326.44445    285.58096   -12.848974    10.892463    40.863485     40.18162 
124004000    271.05186    319.02222    280.86331   -12.615597    11.794205    38.158905    40.182334 
124008000    274.61209    306.39555    268.45492   -11.315391    13.494825    37.940624    40.184782 
124012000    274.39208    332.57483    283.36501   -12.206624    12.134114    49.209818    40.184191 
124016000    277.24126    321.31882    285.82217   -11.153865    11.833377     35.49665    40.186357 
124020000    267.78347    319.73054    259.96926   -11.616803    12.303954    59.761283    40.187882 
124024000    269.79782    305.58792    291.46308   -11.172501    11.579555    14.124846    40.184734 
124028000    279.50008    355.60747    301.72365   -13.328466    13.215393    53.883827    40.185293 
124032000    277.78055     324.8844    285.62262   -12.788529    13.334113    39.261775    40.185003 
124036000    271.99966    303.47421    283.16266   -11.783355    12.243902    20.311546    40.182883 
124040000    271.53049    313.61523    268.56131   -11.088604    12.675394    45.053926    40.181721 
124044000    277.49716    340.11161    274.87554   -12.936686    11.776982    65.236075    40.184552 
124048000    278.80443     339.7771    278.41624    -11.64779    12.086117    61.360866    40.183635 
124052000    273.51089    306.54846    267.23923   -10.496225    12.571232    39.309225    40.183161 
124056000    277.97158    318.27639    281.00302   -11.440975    10.739848    37.273369    40.179835 
124060000    279.04808    313.56167    280.92418   -11.052563    10.928961    32.637494    40.180136 
124064000     279.7881    331.55664    271.81191    -12.19225    11.342931     59.74473    40.182062 
124068000     278.4326    316.70165    303.25154   -12.217882    10.444965    13.450106    40.181825 
124072000     274.5985    328.94717    275.41707   -11.332264    12.553388    53.530103    40.178802 
124076000    282.36125    317.61222    305.84085   -11.727158    9.9741297    11.771365     40.17497 
124080000    283.17608    317.24611    297.69102    -12.56254    10.565314    19.555091    40.171865 
124084000    270.51309    302.03726    285.60681   -12.032219    11.924149    16.430445    40.173593 
124088000     275.6565    332.67586    276.37848   -11.546312    11.392529    56.297384    40.172607 
124092000    271.63574    321.00309    264.24414   -13.468098    12.480634    56.758945    40.171588 
124096000    276.84703    322.36803    276.66566   -13.268968    12.348846    45.702366    40.172609 
124100000    270.15339    333.12693    252.50141   -13.498275    14.325181    80.625514    40.177429 
124104000    274.41516     318.8689     260.1518   -11.859343    14.803118    58.717103    40.178981 
124108000    279.22881    337.57055    278.02992   -12.090364    12.915887    59.540628    40.181977 
124112000    276.46852     335.7419    283.76083   -12.784353     12.35759     51.98107    40.183704 
124116000    271.85196    295.75495    296.54697   -9.6950519    11.991651  -0.79201628    40.184076 
124120000    280.47159    339.99979    293.79766   -11.899014    11.349936    46.202126    40.185743 
124124000    280.00085     339.4883    300.77632   -12.151297    11.728144     38.71198     40.18467 
124128000    270.88005    316.30199    262.62832   -11.530497     12.85987     53.67367    40.179971 
124132000    281.71468    346.37296    281.09625   -13.822056    10.914395    65.276705    40.179435 
124136000    273.39511    337.89813    264.95286   -12.941061    12.458133    72.945278    40.180474 
124140000    279.11412    316.22219    281.71036    -11.08693    12.363138    34.511828    40.180811 
124144000    275.12618    315.68724    284.62925   -12.839118     11.94267    31.057995     40.17994 
124148000    281.29328    318.48909    301.14237   -12.493863    10.157526    17.346727     40.18193 
124152000    272.98512     312.0605    282.92422    -11.97237    12.380492    29.136284    40.184838 
124156000    269.44026    309.62491    291.46599   -11.253318    11.445022    18.158925     40.18053 
124160000    270.57473    322.74408    281.76092   -12.010366    12.046094    40.983164    40.182081 
124164000    271.36867    320.54973    278.82855   -12.030817    11.826685    41.721183    40.184005 
124168000    272.78145    338.42584    281.61412   -12.967954    11.737925    56.811728    40.182253 
124172000    277.43358    321.52026    295.27453    -12.10137    10.468853    26.245729    40.180043 
124176000    270.70184     330.1293    278.68091   -12.024165    12.531852    51.448397    40.178268 
124180000    273.76215    333.23165    278.15216   -12.050719    12.551062    55.079493    40.180205 
124184000    273.81715    354.05984    278.66694   -13.089809    13.302625    75.392905    40.181628 
124188000    267.61018    324.03107     273.0376    -11.19376    14.684342    50.993469    40.182295 
124192000    267.28125    296.95944    305.02152   -10.979502    12.398333    -8.062077    40.180163 
124196000    271.52089    329.07111    284.96829   -11.505677    13.338676    44.102819     40.17969 
124200000    265.95622    307.59399    261.40807   -11.207205    13.475671    46.185919    40.182609 
124204000    273.08212    320.62942    262.48009   -10.970817    14.082739    58.149328    40.183831 
124208000    259.71188    307.11716    265.60739   -10.757825    13.766492    41.509774    40.181622 
124212000    275.19776    326.87109    293.56721   -11.712591    12.551962    33.303883    40.182694 
124216000    266.80971    324.07741    270.18554   -11.793116    12.928523     53.89187    40.184006 
124220000     267.6541    314.30368    270.32296   -11.999916    13.996139    43.980717     40.18651 
124224000    277.94423    320.14214    304.74257   -12.203605    11.501546    15.399566    40.187705 
124228000    265.68442    330.01103    261.32377   -12.283201    12.785759    68.687255    40.186037 
124232000     270.6262     321.2504    273.22661   -13.035199    12.023912    48.023793    40.186042 
124236000    261.78448    325.93794    269.53999   -12.548006    12.167209    56.397942    40.187835 
124240000    272.20874    332.58432    277.16606   -13.215067    11.366162    55.418261    40.184452 
124244000    256.28296    297.07642    260.88434   -10.853912    14.189571    36.192082    40.185657 
124248000    270.83722    309.80449    283.15845   -10.291489    12.875376    26.646041    40.184826 
124252000    283.97943    337.00011    295.19058   -11.617214    11.877978    41.809527    40.178729 
124256000    269.23732    312.77752    294.62973   -12.447143    11.895894    18.147792    40.179835 
124260000    276.11982    324.45306    296.72177    -12.40536     11.89152    27.731293    40.181369 
124264000    276.30598    314.81918    285.38956   -11.939907    12.029448    29.429616    40.183061 
124268000    267.39102    317.70674    272.26844   -10.952435    12.520339    45.438301    40.184196 
124272000    269.01731    326.17453    297.22887   -11.140992    12.845988    28.945665    40.184696 
124276000    273.48965    310.12151    282.37643   -10.619043    11.974228    27.745083    40.183047 
124280000    266.14779    316.06493    283.53953   -10.698103    13.307981    32.525398    40.184327 
124284000    272.66952    333.94112    289.47593   -12.163033     12.10625    44.465187    40.184969 
124288000    271.00791    317.45576    285.23158   -11.518426    12.371069    32.224182      40.1839 
124292000    262.93851    310.11649     261.0216   -10.659333    14.089815    49.094892    40.184563 
124296000     270.8518    320.38727    282.84928   -11.217997    12.369914    37.537988    40.184514 
124300000     269.2283    289.49445    290.73244   -10.214029    12.346235   -1.2379862    40.185008 
124304000    257.81742    298.34168    262.42329   -10.474715    13.552031    35.918384    40.185242 
124308000    262.87245    311.76391    264.46198   -11.151796    14.103661    47.301931    40.183468 
124312000     275.6437    322.58852    301.20695    -11.04423    12.438199    21.381571    40.186087 
124316000     266.2939     313.5411    282.38453   -11.585571    13.398314    31.156576    40.181207 
124320000    265.92464    311.52354    261.50718    -11.26824    14.553931    50.016367    40.181537 
124324000    269.42502    322.67335    271.82453   -12.159225    14.425428    50.848823    40.183474 
124328000    262.38804    303.34272    286.67119    -11.13172    13.019915    16.671531    40.187264 
124332000    268.18358    298.39716      296.274   -11.817333    12.641246    2.1231521    40.181803 
124336000    273.10963     310.3572    286.97263   -12.525752    11.637673     23.38457    40.177917 
124340000    269.05327    312.29947    292.32105   -12.032403    12.864492    19.978429    40.176467 
124344000    267.84025    323.92084    260.31687   -11.838303    14.626547    63.603968     40.17635 
124348000     270.1131    321.79082    284.19915   -11.831232    12.948984    37.591666    40.176591 
124352000    282.79864    361.75497    287.94282    -13.39318    11.703312    73.812141    40.177385 
124356000    258.73186    302.16741    266.61056   -9.7907956    13.700801    35.556847    40.177125 
124360000     271.7047    336.15872    254.79073   -11.714953    14.633119    81.367993    40.181653 
124364000     269.0105    322.34896    263.34302   -11.109059    13.920018    59.005939     40.17819 
124368000    265.83652      327.039    273.18102   -12.013402    12.939983    53.857986    40.179371 
124372000    280.24975    335.49003    287.03741   -12.992662    12.376355    48.452625    40.179796 
124376000    275.97656    318.07598    291.69532   -11.061519     12.00049    26.380658    40.178956 
124380000    266.98151    328.18693    255.97492   -12.619822    13.625894    72.212008    40.178197 
124384000    276.49838    308.84383    305.17061   -10.116887    11.479358    3.6732233    40.179411 
124388000     270.1527    327.62227    291.47559     -11.8651    12.111442    36.146679    40.178521 
124392000    267.41686    337.06839    266.51149   -12.250585    13.485345    70.556898     40.17634 
124396000    269.07465    334.71015    271.65822    -12.31961    12.167558    63.051928    40.177546 
124400000      280.392    336.66164    288.89354    -12.64287    10.717008    47.768099    40.178112 
124404000    268.61427    304.94519    273.21593   -10.301433     12.50548    31.729268    40.177262 
124408000    278.76436    320.72178    286.80536   -11.883153    12.296165    33.916424    40.176223 
124412000     273.1525     315.2249     288.6213   -10.984554    11.334252      26.6036     40.17393 
124416000    266.24452    305.63942    246.44392   -11.047635    13.047496    59.195498     40.17288 
124420000    271.87095    322.91751    268.90464   -11.967912    11.983356    54.012874    40.168027 
124424000    274.17047    323.27604    276.11825   -11.018209    12.256465    47.157788    40.165831 
124428000    269.96992    306.55416    290.27884    -10.00634    12.091047    16.275322    40.164286 
124432000    275.04441    334.30423    274.51552   -11.373425    12.297971    59.788705    40.163176 
124436000    265.68906    312.88665     277.5502    -11.21517    11.824336    35.336447    40.161578 
124440000    266.72219    296.53829    274.99056   -10.804817    11.473642    21.547724    40.162305 
124444000    271.92382    305.65385    283.47735   -11.967559    11.765318    22.176495    40.161716 
124448000    264.94567    299.72129    272.77294   -10.842356    11.713892    26.948348     40.16151 
124452000    275.12496    324.11668    299.67174   -12.050211    10.751202    24.444942    40.161671 
124456000    278.05512    330.84166     277.2699   -11.947592    12.862988     53.57176    40.160031 
124460000     269.5076    315.94858     285.9209   -10.449412    12.358292    30.027685    40.157628 
124464000     279.4244    338.34197    285.75215   -12.563281    11.254172    52.589818     40.15578 
124468000    273.40418    339.36387    277.99412   -11.887803    12.485799    61.369749    40.159462 
124472000    267.84164    326.12831    263.97746   -10.989803     13.42203    62.150849    40.160355 
124476000    268.28417    309.97483     285.7549   -10.365861    11.694922    24.219932    40.160179 
124480000    270.57743    326.91111    263.71102   -11.378402    12.902275    63.200096     40.16827 
124484000    264.15072    303.87391     271.5912   -10.853111    12.482332    32.282711     40.16736 
124488000    271.25398    307.69601     276.2496   -10.650067    11.152469    31.446407    40.167727 
124492000    271.60474    317.69663    270.48271   -12.474717    11.427184    47.213925    40.172206 
124496000    278.39863     328.3115    283.66634   -11.727421    12.005169    44.645164    40.171587 
124500000    278.95893    349.10582    281.17129   -13.869012    10.445931    67.934526    40.169711 
124504000     271.2505    319.60208    267.96375   -11.932771    12.611779    51.638335    40.169614 
124508000    266.88577    322.41794    255.08719   -10.340364    13.116414     67.33075    40.167401 
124512000    275.90864    318.60907    287.09863   -10.541264    11.009713    31.510441    40.168726 
124516000    272.86482    319.38778    286.79041   -11.547021    11.570257    32.597373    40.167884 
124520000    273.05683    309.61616    271.26514   -11.706759    12.758534    38.351019    40.164907 
124524000    265.51215    321.50057    276.86938   -10.499881      11.9076    44.631191    40.163182 
124528000    276.61067     325.8019    277.62251   -11.897446    12.129685    48.179399     40.16384 
124532000    275.81104    328.36421    280.82478   -12.763086    12.041724    47.539436    40.164981 
124536000    273.85859    328.90125    286.49192   -13.542984    11.993173    42.409324    40.166167 
124540000     273.9078    315.39049    286.46967   -12.299534    12.281096    28.920818    40.172037 
124544000    274.85892    325.36178    277.86645   -11.500964    12.541258    47.495322    40.169057 
124548000    269.72536    313.63328    281.75946   -11.639709    11.754212    31.873826    40.169697 
124552000    279.23505    338.95491    279.70872   -12.505615     12.33183    59.246194    40.168342 
124556000    276.96948    337.59659    270.05017   -11.649655    12.929931    67.546416    40.168225 
124560000    271.60654    310.11433    285.65645   -9.8786839    12.435196    24.457874    40.167332 
124564000    275.70647    316.65343    293.05362   -10.884736    12.244302    23.599804    40.166308 
124568000     277.0021    314.19632    281.24986   -10.815109    12.648329    32.946466    40.168026 
124572000    281.31899    323.12728    293.18759   -11.109578    11.918547    29.939693    40.166722 
124576000    275.30868    313.28839    283.95276    -11.42975    12.944398    29.335635    40.168355 
124580000    269.55918    304.77998    296.12702   -10.927763    12.583818    8.6529581    40.167951 
124584000    271.05349    332.14294     270.0695   -11.894439    13.498412    62.073435    40.166942 
124588000    271.38404    318.69268    278.12321   -12.301082    13.015794    40.569466    40.169804 
124592000    269.79039    313.15875    262.64611   -11.683096    13.159076    50.512639    40.174318 
124596000    270.97694    343.02992    269.77187   -12.797807    13.578062    73.258049    40.178439 
124600000    271.04779    326.50475     288.0383   -11.632295    11.623242    38.466452      40.1784 
124604000    277.82315    353.55541    282.36572   -13.150116    13.068386    71.189688    40.177537 
124608000    275.20528    339.03361    274.35018   -12.117764    12.870842    64.683427    40.177673 
124612000    277.64664    325.46597    281.83738   -12.396271    13.327237    43.628585    40.176363 
124616000    263.13277    295.21573    276.35558   -10.946797    13.378248    18.860158    40.169901 
124620000    276.14752    325.88718    301.76881    -13.12298    12.374412    24.118368    40.167682 
124624000    272.06953    310.78517    287.88159   -10.906074     11.42909     22.90358    40.166703 
124628000    271.22362    317.12372    276.18418   -10.886402     12.91544    40.939545     40.16648 
124632000    271.94309    313.41059    283.44074   -11.952639    11.012536    29.969848    40.166952 
124636000    278.56615     326.9554    298.36948    -11.15498    11.165358    28.585922    40.166558 
124640000     272.2815    307.24755    292.07941   -11.357357    11.929417    15.168142    40.166779 
124644000    263.09146    308.42034    273.78353   -10.940848    12.086555    34.636812    40.169124 
124648000    274.98032    322.71278    278.17928   -11.253078    11.708476    44.533499    40.167803 
124652000    278.23661    329.54745    273.99584   -11.731841    13.902373    55.551613     40.16789 
124656000    266.22903    320.27234    261.62314   -11.373947    13.675134      58.6492     40.16583 
124660000    272.27085    322.82438    275.30899   -11.364083     12.82721    47.515391    40.164697 
124664000    276.89568    335.00696    296.68001   -12.272071    12.527725    38.326948    40.168014 
124668000      266.613    298.83824    289.56645   -10.972337    12.707922    9.2717946    40.165381 
124672000    264.61398    310.16832    268.14978   -12.123446    13.235694    42.018536    40.164393 
124676000    273.55194    313.02488    290.91556    -11.77958    11.835147    22.109318    40.163681 
124680000    266.60913    311.00238    268.66023    -10.72045    12.796671    42.342156    40.163274 
124684000    270.51064    330.80947    271.04948   -11.601639    12.930126    59.759985    40.165663 
124688000     283.4614    350.46464    290.75629   -11.934315     12.39001    59.708349    40.164935 
124692000    272.06701    319.44661    280.68442   -10.349748    12.791666    38.762187    40.164058 
124696000    268.49646    314.42333    274.51558   -11.573076    12.529699    39.907754     40.16115 
124700000    270.84917    345.13266    275.92136   -11.366498    13.580912    69.211298    40.161568 
124704000    270.87333    313.27522    287.86449   -10.723784     11.62278    25.410734    40.162434 
124708000     266.9828    322.31706    264.27877   -11.946312    13.410577    58.038292    40.163956 
124712000    263.12579    324.31591    270.22951   -11.155117    13.222515    54.086403    40.165165 
124716000    266.53623    301.94275    281.26673   -9.9764261    12.708856    20.676019    40.163293 
124720000    264.87583    321.01503    282.25657   -10.795161    12.155282    38.758457    40.164257 
124724000     270.2074    325.75445    278.18782   -10.960202    13.895001    47.566635    40.164997 
124728000    276.16761    334.87304    272.12679   -11.190355    13.240388    62.746246    40.163227 
124732000    274.03001    320.07323    308.15051   -10.667487    10.166146    11.922725    40.163042 
124736000    276.08035    318.52977    288.97053   -10.749054    11.887295    29.559243    40.162175 
124740000    262.68332    305.20727    249.23456   -10.244377    13.265195    55.972711    40.161794 
124744000    270.07977    334.76252    262.98949   -11.688997    13.756802    71.773037    40.163535 
124748000    270.78892     319.1674    292.24919    -11.10267    12.263212    26.918216    40.164673 
124752000     263.1476    311.23904    283.24588   -10.597498    13.014241    27.993163    40.165456 
124756000    275.68621    326.11728     290.3757   -11.219429    11.569594    35.741578    40.165025 
124760000    277.32107    319.40859    308.98511   -11.341867    11.558644    10.423478    40.164401 
124764000     266.1687    341.31439    256.35591    -12.70052    14.551145    84.958478    40.165973 
124768000    270.39392    307.26306    294.16986   -9.7489774    12.562875    13.093198    40.166493 
124772000    269.40247    301.13818    284.60771   -9.6991421    12.154809    16.530468    40.166951 
124776000    272.86098    313.75719    286.42726   -12.594206    12.572349     27.32993    40.165211 
124780000    270.48839    322.72409    288.70731   -11.090809    11.959458     34.01678    40.165529 
124784000     274.4442    316.67264    283.41194   -11.858079     12.45862    33.260701    40.166632 
124788000    274.10347    339.18329     279.0095   -13.684467    13.133546    60.173792    40.164523 
124792000    268.91102    329.92568    255.28185   -10.645672    13.408986    74.643835    40.161038 
124796000    268.23959    325.27764     285.0845   -10.923712    12.299365    40.193141     40.16184 
124800000    272.55854    321.28706    274.91042   -11.170511    12.528736    46.376639    40.160179 
124804000    262.48119    293.04772    270.95177   -10.157995    12.637119    22.095951    40.155692 
124808000    271.01265    308.57887    289.23005   -10.385543     12.24591    19.348817    40.152215 
124812000    278.43748    333.44378    276.32928   -10.689998    13.145712    57.114499    40.149579 
124816000    279.26225    324.48136    282.80177   -10.999123    13.033737    41.679593    40.149317 
124820000     263.9432    299.00877    277.23758   -10.088372    11.577381    21.771191    40.148239 
124824000     263.6711    310.65954    271.66955   -11.197572     12.78863    38.989992    40.145384 
124828000     280.0744    341.95861    302.82915    -14.02698    11.103777    39.129466    40.146419 
124832000    275.83112     352.3714    269.40974   -12.283593    12.993182    82.961657    40.146269 
124836000    267.32171    317.63671    267.46398   -9.8433539    12.205665    50.172733    40.150417 
124840000    278.72539    338.81852    280.63794   -12.599263    11.619952    58.180587    40.150785 
124844000    276.59306     328.7049    271.32266   -12.497593    13.020961    57.382232    40.151455 
124848000    275.08108    326.78984    296.06595   -13.014192    12.953576    30.723898     40.14934 
124852000    275.84555    330.47822    293.28352   -13.742246    11.685115    37.194698    40.149852 
124856000    273.08329     318.1026    279.81413   -12.887545      12.0383    38.288474    40.148601 
124860000    265.61233    309.72164    277.95221   -11.709176    13.379744    31.769432    40.149357 
124864000    271.47892    320.17711    280.15534   -13.412369    12.543436    40.021772    40.149836 
124868000    269.98948    317.27218    277.87157   -11.752548     12.30448    39.400606    40.147946 
124872000    271.47612    336.32469    262.77019   -14.451779    14.529714    73.554495    40.147538 
124876000    275.56883    305.70142    289.37127   -12.916373     11.90046    16.330145    40.143163 
124880000    275.66897    328.49482    276.86603   -13.279198    13.234527    51.628791     40.14552 
124884000    276.41693    340.00973    280.12637   -14.292864    12.316925    59.883359    40.145684 
124888000     276.7401    332.22301    287.21066   -13.191601    10.792829    45.012348    40.146307 
124892000    276.44359    323.30947    278.69229   -13.969028    12.951223    44.617184    40.143273 
124896000    276.22363    316.86409     289.9522   -13.513993    11.959074    26.911888    40.142205 
124900000     270.2595     332.7481    264.81918   -13.662552    12.454222    67.928927    40.142128 
124904000    269.82572     311.8571    275.43882   -13.274744    13.209316    36.418272    40.144345 
124908000     273.3549    298.55677    298.11539   -11.971774    11.175139   0.44137899    40.145929 
124912000    282.35232    334.44247     287.1339   -14.199136    11.957446    47.308575    40.147964 
124916000    277.73483    336.94034     274.5562   -14.278461    12.613403    62.384144    40.146853 
124920000    280.63765    321.58396    301.56849   -13.334447      11.7464    20.015472    40.145893 
124924000    279.47978    328.84914    297.96696   -14.274716    11.248223    30.882183    40.148226 
124928000    272.65583    316.38176    267.96517   -13.801451    12.444399    48.416584    40.149267 
124932000    279.89849    319.48424    292.61183   -12.955782    10.649349    26.872411    40.150769 
124936000    274.18639    311.80942    280.09398   -13.043645    10.860375    31.715434    40.152883 
124940000    283.79899    329.76961    305.08423   -14.505766    10.385108    24.685379    40.151645 
124944000    271.42513     305.2722    287.86799   -12.452494    11.801706    17.404217    40.148736 
124948000    284.26295    326.10517    283.19369   -13.023254    12.522819    42.911487    40.150132 
124952000    269.49966    313.79554    258.51834   -12.227891    13.488887    55.277204    40.146714 
124956000    276.81294      319.886    295.52752   -12.185094    11.899053    24.358485    40.146402 
124960000    271.55079    317.38738    274.13492    -12.54064    13.660363    43.252459    40.145687 
124964000    265.06984    304.90838    273.55006   -11.807489    12.799067    31.358318    40.146937 
124968000    271.71989    307.34472    272.00688   -12.039602    11.455435    35.337849    40.142491 
124972000     276.0055    314.01861    285.19043   -12.418309    11.783388    28.828186     40.14427 
124976000    273.53956    330.04245    284.29032   -11.858563    12.129977    45.752131    40.145766 
124980000    271.50724    329.57553     274.1216   -12.041584    14.564695    55.453928    40.143308 
124984000    279.53606    328.52351    280.13479   -11.620327    13.594613    48.388718    40.145419 
124988000    257.81453    301.75293    272.59782   -10.429105    13.338723    29.155105    40.143206 
124992000     263.3429    310.60822    268.77463   -11.658379    13.770939    41.833589    40.142631 
124996000    264.20096    302.54823    273.92382   -10.898258     13.95007    28.624416     40.14602 
125000000    275.56903    344.07143    271.24234   -12.764852    13.916548    72.829089    40.147812 
125004000     276.1407    313.63537    294.34125    -11.48997    12.823757    19.294119    40.148917 
125008000    276.09409    310.80549    293.73135    -12.35388    12.133983    17.074138    40.150649 
125012000    267.71088    326.69689    274.45791   -12.497047    13.683776    52.238979    40.150402 
125016000    272.36907     310.7215    270.80347   -12.423603    14.016179     39.91803    40.147665 
125020000     276.6061     318.1909    285.17006    -12.65182    13.386649    33.020844    40.147692 
125024000    278.73094    329.11881    287.03491    -13.09946    13.243647    42.083894     40.14843 
125028000    280.02933    321.10435     299.4367   -12.401387    12.132051    21.667654    40.151344 
125032000    275.24119    319.94098    295.74628   -13.049654    11.934774    24.194705    40.149945 
125036000    265.91195    319.23883    262.70247    -12.26278    14.876644     56.53636     40.14995 
125040000    270.58162    319.27999    281.80806   -12.918336    14.710927     37.47193    40.148289 
125044000     268.0769    299.81014    267.30034   -11.619513     15.01234    32.509806    40.149613 
125048000    264.45306    312.84133    282.61589   -11.955007    14.424749    30.225439    40.148444 
125052000    265.66347    317.42693    273.27426   -11.805222    14.718505    44.152671    40.149761 
125056000    264.84927    299.19119    275.01474   -11.281264    13.172259    24.176444    40.151367 
125060000    265.83015    315.47637    278.47479   -12.201282    12.545017     37.00158    40.151268 
125064000    267.00289    341.73897    272.40528   -12.913549    13.377875     69.33369    40.154509 
125068000    267.51151    299.84041    277.53818   -11.187684    13.699796    22.302224    40.156347 
125072000    277.64151    331.79903    296.72233   -13.588221    13.148451      35.0767    40.154073 
125076000    268.48627    315.78118    283.80056   -13.110595     13.09381    31.980617    40.155258 
125080000    272.92093    343.50982    280.77039    -13.14864    13.493965    62.739436    40.157576 
125084000    273.73622    337.09922    284.89302    -13.42856    12.164206    52.206206    40.157661 
125088000    262.63691    327.71586    250.76251     -12.0853    15.887425    76.953351    40.156709 
125092000    267.30545    317.79944    283.46575   -11.181205    13.233718    34.333693    40.156516 
125096000    270.57451    323.09123    271.16971   -12.915023    14.166121    51.921528    40.153988 
125100000    276.18089    329.35344    283.27819   -11.894872     13.29737    46.075259    40.155024 
125104000    262.40466    312.03986    268.76765   -11.386165    14.317759    43.272211    40.156975 
125108000    267.98763    333.05297    271.94416    -11.33137    13.330217    61.108805    40.156121 
125112000    270.87142    317.42712    277.40364   -10.869872    13.301062    40.023485    40.152717 
125116000    270.84216    308.34245    292.83313   -10.763542     13.33136    15.509317    40.151551 
125120000    270.35871    337.92336    283.60313   -12.469196    13.469792    54.320228     40.15221 
125124000    271.68777    318.15533    287.30242   -11.982323    13.442992     30.85291    40.151265 
125128000    269.07338    315.42959    286.63752   -12.200783    13.339025    28.792069    40.151981 
125132000    272.37664    320.66488    269.18184   -12.239655     13.52618    51.483033    40.151741 
125136000    269.18931    315.61779    276.76403   -11.496376    13.084284    38.853761    40.151456 
125140000    272.79502    319.23535    282.85757   -10.204129    13.973174    36.377771    40.151043 
125144000    265.10771     303.8273    288.04245   -9.8551287    13.504073     15.78485    40.149338 
125148000    268.82863    314.57787    278.32973   -10.281148    14.084413    36.248146    40.149824 
125152000    269.96718    319.86981    284.00271   -11.430214    13.807886     35.86711     40.15295 
125156000     273.5714    322.32859    297.47796   -12.207564    12.752808    24.850633    40.152682 
125160000    264.70519    309.61584    264.05228    -10.05816    13.025864    45.563552    40.151599 
125164000    275.48703    346.24366    270.92344   -11.410164    12.923523    75.320218    40.150894 
125168000    264.89994    312.09196    274.72643   -10.213981    12.702012    37.365533    40.148825 
125172000    258.31203    290.94895    264.16558   -10.056558    13.919345    26.783365    40.146409 
125176000    278.64245    338.02455    295.45393   -12.711084    13.025078     42.57062    40.148535 
125180000    271.41136    313.60234    275.59224   -11.262625    13.685266    38.010104    40.146176 
125184000    272.66805    330.58324    281.82786   -12.793055    13.342178    48.755382       40.146 
125188000    269.99567    317.80603    294.06789   -12.612602    12.635508    23.738138    40.146202 
125192000    273.59471    316.85993    285.06231   -12.186228    12.496875    31.797625    40.143262 
125196000    272.38222     323.3703    284.09122   -12.555648    12.244909    39.279078    40.146278 
125200000    267.75671    332.27238    279.40998   -12.327187    13.246186    52.862401    40.145217 
125204000    266.18068     329.6491    265.27629   -11.684367    13.684806    64.372811     40.14626 
125208000    266.16097    299.09708    267.83807   -11.178666    13.016695     31.25901    40.143678 
125212000    276.14166    321.99057    292.97089   -13.663703    11.769276    29.019678    40.144887 
125216000    270.40792    301.42643    280.87229   -10.862408    11.395699    20.554137    40.145705 
125220000    277.19467    323.22193    274.70982   -11.752722    12.246834    48.512106    40.144785 
125224000    281.47329    322.08151    304.14052   -11.390703    11.232695    17.940999    40.145486 
125228000    273.44429    327.38212    278.14552   -12.751483    11.477793    49.236602    40.146008 
125232000    272.06615    300.08891    288.65634   -11.358244    11.343165    11.432572    40.144038 
125236000    274.67479    324.33565    288.41604   -12.094416    12.056803    35.919617    40.145798 
125240000    275.09375    308.43258    284.35948   -10.747854    11.728287    24.073099    40.146918 
125244000    273.49457    328.02282    275.86832   -12.421556     13.02779      52.1545    40.146163 
125248000    273.54814    338.15647     267.4018   -13.209232    13.873469    70.754672      40.1455 
125252000    274.19677    327.60936    269.21156   -12.878393     13.55316    58.397801     40.14512 
125256000     274.6645    300.45593    290.56293     -11.7953    10.701317    9.8930029    40.146159 
125260000    271.15376    296.46332    298.07615   -10.971329    10.550735   -1.6128354    40.144747 
125264000    276.94449    303.73057    288.46831    -12.26995    11.741376    15.262263    40.143654 
125268000    273.26712    320.10537    274.32092   -11.568332     11.52467    45.784451    40.146464 
125272000    267.20913    298.71521    283.77452   -12.194023    11.277221    14.940686    40.144953 
125276000    275.04654    322.99897     280.9469   -12.704382    11.821204    42.052068    40.145831 
125280000    265.87387    297.67887    276.07843   -11.417477    12.537075     21.60044    40.147416 
125284000    271.23732    318.42168    277.20428    -12.14683    13.515916    41.217405    40.147578 
125288000    274.31356    313.37293    296.60994   -10.691342    11.911722    16.762998     40.14582 
125292000    279.25446    327.76874    302.48162   -13.005551    11.642048    25.287127    40.144508 
125296000    275.92401    314.20952    291.95272   -11.540733    11.279064    22.256805    40.145678 
125300000    276.76684    332.41655    277.51597   -11.498639    12.217556    54.900585    40.144943 
125304000    267.88853    322.78936    272.44923   -11.523371    12.060993    50.340128    40.143653 
125308000    264.83143    284.11414    290.32433   -8.4814125    12.004369   -6.2101911     40.14217 
125312000     264.9591    301.46009    255.15517   -9.1738644     13.52224    46.304918    40.142087 
125316000    274.32407    310.01405    284.17773   -9.9693973    12.066453    25.836316     40.14084 
125320000    278.16545    319.62145    297.37342   -11.640422    11.077314    22.248033    40.142148 
125324000    268.08025    320.21571    270.59508   -12.041128    12.246676    49.620635    40.140579 
125328000    266.04931    322.77481    272.14775   -11.416915    12.315437    50.627058     40.14226 
125332000    274.26803    336.36554    293.54633   -11.985161    12.450773    42.819207    40.142431 
125336000    264.63992    311.81092    278.89971   -11.219174    12.539111    32.911213    40.140371 
125340000     274.2514    342.65198    275.51993   -11.857345    13.852617     67.13205    40.140402 
125344000    270.14307    323.13937    284.96466   -11.461309    12.790297    38.174715    40.141683 
125348000    267.40137    317.99801    258.17506   -10.863414     13.15388    59.822954    40.144204 
125352000     274.4723    321.83324    277.17668     -12.5957    12.656693    44.656563    40.143207 
125356000    277.53167    323.87296    275.20867   -11.731145    11.935606    48.664292    40.142497 
125360000    268.56407    312.96263    279.71174   -12.037452     13.07542    33.250899    40.140722 
125364000    269.55559     315.5025    281.57657   -12.811813    13.132645    33.925934    40.142345 
125368000    270.90662    316.68691    275.35287   -11.885903     12.87037    41.334033    40.142118 
125372000     265.5429    307.02438    285.27372   -11.099567    12.149583    21.750659    40.143572 
125376000    267.02208    317.13924    278.62297   -11.708235    12.760829    38.516269    40.142586 
125380000    269.49561    301.29925    278.18024   -10.786834    13.603719    23.119012    40.141337 
125384000    266.88359    313.70086    271.49828    -12.01128     13.39838    42.202582    40.144276 
125388000    278.13802    320.51235    286.46868   -12.155914    13.101747    34.043667    40.145602 
125392000     281.1521    331.88915    302.40573   -13.237094    12.514799    29.483424     40.14545 
125396000     261.3001    301.35101    267.08413   -12.975203    13.266301     34.26688    40.146143 
125400000    275.89892    332.29506    281.53194   -13.389035    13.064475    50.763118    40.147794 
125404000    272.73003    327.99387    282.29049   -13.162699    12.201706    45.703381    40.149686 
125408000    274.51935    338.52438    262.25038     -13.7179    14.404435    76.273998    40.151716 
125412000    278.71191    338.62782    281.95977   -14.370665    13.119293    56.668055    40.153423 
125416000    269.18823    310.54972    284.49161   -11.638982     12.21565    26.058109    40.154513 
125420000    285.33711    346.31198    285.69851   -13.723382    13.086496     60.61347    40.154385 
125424000    277.83446    333.35584    283.98018   -13.971025    14.078341    49.375652    40.155099 
125428000    281.01571    340.62472     281.6656   -13.930389    13.811407    58.959124    40.155682 
125432000    278.32387     327.7169    282.76685   -13.879193    13.687733    44.950045    40.155692 
125436000     282.4613    346.03836    280.89914   -14.605637    14.137911     65.13922    40.152203 
125440000    272.92093    319.12478    287.30359   -12.632829    13.159844    31.821191    40.153924 
125444000    280.23509    325.30172    289.94287   -13.067089    12.873714    35.358844    40.152268 
125448000    277.92023    316.42764    296.37898   -11.986262    11.657717    20.048658    40.152956 
125452000    270.43839    313.15172     270.2775   -12.972489    14.440817    42.874218    40.150909 
125456000    280.01716    334.74929    275.26415   -13.029131    13.900605     59.48514     40.15174 
125460000    274.88091    316.90889    302.76854    -11.63212    12.792094    14.140353    40.151487 
125464000    266.90334     307.0582    301.44607    -12.56487    13.247783    5.6121289    40.150393 
125468000     278.1058    335.97553    275.90203   -13.728571    12.732917    60.073499    40.148931 
125472000    275.71187    339.25049    291.36972   -13.326258    12.878716    47.880768    40.151446 
125476000    271.25662    335.66721    261.17938   -13.087293    14.189103    74.487828     40.15062 
125480000    264.73526    315.36229    275.45639   -12.820923    13.610857    39.905904    40.149759 
125484000    267.95008    324.89191    266.81482   -12.913834    14.383424    58.077092     40.15419 
125488000    273.29226    318.27467    301.73252   -12.926102     12.07463    16.542147    40.155985 
125492000    275.89131     326.7858    278.59682   -14.013308     14.26343    48.188978     40.15259 
125496000    272.50155    313.02049    273.88699    -12.93104    14.342024    39.133498    40.153043 
125500000    269.58744    315.52813    271.83222   -11.526171    13.817555    43.695901    40.153909 
125504000    269.21954    318.54318     288.4759   -12.253591    14.068166    30.067273    40.150305 
125508000    278.98878    332.86346    296.81372   -12.551095    12.648723    36.049748    40.149364 
125512000    273.58205    336.58049    288.00865   -13.011292    13.440265    48.571838    40.152578 
125516000    270.26288    317.96811    276.46209   -12.423034    13.149873    41.506014    40.151928 
125520000    271.25473    317.15222    275.07697   -12.508204    13.857466    42.075246    40.147872 
125524000    277.13323    330.22296    278.85148   -13.197651    12.186625    51.371475    40.149948 
125528000    263.89533    308.92072    260.95471    -13.35894    12.324129    47.966016    40.150329 
125532000    284.63865    358.92788    291.62614   -14.212484    12.368304    67.301741    40.149149 
125536000    278.15126    318.47261    297.55084   -13.227631     12.32875     20.92177    40.148307 
125540000    267.61214    324.02739    271.64305   -13.424031    12.817038    52.384338    40.148402 
125544000    275.89371    320.13269    277.43107   -12.939473    13.069484    42.701621    40.148545 
125548000    273.82894      314.078     278.0871   -12.300827    13.618167    35.990902     40.14833 
125552000    277.90712    312.80243     290.9152   -12.227453    12.723164    21.887232    40.149116 
125556000    275.39226     313.8606    284.79886    -12.50048    12.567342    29.061742    40.152169 
125560000    271.12299    328.90128    281.39904   -14.087086    13.250359    47.502242     40.15299 
125564000    276.98646     334.1799    289.80232   -13.653496    11.757423    44.377579     40.15376 
125568000    274.39604    322.41283     281.6676    -12.86428    11.982025    40.745229    40.153578 
125572000    274.63527     317.3694    281.66725   -12.733114    12.999089    35.702153    40.151695 
125576000    278.54455    329.32548    300.52192   -13.305283    12.423821    28.803559    40.149011 
125580000    277.64318    348.01053    288.34126   -15.224054    13.112993    59.669275      40.1505 
125584000    266.36922    320.68836    264.63328   -12.131811    14.373918    56.055086    40.150541 
125588000    263.53906    317.40122    250.02898   -12.798698    15.451828     67.37224    40.148475 
125592000    274.62404    339.97988    271.71818   -13.575293    13.347581    68.261701    40.150744 
125596000    269.34142    313.93748    279.21171   -11.749881    14.347436    34.725774    40.150742 
125600000    278.80036    335.75298    282.20071   -12.797604     13.76302    53.552273    40.150966 
125604000    261.85845    299.72323    277.15558   -12.257708    14.546769    22.567648    40.154152 
125608000    273.24515    322.37366    290.80502   -12.299156    13.732526    31.568638    40.151708 
125612000    257.89716    312.89641    267.57728   -12.298104     14.67689    45.319135    40.150562 
125616000    260.38792    300.71286    253.93986    -10.41518    14.920155    46.772998     40.15143 
125620000    278.14874    347.08598    275.20979   -13.424173    14.619995    71.876186    40.151627 
125624000    270.43705    320.45447    266.89605   -13.571538    14.041299    53.558425    40.149851 
125628000    273.26234    325.19671    264.54281   -12.445777    14.477584    60.653896    40.149489 
125632000    275.12918    330.18599     282.3444   -12.360261    13.132725    47.841584    40.151202 
125636000    269.80469    316.54432    265.12903   -12.728957    13.233508    51.415283    40.151476 
125640000    264.56804    307.35665    265.74487   -11.465273    13.420142    41.611772    40.150906 
125644000     264.4397    309.34796    271.37572   -11.392345    12.735232    37.972235    40.152563 
125648000    279.63681    351.97811    284.36961    -14.00663    12.311218    67.608501    40.153581 
125652000    271.22887    322.49451    283.59837   -11.780077     12.63147    38.896138     40.15337 
125656000    268.35841    315.77868    281.09341   -11.615897    12.575216    34.685272    40.152469 
125660000    276.66286    326.34334    274.72402   -12.039047    13.681737    51.619321    40.151728 
125664000    270.69036    323.14533    285.45895   -12.292143      13.1777    37.686375     40.15519 
125668000    266.25965    323.89708    268.87153   -13.181852    13.644936    55.025547    40.155655 
125672000    278.78324    345.21187    279.40449    -14.28036    13.912239    65.807379    40.157687 
125676000     277.6227    325.91827    278.04116   -13.127761    14.737519    47.877111    40.157219 
125680000    277.63472     332.5502    289.27095   -11.755334    13.713743    43.279246    40.157537 
125684000     279.9277    365.07084    288.64622   -14.741513    12.267323     76.42462    40.158922 
125688000    265.02029    336.20528    258.58958   -13.197245    15.045291    77.615708    40.158272 
125692000      272.365    318.12293    268.96846   -12.273881    14.863205    49.154465    40.160555 
125696000    270.77548    311.60338     294.9741   -11.322778    13.246572    16.629285    40.163693 
125700000    270.72427    303.14516    279.54079   -11.820032    14.713349    23.604373     40.16227 
125704000    275.56778    317.96037    294.87924   -13.018291     14.08423    23.081131     40.16204 
125708000    263.88211    304.12311    266.96464   -12.588109    15.989099    37.158475    40.162833 
125712000    263.31562    334.80586    270.47414   -13.823467    15.101685    64.331721    40.163743 
125716000    274.60051    327.48868    294.54361   -14.260012    15.282096    32.945073    40.159466 
125720000    277.27551    316.32844    289.50335   -13.017955    14.634224    26.825088     40.15901 
125724000    275.77508    346.34376    269.16767   -14.099923    14.884012    77.176085     40.16114 
125728000    268.28556    283.93335     291.0876   -12.285475    13.734219   -7.1542595    40.157926 
125732000    267.54945    292.73333    288.12759   -13.002383    14.260979    4.6057405    40.158613 
125736000    275.56932    323.46914    283.06734   -13.910373    14.493812    40.401804    40.156821 
125740000    271.38404    310.88716     293.2467   -12.707099    14.037174    17.640455    40.156097 
125744000    264.04336    325.33206    255.28359   -14.144617    14.183902    70.048471    40.156485 
125748000    276.23611    319.83697    307.08436   -14.043953      12.5384    12.752617    40.154857 
125752000     270.5737    318.57541    267.33704   -13.959562    14.964553     51.23837    40.155067 
125756000    274.86531    328.56004    276.31934   -14.233102    13.497991      52.2407    40.154672 
125760000    274.05265    323.52212    269.62285   -12.685432    13.696489    53.899269    40.150832 
125764000    289.38067    347.39918     294.9252   -13.920321    11.956987    52.473985    40.150295 
125768000     275.8315    315.50991    291.46043   -14.567615    12.643127    24.049481    40.148787 
125772000    276.71704    315.46194    277.12408   -14.760251     13.38225    38.337866    40.149453 
125776000    274.04063    320.24029    273.97771   -14.409396    13.456263    46.262578    40.148559 
125780000    273.71423    316.27463    279.32199   -13.545679    12.951842    36.952639    40.147641 
125784000    278.10261    327.69611    278.55309   -14.059218    12.267885     49.14302    40.146425 
125788000    279.31075    319.28925    282.51246   -14.085959     13.36002    36.776787    40.147702 
125792000     270.2872    315.28468    263.93159   -14.700347    14.329495    51.353093    40.147523 
125796000    280.32423    321.88978    272.31933   -15.589946    14.045752     49.57045     40.14585 
125800000    279.87553     313.7227    301.55282   -14.118994    12.349369    12.169879    40.143379 
125804000    280.09692    308.22411    260.84334   -13.990378    13.638708    47.380768    40.146013 
125808000    287.69871    331.50503     314.5371   -15.238654     12.40802    16.967931    40.147284 
125812000    270.95183    314.04607    284.29998     -14.3833    13.482901     29.74609    40.147094 
125816000    276.59494    334.44478    263.28951    -14.43163    13.849051    71.155275    40.147505 
125820000    281.28422    321.16119     298.8216   -14.641379    12.017558     22.33959    40.148067 
125824000     282.5675    343.52895    260.03206   -14.968054    14.294374    83.496894    40.148759 
125828000    278.96224    320.24678     277.4614   -14.953533    13.634237    42.785383    40.148589 
125832000    271.71274    291.91886     276.6703   -12.348096    13.233999    15.248553    40.146357 
125836000    276.06622    325.15078    247.71267   -14.302599    14.249569    77.438108    40.145907 
125840000    278.95191    334.80487    274.63606   -13.764906     12.10834    60.168816    40.146354 
125844000    287.59267     333.1724    290.98032   -15.839809     12.85847    42.192087    40.147479 
125848000    274.04613    320.90248    271.67625   -14.540908    12.446894    49.226232    40.148573 
125852000     276.1668    313.19179    262.24365   -14.105682    14.243839    50.948143    40.150139 
125856000    269.43431    307.45624     279.1031   -13.553653    12.324346    28.353146    40.149732 
125860000    271.35206    313.10084    264.41543    -14.18537    13.115471    48.685406    40.150226 
125864000    280.16002    327.46202    276.77967    -14.80663    13.043384    50.682353    40.150427 
125868000    278.43618    335.62741    280.30681   -14.809437    11.986298    55.320594    40.150232 
125872000    274.23204    320.86823     283.8166   -14.376242    12.096275    37.051631    40.151407 
125876000    272.21346    317.82395    292.94224   -14.187553    12.000873    24.881711    40.150266 
125880000    269.36932    302.18688     282.9724   -11.938687    11.353312    19.214482    40.151107 
125884000    276.32459    330.00664    276.43884   -14.818263    13.244903    53.567793     40.15175 
125888000       270.47    304.73876    265.61171   -14.355552    13.457314    39.127051    40.150231 
125892000    280.77029     347.0007    284.76891   -16.678363    13.118069    62.231795    40.153411 
125896000    273.16078    321.86682    272.36238   -14.772181     14.02803    49.504438     40.15284 
125900000    274.73433    308.66614    278.44856   -14.946486    13.159435    30.217585    40.150833 
125904000    289.28516    318.47822    310.93845   -15.695466    11.386689    7.5397632    40.151044 
125908000    279.28128    318.18548    256.31789    -16.36249    15.079854    61.867589    40.150122 
125912000    279.22263    305.10563    285.96305   -14.806106    13.365669    19.142576     40.14854 
125916000    273.79611    311.05488    271.75914   -15.249877    14.293018    39.295743    40.146246 
125920000    282.14641    332.64383    285.68363   -16.754304    13.862447    46.960203    40.145275 
125924000    280.88787    331.08636    293.12052   -16.340082     12.52272    37.965838    40.142641 
125928000    273.85605    320.60236    273.30964    -15.66285    13.263313    47.292724     40.14443 
125932000    285.11506    329.01157    287.92444   -16.340187     12.61746    41.087132    40.146744 
125936000    286.13865    331.34924    298.26451   -15.850995    12.272142    33.084725    40.145154 
125940000    276.99944    331.47145     257.9522   -15.934775    14.550733    73.519248    40.145471 
125944000    272.22401    315.69157    246.88381   -15.526297    15.983223    68.807764    40.148216 
125948000    281.58999    339.31509    274.24991   -16.879613    12.921125    65.065179    40.145058 
125952000    287.84407     339.0888    275.59898   -16.764499    12.550045    63.489819    40.147227 
125956000    280.01884    309.14977    278.28887   -14.662037    13.726606    30.860896    40.148884 
125960000    287.72149    331.99915    295.82129   -14.660713    13.138501    36.177859    40.148997 
125964000    295.32108     341.0926    287.45278   -16.849545    13.121438    53.639819    40.149415 
125968000    279.10851    325.95562    278.93986   -15.877883    13.378256     47.01576     40.14872 
125972000    275.87845    333.32029     260.4862   -17.139928     14.94271    72.834093    40.150231 
125976000    298.64593    346.77119    299.00021   -18.434969    13.093514    47.770981    40.149975 
125980000    286.79456    310.47203     293.5488   -16.540641    12.253841    16.923222    40.150545 
125984000    280.12405    321.44887    282.60084   -16.394466     11.31977    38.848039    40.150159 
125988000    283.96438    314.69532     299.8663   -15.483785    10.584035    14.829017    40.148884 
125992000    285.47516    347.21566    261.55964   -16.911246    13.960967    85.656025     40.14834 
125996000    281.65518    328.10978    274.57268   -15.292348    13.108232    53.537103    40.146012 
126000000    284.89659     314.5284    292.39977   -16.094437    12.253666    22.128634    40.147288 
126004000    275.20921    313.02576    285.27746   -15.830906     12.30978    27.748298    40.147041 
126008000    271.69509    318.30576    287.24268   -15.392077    11.930114    31.063078    40.147651 
126012000    271.32904    330.46125     257.2641   -15.206481    14.199657    73.197149    40.149195 
126016000    279.78961    334.52239    269.00618   -15.772627    12.538281     65.51621    40.151914 
126020000    274.66428    310.89678    277.63712   -13.161873    12.539761    33.259664    40.153875 
126024000    273.34612    312.19157    264.87327   -14.093539    13.400275    47.318296    40.153839 
126028000    279.96986    336.19143    290.32778   -15.985312    13.183423     45.86365    40.154832 
126032000    282.19422    327.98087    291.61653   -16.101614    12.806609    36.364346    40.153974 
126036000    270.11535    306.49104    285.49777   -14.996828    13.708871    20.993273    40.153767 
126040000    280.97422    325.85108    278.32595   -14.178694    13.681886    47.525132    40.155901 
126044000    271.79434    308.93597    273.68603   -13.910258    12.934869    35.249942     40.15492 
126048000    269.00445    306.25011    271.26327   -13.524657    14.231236    34.986838      40.1534 
126052000    281.00488    326.54873    294.16782   -15.187835    13.620463    32.380903    40.152715 
126056000    274.10885    304.27251    282.09863    -14.09224    14.352816    22.173876     40.15356 
126060000    276.19316    330.11328    271.95833   -16.339696    13.830387    58.154951    40.153771 
126064000    270.79556    296.24709    281.07248   -13.391418     13.02961    15.174616    40.150945 
126068000    271.25353     316.4077    264.54622   -13.787959    13.833889     51.86148    40.150642 
126072000    273.90186    303.58037    286.54096    -13.55155    13.411157    17.039418    40.150712 
126076000    283.45037    320.92516    294.72777   -13.602637    10.696094    26.197398    40.148233 
126080000    285.32992    342.77648    284.86527   -15.762979     12.04505    57.911203     40.15034 
126084000    271.68051     306.5191    267.72376   -14.020187    13.247597    38.795346    40.149555 
126088000    278.18325    307.96555     281.7437   -13.973579    12.762084    26.221849    40.146846 
126092000     281.4916     302.2773    301.29493   -12.654635     12.49079   0.98237489    40.143478 
126096000    274.24228    303.57288    284.10995   -14.852424    12.564969    19.462932    40.141762 
126100000    282.58297    333.98698    270.61676   -15.491425    13.068599    63.370224    40.142774 
126104000    290.94072    356.34098       301.22   -17.134044    11.681826    55.120983    40.141307 
126108000    284.25433    338.76063    290.69432   -14.493158    12.186174    48.066311    40.140301 
126112000    282.28777    336.67862    284.21009   -13.849781    12.641144    52.468533     40.14126 
126116000    289.07545    355.03732    284.79184   -16.948307    11.810236     70.24548    40.144705 
126120000    282.58764    327.78855     280.2151    -15.17726     13.16335    47.573443    40.145482 
126124000    265.83725    291.21315    278.38458   -13.875436    13.336607    12.828577    40.145846 
126128000    278.37864    315.68621    280.77637   -15.191005    13.129194    34.909841    40.143186 
126132000    280.00695    313.81159    265.34417   -15.554329    14.481081    48.467421     40.14359 
126136000     276.8767    292.68723    294.80084   -14.025076    13.728697   -2.1136133    40.141642 
126140000    272.60007    319.88916    249.56546     -15.1675    16.455247    70.323698    40.141326 
126144000    278.49718    315.63179    287.16119   -16.429032    13.514574    28.470596    40.141341 
126148000    276.01064    327.73803    273.85636   -15.800478    13.434345    53.881673    40.145825 
126152000     282.4201    329.88016    275.20309   -15.591845    14.035293    54.677073    40.145657 
126156000    270.00468    303.08436    275.63182   -15.060354    13.428706    27.452537    40.145084 
126160000    276.53033    295.66021    281.74496   -13.731928    13.101879     13.91525    40.143827 
126164000     274.5333    318.27446    278.19642   -16.050311    12.702085    40.078045    40.143709 
126168000    279.45218    344.91297    281.35903   -16.929031    13.536106    63.553932    40.144593 
126172000    283.49965    322.50506     297.0764   -17.134537    14.160884    25.428657    40.143063 
126176000    274.14205    313.11145    270.72663   -15.703707    14.720367    42.384829    40.143733 
126180000    282.45226    343.15987    275.74273   -16.723399    14.529417    67.417143    40.143125 
126184000    279.10704     342.9044    265.86083   -17.073046    14.079663    77.043567    40.140382 
126188000    275.93015    320.79317    265.45414     -15.4878    14.348147    55.339026    40.142234 
126192000    272.33715    321.35971    267.30219   -15.485007     14.28848    54.057526    40.143318 
126196000    275.41338    323.89261    278.74031   -15.702355    13.682649    45.152297    40.146285 
126200000     287.5164    339.27835    300.07488   -17.115595    12.715849    39.203469    40.148005 
126204000    279.44009    304.84942    295.97024   -14.872417    13.527904    8.8791823    40.146867 
126208000    272.67525    297.67959       284.33   -13.243595    14.023903    13.349584    40.146179 
126212000    273.13102    323.97941     271.8834   -14.998225     15.28133    52.096015    40.146037 
126216000    282.20922    343.87764    263.37376   -16.166718    14.711033    80.503881    40.147114 
126220000    289.06041    337.75578    294.50626   -15.481273     12.82211    43.249518    40.148563 
126224000    281.28146    335.92884    288.97329   -15.849685    12.605562    46.955549    40.149644 
126228000    279.91677    323.64896    282.19686   -15.173274    13.660306    41.452093    40.148374 
126232000    264.31108    292.63635    270.53091   -14.722319    14.454896    22.105447    40.145178 
126236000    286.03272    341.22975    289.20035   -16.957762    13.859772    52.029398    40.142689 
126240000    284.44356    332.12286    290.78389   -15.249397    13.466171     41.33897    40.145208 
126244000    284.44896    345.99627    293.98993   -16.347768    14.491139    52.006335    40.142783 
126248000    272.41094    315.39063    271.29265   -15.329396    14.755789    44.097981    40.140973 
126252000    272.36651    280.84787    269.52262   -14.612882    14.662822    11.325247     40.14294 
126256000    295.96397     351.0781    319.27238   -18.392796    11.954614    31.805715    40.144225 
126260000    279.91589    332.82403    284.08295   -18.362028    14.162038    48.741086    40.146394 
126264000    276.62193    313.63889    293.39596   -16.881015     13.54289    20.242927     40.14469 
126268000    282.71612    323.99933    283.28011   -16.629981    14.228511    40.719217    40.143431 
126272000    273.89519    312.56128    260.49456   -15.280787    15.514524    52.066723    40.139638 
126276000    273.10905    298.04141    280.47875   -14.937218    14.989154    17.562669    40.138227 
126280000    275.50724     286.1373    301.73045   -14.033231    14.090785   -15.593152    40.137737 
126284000    280.37828    318.81249    285.82746   -15.452928    14.727797    32.985025    40.137642 
126288000    283.97627    323.90027    294.95292   -16.311092    14.620228     28.94735    40.137898 
126292000    279.28468     312.9502    291.17734    -16.35998    14.299565    21.772861     40.13687 
126296000    279.77416    314.67566    295.14453   -15.301771    14.105106    19.531128     40.13839 
126300000     276.8309    325.20768    272.25221   -15.930592    14.855251    52.955475    40.136768 
126304000    288.09956     307.1939    319.51783   -16.497397    13.431008   -12.323924    40.137308 
126308000     281.1269    324.00652    282.34973   -16.349809    14.906553     41.65679    40.138715 
126312000    274.52837    297.64512    277.38024   -15.621406    14.572044    20.264885    40.138835 
126316000    281.39839    350.51656    276.78509   -17.396556    13.790254    73.731467    40.140797 
126320000    280.24622    344.96975    282.64126   -17.872575    14.403443    62.328497    40.139531 
126324000    281.46193    311.72664    290.06013   -15.148359    14.175566     21.66651    40.140852 
126328000     268.3878    294.02661    282.79462   -15.238913     14.32228    11.231991    40.141596 
126332000    280.04414    319.69596    273.86082   -17.450926    14.394733    45.835138    40.140144 
126336000    283.91986    344.08087    300.56574   -16.880202    13.473465    43.515124    40.143209 
126340000    275.32084    316.20084    268.30847   -17.462449    15.644847    47.892367    40.140845 
126344000    285.02381    326.83018    293.57114   -16.228575    14.215241    33.259038    40.141121 
126348000    281.64407    333.54461    278.70394   -16.969736    15.371906    54.840663     40.14072 
126352000    276.16986    297.46796    293.22287   -14.735284    13.067768    4.2450928    40.138849 
126356000    273.74683    307.08312    278.13358   -14.750303    15.741747     28.94954    40.136925 
126360000      273.873    307.17219    269.22611   -13.743296    14.952396     37.94608    40.135557 
126364000     275.1124    313.31828      280.671   -15.246322    14.802189    32.647282    40.132879 
126368000    277.01921    318.16412      273.306   -14.773583    15.746788    44.858126    40.132653 
126372000    284.14618     331.5655    293.43259   -16.835328    14.227412     38.13291    40.133226 
126376000    286.96569    350.92121    298.12163   -16.957343    14.032187    52.799576    40.134186 
126380000    267.25179    319.09466    266.67072   -15.704438    14.730613    52.423941    40.134091 
126384000    274.60375    327.51121    268.69548   -15.211625    15.235343    58.815735    40.133917 
126388000    271.28006    322.19138     289.5759   -14.953555    14.558377    32.615475    40.133238 
126392000    275.86876    319.49028    292.83517   -15.785522      13.9154     26.65511    40.131955 
126396000    278.10162    340.55788    293.66639   -16.855376    14.190915    46.891488    40.134199 
126400000    278.76956    322.23883    292.58759   -15.159075    13.764323    29.651245     40.13431 
126404000    274.36541    309.41089     285.2684   -15.016056    13.885167     24.14249    40.133287 
126408000    277.82551    326.14342    277.21577   -16.464777    13.840326    48.927651    40.133671 
126412000    271.23471     304.2394    283.46972   -13.847904    15.173563    20.769678    40.133917 
126416000    277.74909    331.13454    276.46102   -15.033547    14.723715    54.673524    40.133883 
126420000    283.86943    333.12233    286.75746   -13.936307    13.937584    46.364877     40.13527 
126424000    266.49986    296.07158    268.00091   -14.604592    15.963044     28.07067     40.13628 
126428000    276.17324    300.26052    295.57126   -14.036221     13.14923    4.6892604    40.137975 
126432000    278.96026    297.73898    277.07533    -13.81592    13.904119    20.663648    40.134424 
126436000    276.25915    306.75636    282.03921    -14.35028    14.518933    24.717145    40.132971 
126440000    271.06316    309.34985     291.3036   -14.126026    14.658767     18.04625    40.132028 
126444000     282.3578    342.76903      284.692   -16.477596    14.243279    58.077029    40.132288 
126448000    271.18442    326.14808    263.36222   -15.232612    16.220587    62.785861    40.132688 
126452000     281.6235    345.98982    268.95124   -17.174389    15.612784    77.038583    40.135424 
126456000    275.57724    312.47871    279.89846   -16.028295    15.003899     32.58025    40.135229 
126460000    275.66505    318.81271    269.20088   -15.174395    14.860722    49.611823    40.136125 
126464000    273.76018    318.57349    286.17013   -15.230061    14.348452     32.40336    40.136777 
126468000    285.70594    335.22821     292.0369   -16.604354    15.162184    43.191304     40.13501 
126472000    277.76391    313.99428    295.17405   -14.561701     14.51449    18.820222    40.134983 
126476000    270.68797    312.18812    267.26504   -14.457431    15.597245    44.923081    40.134041 
126480000    274.09191    326.07639    273.25732   -15.507156    14.929095     52.81907    40.134502 
126484000    273.52501    320.79879    281.58641   -16.628209    14.189051    39.212372    40.135855 
126488000    270.78397    313.49519    258.59973   -15.931762    16.212223    54.895467    40.136427 
126492000    266.95261    315.01295    262.09842   -15.525831    16.530708    52.914529    40.140168 
126496000    282.81342    335.89268     280.7258   -16.623665    13.719512    55.166886    40.141307 
126500000    287.90546    352.42857    279.39464   -17.613782    14.531072    73.033937    40.143972 
126504000    277.21394     301.3889    298.65996   -14.985559    13.444858    2.7289403    40.145385 
126508000    273.76396    323.21885    270.15956   -15.983962    14.789458    53.059284    40.143505 
126512000     277.1578    325.81617    287.47656   -16.130809    15.457345    38.339611    40.142734 
126516000    274.50286    310.44174    281.57543   -15.499501    14.954709    28.866305    40.141684 
126520000    270.30314    319.02795    266.86734   -16.314964    15.866201    52.160617     40.14126 
126524000    264.05728    301.15966    270.72516   -15.926079    15.376093    30.434501    40.140413 
126528000    276.42813     329.5174    282.09309   -17.562294     13.76157    47.424308    40.139616 
126532000    276.89496    319.21619    270.39645   -17.048107    14.820314    48.819739    40.142142 
126536000    278.77603    321.42301    297.17967   -16.944871    15.469164    24.243345     40.13904 
126540000    276.18228    317.79228    290.12134   -15.593786    14.740409    27.670945    40.140281 
126544000    273.47336    340.50522    270.41311   -15.593243    14.551008    70.092115    40.137507 
126548000    277.13947    337.28699    286.76904   -16.680018    15.062116    50.517946    40.136717 
126552000    275.95095    324.93911    278.94917   -15.060061    15.181146    45.989945    40.135848 
126556000    274.59664    321.77021    292.00488   -15.350003    15.448449    29.765322    40.134266 
126560000    279.63591    296.46067    301.51097   -14.161591    14.624428    -5.050296    40.133009 
126564000    281.09603    324.41248     285.5206   -16.413203    14.824176    38.891887    40.134227 
126568000    271.69084    302.94049    287.37482   -15.045134    14.643769    15.565673    40.133323 
126572000    277.53993    313.31927    292.47593   -15.332886    15.553184    20.843337    40.131876 
126576000    271.95016    305.27733    290.05809   -14.501981    14.514251    15.219236    40.130798 
126580000      282.423    331.84781    293.33791   -16.232996    13.982982    38.509901    40.132583 
126584000    278.33074    315.64307    286.77265   -16.794643    14.015359    28.870422     40.13347 
126588000     270.8048    305.30431    271.01027   -14.338757    15.462055    34.294048    40.134711 
126592000    283.58357    343.46343    275.54329   -15.488571    14.392139    67.920143     40.13489 
126596000    269.77111    289.07757    263.36038   -13.452939    15.694353    25.717191    40.134778 
126600000    281.53608    313.02678    290.04672   -13.432238    13.574816    22.980061    40.135251 
126604000    274.05873    325.89489     277.6725   -14.937686     13.98756    48.222391     40.13469 
126608000     278.7563    324.83814    272.80448   -14.710665    12.464889    52.033668    40.134671 
126612000    275.65975    325.85916    265.89602   -14.549349    14.885094    59.963143    40.133856 
126616000    273.59079    305.78466    305.92518   -14.652283    12.359594  -0.14052324    40.132593 
126620000    278.03976    322.91526    284.30534   -14.447469      13.8632     38.60992    40.134085 
126624000    271.00819    303.99855    271.27091   -13.935235    14.634291    32.727644    40.134785 
126628000    277.92759    316.56715    291.08653   -13.879225    14.559856    25.480625    40.135265 
126632000    271.75246    305.56615    275.03548   -14.294692       15.336    30.530669    40.136135 
126636000    268.31743    322.08041    269.21362   -13.702773    15.927622    52.866786    40.136312 
126640000    270.29689    308.90133    271.31899    -13.04244     14.52931    37.582339    40.134885 
126644000    270.99077    297.28107    285.87386   -14.117488    13.141197    11.407207    40.135456 
126648000    285.30463    361.93119    292.55947   -16.322288    14.217076    69.371718    40.136481 
126652000    269.96523    314.75072    275.01659   -14.922725    13.967935    39.734134    40.135959 
126656000    279.16316    336.43329    274.89372    -15.25147    14.492765    61.539574    40.134968 
126660000    273.49823    293.94012    276.10895    -14.01203    15.253317    17.831172    40.132936 
126664000    282.51242    316.28844     284.1506   -15.794234    14.549868    32.137843    40.132509 
126668000    272.59851    321.51804    257.73945   -14.905047    16.248661    63.778589    40.129287 
126672000    280.36834    326.00593    278.70777   -16.792846    14.234442    47.298163    40.129796 
126676000    284.41625    331.56493    283.21331   -15.251185    14.106194    48.351621      40.1287 
126680000    275.31787    314.77459    280.13939   -14.878949    15.485409    34.635198    40.129857 
126684000    270.03415    308.17733    284.50984   -14.708268    15.039949    23.667485    40.125383 
126688000    279.72705    326.91466    303.12365   -14.806609    13.419308    23.791009    40.125262 
126692000    279.59872    336.00269    289.86983   -15.462894    14.774026    46.132861    40.123734 
126696000    282.13328    353.70272    276.96956    -16.78906    14.812302     76.73316    40.123728 
126700000    270.03127    322.55487    275.42184   -15.308046    16.351785    47.133035    40.123485 
126704000    282.00413    330.26149    297.39976   -15.399675    14.577659     32.86173    40.123136 
126708000    278.12748    312.97283      302.399   -14.690947    13.861637    10.573827    40.123933 
126712000    267.89965    320.57372     244.8118   -14.695104    16.057771    75.761917    40.123537 
126716000    269.32388    327.12457    254.13156   -14.999743    16.437653    72.993006     40.12149 
126720000    275.64865    328.09024    277.66277   -15.356154    14.761356    50.427471    40.120189 
126724000    273.72577    311.35722    292.69101    -15.49128    13.949748     18.66621    40.120877 
126728000    269.64445     320.8627    273.22269   -17.050322    14.379774    47.640007    40.123264 
126732000    271.82803    321.30912    264.51922   -16.525851    15.124365    56.789909    40.124975 
126736000    278.42368    337.31419    275.92539   -16.751253    14.820484    61.388805    40.123639 
126740000    278.89104    293.26878     305.1974   -13.622827    14.214176   -11.928622    40.125533 
126744000    268.17394    314.66702    273.45195   -15.201332    15.015413    41.215076    40.124893 
126748000    268.74205    315.23252    284.59187   -15.554064    15.375718    30.640649    40.126119 
126752000    267.29232    301.76042    263.32991   -15.923988     16.40999    38.430507    40.126835 
126756000    268.14844    303.18021    272.48099    -15.58051    15.872297    30.699214    40.126592 
126760000    275.03334     333.1752    273.19959   -15.896602     15.59908    59.975605    40.126939 
126764000    269.37655    322.94922    275.80619   -15.405601    16.103046    47.143034    40.127174 
126768000    273.67743    326.46136    280.21094   -16.496331    15.989133    46.250418    40.126141 
126772000    279.28834    337.72161    290.72382   -18.154666    14.878402    46.997794    40.126347 
126776000    266.30906     315.8903    258.90002   -15.775891     17.13696    56.990287    40.125146 
126780000    278.07981    338.39815     271.0918   -16.628835    15.981782    67.306354    40.128372 
126784000    273.98984    332.28576    276.72451   -15.973347     16.24889    55.561251     40.12978 
126788000    270.77814    337.96965    267.13709   -15.587661    16.356682     70.83256    40.129565 
126792000    267.36763    335.46761    262.24126   -13.950447    17.582634    73.226349    40.127806 
126796000    281.14036    322.45224    305.44808   -15.145463    15.533453    17.004165    40.127499 
126800000    270.24325    331.93293    264.60942   -14.963144    17.115202    67.323509    40.129331 
126804000     280.4871    323.64287    301.07567   -15.049134    14.950104    22.567202    40.129894 
126808000    277.01997    325.85919    297.65845   -16.678024    14.572234    28.200741    40.130337 
126812000    270.87291    318.17137    276.48024   -14.603419    16.214336    41.691131    40.128561 
126816000    280.69535    337.62615     297.0441   -15.230047    14.851425    40.582051     40.12654 
126820000    268.37082    317.55954    282.08855   -15.531967    15.058368     35.47099    40.127065 
126824000    277.39319    318.44178    291.31995   -15.861072    16.176256    27.121833     40.12636 
126828000     275.3881    321.25029    270.03951   -14.821773     16.29598    51.210784    40.127515 
126832000    281.72868    338.49533    293.41357   -15.211098    15.625619    45.081767     40.12389 
126836000    274.24257    338.72444    272.06544   -15.361138    15.862854    66.659001    40.124853 
126840000    275.02955    331.32247    271.87717   -16.062645    16.489954    59.445293     40.12517 
126844000    270.96023    314.93716    277.02736   -13.789851    16.853606    37.909799    40.124782 
126848000    270.81829    341.66675    267.16722   -15.806113    16.593758    74.499533    40.124378 
126852000    275.16868    316.65108    290.56256   -15.076683    16.139738    26.088522     40.12454 
126856000    272.99621    315.08262    293.82022   -15.483885    14.174301    21.262397    40.124632 
126860000    275.35883    318.44987    273.27955   -14.567618    16.449683    45.170318    40.127203 
126864000    271.98746    306.18811    283.98318   -13.779412    15.779738    22.204927    40.126027 
126868000    272.12312    299.49834    293.11064   -14.323465    14.070707    6.3877004    40.126183 
126872000    277.58982     338.0456    281.39851   -16.955938    14.200074    56.647087    40.125814 
126876000    272.54125    313.11804    289.89348     -14.0713    14.526659    23.224566    40.124897 
126880000    272.65573    313.40834    273.64929   -14.148055    15.469227    39.759049    40.125141 
126884000    267.82463    288.33458    286.98371   -13.220538    16.152263    1.3508664    40.124011 
126888000    275.94486    326.91677    276.90309   -14.257485    14.919248    50.013684    40.121993 
126892000    275.57733    330.88144     279.3693   -14.166801    16.163424    51.512143     40.12098 
126896000    279.47143    321.85955    296.42498   -13.378975    14.507787    25.434571    40.122493 
126900000    276.45045    345.39809    286.55147   -14.834307    15.143491    58.846621    40.122306 
126904000    264.23921    298.47634      285.886    -12.81717     15.75544    12.590333    40.124258 
126908000    273.96433    335.91033    295.90476   -15.547936    14.429362    40.005564    40.125859 
126912000    278.98668    336.29413    279.51326   -15.417703    15.279198    56.780867    40.125887 
126916000    272.31489    335.84061    268.43638   -15.234469    15.091086    67.404222    40.123649 
126920000    267.26878     324.0434    273.35796   -14.083264    15.114876    50.685441    40.125782 
126924000    278.09121    309.73249    285.86183   -15.177868    13.400717    23.870656    40.124273 
126928000    274.69644    312.22611    280.31813   -15.646837    14.603579     31.90798    40.125161 
126932000    272.90862    326.38285     273.0718   -15.429451    15.984007    53.311043    40.125111 
126936000    272.07943    312.17454    285.11443   -14.836776    14.054328    27.060109    40.127029 
126940000    273.18104    312.19514    279.53474   -14.730315    13.647414    32.660396     40.12856 
126944000    264.62561    309.02117     269.1779   -14.866844    15.630808    39.843276    40.129269 
126948000    276.52462    323.13155    295.69632   -14.342458    14.152388    27.435231    40.130678 
126952000    280.51582    326.03718    291.84298   -13.738572    14.612754    34.194207    40.131302 
126956000    279.23865     324.9386    298.10422   -14.008944    12.697508    26.834374    40.130476 
126960000    280.10056    317.10449    284.64066   -13.345372    14.955241    32.463835    40.131264 
126964000    272.20255    309.05825    271.86759   -13.003081    14.496421     37.19066    40.131785 
126968000    280.89101    321.27508    304.77472    -14.35144     13.91739    16.500362    40.133203 
126972000    275.86909    314.01655    277.21105   -13.647615    15.349425    36.805494    40.132598 
126976000     273.5768    331.29004    285.29076    -13.97033    14.679914    45.999286    40.132779 
126980000    273.86509    312.36194    289.30493   -13.340225    14.267972     23.05701     40.13297 
126984000    281.58279    313.52304    290.73078   -14.076873    13.803935    22.792254    40.134598 
126988000    272.58381    323.65793    288.90219   -15.393445    14.064397    34.755742     40.13664 
126992000    268.00699    298.69453    285.21214   -13.412551    14.982652    13.482385    40.134683 
126996000    287.42369    340.70031     302.7099   -15.834053    13.597498    37.990415    40.136694 
127000000    269.67061    303.73473    277.24401   -14.760203    14.526506    26.490725    40.136887 
127004000    274.93445    326.59394    282.46101   -15.831146    14.759767    44.132937    40.137717 
127008000    269.20393    307.28203     273.1278   -14.965583    15.004292    34.154229    40.135475 
127012000    281.88031    351.71018    282.36926    -16.34571    13.327013    69.340924    40.136404 
127016000    282.07513    346.93505    286.38809   -16.825422    13.648326    60.546955    40.136882 
127020000    275.76964    317.19792    296.87644   -15.694411    14.343888     20.32148    40.137706 
127024000    271.17998    321.92082    260.12935    -15.62067    15.766999    61.791473    40.138231 
127028000    268.17582    302.39883    274.24798   -15.275083    16.339042    28.150847    40.138967 
127032000    265.42284    305.12666    275.15128   -15.955597    15.155362    29.975382    40.137483 
127036000    271.84517    311.29353    283.85783   -14.986462    15.282217    27.435693    40.135234 
127040000    275.81181     329.6344    295.68941   -14.853951    13.706909    33.944984    40.133708 
127044000    265.84339    309.83906    276.97229    -13.89572    14.347317     32.86677    40.131208 
127048000    276.11029    327.80477    286.82401   -15.470576    14.512895    40.980758     40.12952 
127052000    278.70222    330.47262    270.71304   -15.264605    14.837939    59.759583     40.12974 
127056000    276.15674     319.2014    294.40189   -15.632933    14.322909    24.799508    40.128954 
127060000    271.83633    335.36319    273.59003   -14.887004    14.846618    61.773158    40.127242 
127064000    265.64542    327.89215    251.78877   -13.582644     16.29994    76.103383    40.128896 
127068000    269.00601     301.2236    276.16379   -13.572373    14.668378    25.059809    40.128467 
127072000    267.84821    287.59154    271.20375   -13.906892    15.927083     16.38779    40.127409 
127076000    273.33526    326.27402     272.8968   -15.249363    14.953368    53.377217    40.129581 
127080000    272.81726    306.59859    263.39236   -14.126469    14.654803    43.206231    40.127014 
127084000    287.04389    335.96268    293.64605   -14.558517    14.266019    42.316637    40.125217 
127088000    275.18446    325.32864    287.34627   -15.650791    14.169063    37.982378    40.125196 
127092000    287.27032    320.07993    296.51844   -15.351856    13.747909    23.561491    40.125446 
127096000    276.55014    324.56583    278.33261    -16.12998    13.972002    46.233222    40.123995 
127100000    285.06584    330.04683    290.31609   -16.799533    12.436722    39.730732     40.12328 
127104000    284.60761    325.29044    288.24927   -16.440963    13.338968    37.041165    40.122695 
127108000    276.95936    334.52688     286.6728   -17.080343    12.955719    47.854078    40.121355 
127112000    287.37023    323.12763    307.22343   -15.790816    13.223867    15.904203    40.121162 
127116000    275.13784    317.92876    276.82873   -16.112321    13.665758    41.100026    40.120127 
127120000    273.81302    308.48088    265.87828   -15.653367    13.770669    42.602599    40.119527 
127124000    274.99462     314.7079    260.43295   -15.352496    14.891177    54.274946    40.121326 
127128000    274.75291    331.58969    278.04256   -15.487199    14.746222    53.547139     40.12428 
127132000    272.14567    317.26544     270.0854   -14.629889    15.229731    47.180036    40.125298 
127136000    273.54709    323.64352    267.46438   -14.231183    14.870178    56.179134    40.124131 
127140000    276.45352    323.43682    274.08155   -15.570695    14.568674    49.355271    40.127188 
127144000    269.68138    318.65679      272.816   -14.688867    14.475906    45.840783    40.126068 
127148000     281.9186    353.73327    296.95468   -16.642792    13.886943    56.778596    40.124169 
127152000    278.76931    324.63244    273.27536   -15.110246    14.860927    51.357081    40.121973 
127156000    269.03776    320.50113    268.72939   -14.628378    15.536606    51.771744    40.119462 
127160000    273.86692     320.7556    282.35672   -13.726612    15.678992    38.398882    40.119532 
127164000    274.14404    312.55986    286.36444    -14.99907    15.061684    26.195427    40.120958 
127168000    273.75277    305.59585    294.37193   -13.910933     13.25533    11.223923    40.121022 
127172000    274.42543    329.11183    288.34846   -15.111426    14.889394    40.763374    40.121131 
127176000    274.87514    305.75755    278.55045   -14.033985    15.136261      27.2071    40.123027 
127180000    274.76588    315.87809    295.15681   -14.653611    14.591502    20.721285    40.122725 
127184000    282.67174    321.42958    296.07406   -16.966314    14.176406    25.355517    40.123995 
127188000    272.98101    319.70505    284.70217   -16.028565    15.154497    35.002881    40.125276 
127192000    276.37812    323.67543    284.47166   -15.416044    14.270337    39.203772    40.129208 
127196000    280.50122     304.3828    289.63876   -15.111271    14.866887    14.744038    40.127219 
127200000     276.1625    341.16819    289.32477   -16.135579    14.642923     51.84342     40.12854 
127204000    284.72369    320.53227    286.96674   -16.083569    14.323323    33.565528    40.128543 
127208000    279.56718    335.00378    290.36123   -16.920593    14.660268    44.642556    40.129347 
127212000    285.94319    333.70402    296.06497   -16.355539    14.037119    37.639052    40.129011 
127216000    273.86057    304.51007    269.67293   -14.103783    15.146269    34.837146    40.128378 
127220000    270.19859    309.21543    270.73899   -14.631632    13.726719    38.476438    40.128111 
127224000    277.52773    338.50635    274.00193   -16.287095    14.832062    64.504423    40.125989 
127228000    260.58909    293.38139    277.31891   -15.247332    15.270023    16.062473    40.127286 
127232000    277.87015     347.8397     279.3225   -15.886941    15.449493    68.517196    40.127467 
127236000    280.77318    314.47811    309.26941   -14.921272    13.544697    5.2086923    40.126166 
127240000    268.05681    305.54912    280.56576   -14.910829    14.117447    24.983366    40.125948 
127244000    270.10366    317.06156    274.47171   -15.420196    15.793322    42.589841    40.127593 
127248000    267.93806    305.51235    279.88761   -15.107492    14.650384    25.624747    40.127514 
127252000    271.32029    311.92121    280.93506   -14.777478    14.273147    30.986148      40.1278 
127256000    270.84667     299.0388    291.19348   -13.871589    13.687944    7.8453236    40.128085 
127260000    272.01646    330.10057    257.09515   -15.880041    15.955018    73.005425      40.1267 
127264000    278.49428    313.43147    290.88044   -15.368881    15.065705    22.551034    40.126186 
127268000     267.1752    308.49191    280.59653   -15.630785    14.436274    27.895379    40.125534 
127272000    276.33191    316.02025    288.17615   -15.285224    13.512914      27.8441    40.126249 
127276000    269.53721    312.67815     269.8831   -14.713613    15.168205    42.795048    40.125711 
127280000    277.75219    317.48729    303.68479   -16.418367    12.929978    13.802495    40.125934 
127284000    280.32005    335.74573    291.08679   -16.605456    14.450319    44.658941    40.125173 
127288000    273.61242    329.29675    259.95246   -17.158964    15.391135    69.344294    40.125368 
127292000     266.8515    291.96342    266.03011   -15.520661    15.607822    25.933309    40.124574 
127296000    268.31463    308.87415    267.80809   -14.520923    15.825135    41.066062    40.123539 
127300000    267.88968    302.51466    268.41136   -15.929655    15.554499    34.103305    40.123011 
127304000    272.97695    328.92933    264.63647   -16.373644    16.405904    64.292858    40.122287 
127308000    279.41461    323.82727     282.9306    -16.43495    13.946437    40.896667    40.120459 
127312000    275.67944    326.54229    272.84942   -16.364444    15.535649    53.692869     40.12036 
127316000    265.11239    305.09299     262.9078   -15.616805    16.024514    42.185189    40.122262 
127320000    278.83481    306.32089    292.50599   -16.305586    15.087869    13.814901    40.119855 
127324000    287.64926    340.22913    296.74938   -18.020347    16.296951    43.479742    40.120453 
127328000    282.93739    347.40978    296.97084    -17.05096    15.829678    50.438937    40.118545 
127332000     277.1293    307.73884     287.7644   -17.233558    16.485288    19.974443    40.117865 
127336000     274.0883    322.50699    286.23987    -17.47429    16.376121    36.267127    40.118538 
127340000    270.90367    341.23007    267.24743   -17.698481    17.434107    73.982648    40.118049 
127344000    280.25086    357.79357    276.58362   -18.214517    17.665048    81.209941     40.11772 
127348000    277.09173    328.00427    277.69392   -17.287146    17.380443    50.310355    40.117383 
127352000    285.41354    360.68881    295.37329   -19.089504    15.989909    65.315527    40.116896 
127356000    279.92745    343.47953    286.67206   -17.127088    17.079826    56.807471     40.11711 
127360000    263.10818    301.89049    281.52519    -16.77994    17.044124    20.365301    40.118367 
127364000    282.95976    326.08045    310.57684   -17.712439    15.837585    15.503609     40.12174 
127368000    275.17019    323.83084    281.36476   -17.423304    16.928783    42.466082    40.121579 
127372000    278.90892    333.78623     285.5204   -17.822695     17.44964    48.265835    40.122853 
127376000    272.82877    325.93158    282.16322   -17.329632    17.392972    43.768367    40.121465 
127380000     266.1729    338.73079    271.48905   -18.329965    16.134548    67.241735    40.122631 
127384000    275.26942    312.85122    271.83097   -16.812727    17.159963    41.020242    40.122583 
127388000    264.35023    301.44491    271.54229   -15.617152    15.623295    29.902621    40.120176 
127392000    273.68769    329.02437     283.7185   -17.151166    16.291822    45.305864    40.119997 
127396000    275.54919     318.8177    269.73307   -15.719018    17.375597    49.084633    40.122253 
127400000    268.76973    316.43592    277.85178   -15.070097    17.037191     38.58414    40.121078 
127404000    282.29248     325.5037    291.93316   -15.822158    15.723179    33.570538    40.120462 
127408000    267.08487    311.24353    269.74946   -16.184807    16.452193    41.494067    40.121213 
127412000    279.96762    329.31752    274.91231    -16.93897      16.7149    54.405214    40.122277 
127416000    275.43526     347.7867    289.53892   -18.028073    17.023331     58.24778    40.121477 
127420000    272.84406    326.62694    272.15622   -16.280373     17.33551    54.470721    40.122198 
127424000    273.55643    331.33878    273.50206   -16.397096     16.75676    57.836715    40.123012 
127428000    275.33965    325.93042    279.26405   -16.485871    16.549263    46.666375     40.12438 
127432000    281.34099    337.50572    289.61969   -17.700538    16.257147    47.886036    40.125611 
127436000    275.45089    332.82844    282.18153   -18.268213    17.575938     50.64691    40.128141 
127440000     270.2064    310.27751    272.96198    -17.46834    18.057303    37.315526    40.129806 
127444000    277.52684    307.94824    306.53559    -16.72987    16.132646    1.4126479    40.128246 
127448000    282.25589    342.09817    281.40385   -19.026609    17.413272    60.694321    40.129104 
127452000    269.15417    310.56335    270.73736    -17.04842     18.29548     39.82599    40.128616 
127456000    262.16166    291.26055    269.23268   -15.341168    18.647742    22.027872     40.13029 
127460000    270.73689    312.47045    283.99041   -16.080507    17.803847    28.480037    40.131098 
127464000    281.19144    336.27772     284.7447   -16.892355    16.620057    51.533027    40.129612 
127468000     271.3384    309.80943    283.40689   -17.819691    17.215577    26.402541    40.127616 
127472000    273.18226    318.53823    290.82336   -16.804045    17.649244    27.714864    40.127414 
127476000    284.25848    358.71711    274.99526   -18.182825    17.734536     83.72185    40.126535 
127480000    277.70702     332.0298    292.07198   -18.404601     15.93532    39.957825    40.129944 
127484000     274.3043    313.49881    285.49992   -16.830512    16.680069    27.998896    40.129345 
127488000    277.40428    321.21559    288.19267   -17.717095    17.025002    33.022926    40.129199 
127492000    278.77707    302.51591    302.96833   -16.364177    16.463083  -0.45241392    40.127436 
127496000    285.52593    341.80057    290.61631   -17.825441    16.322691    51.184263    40.127622 
127500000    263.67399    305.49486     272.2719   -16.945305    16.427662     33.22296    40.127961 
127504000    276.41514    306.29086    285.31634   -16.691388    15.530081    20.974518    40.127686 
127508000    273.12827    321.69371    274.50336   -18.172553    16.453779    47.190349    40.128239 
127512000    281.10189    324.93196    278.37425   -18.103942    16.798297    46.557715    40.130135 
127516000    279.07459    306.15189    299.84324   -16.909612    14.656636    6.3086418        40.13 
127520000    268.95602    307.83766    286.73563    -16.22026    16.883191    21.102032    40.132343 
127524000    282.84931    334.16313    291.32996   -18.570917    14.976186    42.833176     40.13254 
127528000    277.78041    348.08191    266.55125   -19.429301    16.296805    81.530656    40.132685 
127532000    266.90486    303.04126    270.80144   -17.040761     15.95352     32.23982    40.131596 
127536000    274.91417    312.01243    277.60374   -16.673165    16.591587    34.408686    40.130637 
127540000    273.06936    314.26857    278.31682   -17.265494    15.889009    35.951747    40.132199 
127544000    270.31462    316.45423    288.16865   -16.196367    15.496376    28.285576    40.133447 
127548000    271.79399    313.69359    272.69511   -16.279911    16.644161     40.99848     40.13395 
127552000    282.10398    328.58367    280.77497   -17.764025    15.041688    47.808697    40.133741 
127556000    281.50103    332.64644    300.34674   -17.030792    14.874488    32.299701     40.13127 
127560000    278.15113    322.77011     281.6833   -16.717117     15.10637    41.086808    40.129374 
127564000    282.07463    323.48581    279.25907   -17.017921    16.758519    44.226738     40.13016 
127568000    270.96668    311.54921     269.6892   -17.521259    16.412157    41.860014    40.128222 
127572000     276.3166    322.98091    281.23362   -17.278947    15.386627    41.747291    40.127181 
127576000    278.09371    313.38542     280.6147   -17.027415    15.212217    32.770717    40.128366 
127580000     276.2101    306.33703    278.02633   -16.825942    14.694907    28.310708    40.129291 
127584000    276.41418    287.41609    282.53314   -15.809656    15.407774     4.882946    40.129899 
127588000    283.03491    334.12496     280.2919   -18.197044    15.209959    53.833059    40.127121 
127592000    277.06098    300.68321    297.76054   -16.105202    14.392926    2.9226732    40.127222 
127596000    272.12716    297.81322     288.0903   -15.503356    15.820506    9.7229285    40.126769 
127600000    279.05441    319.70656    282.43085   -17.526135    16.180542    37.275714    40.125541 
127604000    279.89148    339.49435    279.21595   -17.088023     16.58237    60.278402    40.124341 
127608000     273.9124    332.65523    275.37632   -18.119962    16.708342    57.278904     40.12427 
127612000    275.69175    308.07877    292.76756   -17.120244    16.493897    15.311212    40.124028 
127616000    276.74083    317.43738    289.45807   -16.653163    16.969208    27.979314    40.122958 
127620000     277.6076    344.97171    273.17296   -17.916183    16.497043    71.798751    40.122751 
127624000    278.77692    341.14389    285.61359   -18.773412    15.707711    55.530298    40.124369 
127628000    276.83739    322.88055     285.1427     -17.4722    16.451652    37.737855    40.125041 
127632000     281.4103    331.37455    280.94907   -18.384356    16.226834    50.425481    40.121647 
127636000    277.05988    333.68492    285.30851   -18.214781    16.293151    48.376413    40.121809 
127640000     274.1987    304.03045    286.96945   -16.778738    16.460707    17.060998    40.122336 
127644000    283.32403    333.57932    284.33866   -18.793327    16.514783     49.24066    40.122161 
127648000    275.37127    331.31013     274.9053   -17.833803    17.933471     56.40483    40.121225 
127652000    281.86395    339.07783    268.82395   -18.536784    17.448575    70.253885    40.120341 
127656000    273.18411    318.18873    263.44823    -19.25037    17.614494    54.740499    40.119086 
127660000    273.89727    314.80673    268.58434   -17.542281    17.075649    46.222391    40.119406 
127664000    271.81803    321.60166    292.97794   -16.621442    16.516046     28.62372    40.116476 
127668000    274.43918    308.18436    286.06819   -16.936864    16.125766    22.116173    40.117142 
127672000    283.97445    330.66437    289.99989   -17.490845    16.688672    40.664479    40.117592 
127676000    267.12734    307.14287    257.72289   -16.327596    18.850197    49.419976    40.118651 
127680000    275.67684    306.75599    271.22323   -16.191596    17.532553    35.532758    40.117691 
127684000    272.21397    325.45653    273.25323   -18.252036    16.972999    52.203303    40.116724 
127688000    277.48025    326.64142    283.74691   -17.655707    16.163035    42.894514    40.114222 
127692000    273.28236    318.32262    284.03829   -18.025642    17.218931    34.284334    40.111975 
127696000     268.3068     313.1467    281.70811    -15.51316    15.655231    31.438594    40.110941 
127700000    274.94713    312.40365     277.8645   -16.816396    16.706836    34.539159    40.110008 
127704000    268.83845    325.27399    264.21921    -16.81842     18.85702    61.054784     40.11011 
127708000    268.77564    307.84846    285.37281   -16.105287    17.423908     22.47565    40.111006 
127712000    277.30647    325.91644    275.31177   -16.668212    18.146359    50.604675     40.10987 
127716000    269.02496    312.39223    280.71934   -16.286596    17.149707    31.672887    40.107849 
127720000    267.08221    307.10316    288.94699   -15.453744     16.89762    18.156164    40.106523 
127724000    271.16802    327.37099    275.94809   -15.489656    17.546222    51.422895    40.106386 
127728000    269.76819    301.74029    287.25878   -15.556647    17.775111    14.481512    40.106247 
127732000    274.20834    322.99586    277.50451   -16.999761    17.723201    45.491345    40.105704 
127736000    279.24876    330.88852    305.00488   -17.245093     16.45519     25.88364    40.105268 
127740000    266.83587    310.47333    285.55171   -16.527331    18.229898    24.921619    40.105204 
127744000    256.88622    302.58125    263.15979   -16.426763    19.504287    39.421463    40.104233 
127748000    267.12963    309.20579    283.58326   -17.418503    17.460851    25.622526    40.103756 
127752000    274.27021    342.57467    278.37165   -17.962124    17.921657    64.203019    40.105222 
127756000    274.06838    327.23278    271.43088   -18.175827    18.768531    55.801902    40.105784 
127760000    283.07759    351.32745    284.32313   -18.577045    17.175139     67.00432    40.106317 
127764000    271.09793    347.51148    254.90029   -18.657334    18.650375    92.611195    40.106118 
127768000    280.74894    326.65646    295.34388   -17.183642    17.567711    31.312576    40.104886 
127772000    270.87626    312.35661    287.53869   -16.920202    17.306838    24.817911      40.1035 
127776000    263.53062    306.80714    269.23763   -16.055554     17.25802    37.569518    40.102748 
127780000    266.64683    318.55498    265.07981   -17.025631    16.563736     53.47517    40.102817 
127784000    281.56942    326.80897    294.88058   -16.571771    15.773406    31.928397    40.100962 
127788000     269.5029    319.07076     260.5933   -17.109727    18.134565    58.477461    40.100156 
127792000    272.40848    320.24512    262.22854   -17.348363    17.458306    58.016578    40.102556 
127796000    282.98743    322.07667    273.73293   -17.479913    15.919514    48.343737    40.102405 
127800000    268.31232    324.18579    263.56123   -17.728235    17.883846    60.624554    40.102566 
127804000     276.5211    334.55797    287.21103   -17.732427    17.294984    47.346936    40.101322 
127808000     275.3808    313.47134    283.45524   -16.283747    16.185179    30.016102    40.101949 
127812000    262.34491    301.71402    264.68123    -15.76258    17.190199    37.032785    40.104482 
127816000    277.29865    312.83724    293.04379   -16.942342    16.499583    19.793451    40.104823 
127820000    268.94135    309.79853    273.86374   -16.996211    17.007486    35.934792    40.104969 
127824000    271.55829    311.57455    273.42203    -17.22803    16.171172    38.152526    40.104829 
127828000    287.34328    325.97963    291.23426   -17.086855    16.062618    34.745367    40.104807 
127832000    278.57627    344.15358    265.04575    -18.84719    17.267075    79.107824    40.108424 
127836000    273.05611    311.60228     261.7013   -17.629853    17.123781    49.900975    40.108637 
127840000    283.38499    324.67185    296.56451   -18.884547     15.40421    28.107343    40.108275 
127844000     281.9451    312.26451    289.42245   -17.982447    16.004761    22.842065    40.107832 
127848000    285.57331    337.78394    303.69742   -19.470876    15.326078    34.086519     40.10871 
127852000    282.41154    340.73949    261.58367   -19.147242    18.036408    79.155818    40.110224 
127856000    284.35712    313.78482    296.90789   -18.618247    16.277382    16.876927    40.111752 
127860000    276.86508    322.29045    278.80321   -18.195751    16.750599    43.487236    40.110819 
127864000    283.46131    323.89616    284.25598   -16.800522    15.132593    39.640185     40.11131 
127868000    266.92777    304.01546    260.13112   -17.227249    17.886654    43.884342    40.110944 
127872000    272.70435    302.61291    287.75093   -15.702161    16.134824    14.861974     40.10989 
127876000    279.25099    320.88595    274.07718   -16.931279    16.746285    46.808771    40.109499 
127880000    272.30776    331.60237    266.33884   -16.846365    18.311647    65.263535    40.109874 
127884000    276.40356    319.80642    276.66067   -16.520313    17.816849    43.145747    40.110093 
127888000     274.6768    325.24169    268.52385   -16.893935    18.252507    56.717836    40.111103 
127892000    274.81263    321.54899    285.86517   -15.480921    17.431717    35.683818    40.109245 
127896000    270.05239    299.98533    277.25859   -16.022176    17.407494    22.726742      40.1092 
127900000    276.48423    325.18278    290.42673    -17.61544    16.170669    34.756046    40.110437 
127904000    267.53635    321.00474    262.17055   -16.456021     17.80725     58.83419     40.11151 
127908000    264.58198    315.58228    263.63313   -16.167897    18.153128    51.949147    40.112755 
127912000    276.02486    322.22841    289.78842   -16.722202    17.524609    32.439992    40.111263 
127916000    269.41703     318.1112    273.83436   -18.109121    17.354898    44.276844    40.111924 
127920000    273.26332    318.00823    283.34531   -17.141799    16.108394    34.662922    40.111784 
127924000    279.79798    313.31254    294.61042   -16.945335     16.05139    18.702122    40.110657 
127928000    268.25257    322.65061    275.53978   -16.362622    17.445812    47.110831    40.109851 
127932000    277.44982     319.3629     295.5495   -16.817012    16.258654    23.813402    40.109151 
127936000    288.26881    348.71926    310.65422   -20.024099    15.686428    38.065038    40.107645 
127940000    276.65427    319.11634    270.20979   -17.974834    17.468627    48.906553     40.10905 
127944000    277.41601    334.30026    282.36506   -18.029113    16.820202    51.935202    40.109455 
127948000    279.42155    323.23438    293.87317   -17.960752    16.572559    29.361218    40.109377 
127952000    276.88085     305.6472     284.5714   -16.528781    16.480277    21.075808    40.108182 
127956000     266.6217    324.97005    260.22598   -18.852153    17.861236    64.744071    40.108516 
127960000    273.43674    315.77357    288.19525   -18.154602    16.498042    27.578314    40.105691 
127964000     273.3144    321.18268    268.80292   -18.465671    18.077917    52.379753    40.105236 
127968000    282.56786    335.26801     286.9849   -17.878023    17.296734    48.283112    40.105208 
127972000    269.90196    303.95589    279.09768   -18.288636    17.733622    24.858212    40.107217 
127976000    269.03663     300.0499    270.75826   -17.848727    18.656979    29.291639    40.107729 
127980000    276.18892     315.2731    296.13979    -18.13021    17.835465    19.133305    40.107734 
127984000    278.17291    324.05386    277.87098   -19.045871    18.399071    46.182875      40.1091 
127988000    276.83222    316.06637    277.90013   -17.538733    18.733968    38.166236    40.106916 
127992000    280.95709    319.38383    295.77996   -17.960021    17.024906    23.603873    40.108204 
127996000    271.80063    328.54038    290.34626   -18.515198    17.551176    38.194124    40.105381 
128000000    274.04067     306.7809    300.64631   -16.595331    16.989396    6.1345905     40.10385 
128004000    267.96517    322.16019    248.64066   -17.960073    19.227854     73.51953    40.103614 
128008000    279.36219    335.06741    280.66439    -18.43183    17.461355    54.403016     40.10304 
128012000    270.44474    319.36995    280.10604   -17.674859     18.16702    39.263911     40.10458 
128016000     267.6416    305.08955    268.60732   -16.980042    17.722427    36.482234    40.105212 
128020000    268.85062     304.7208    278.90132   -16.298044    16.926181    25.819477    40.105396 
128024000     274.1152    330.83787     287.4996   -18.458694    16.658631    43.338264    40.104175 
128028000    274.99568    309.10116    298.54917   -16.765486    15.788161     10.55199    40.103863 
128032000    272.62051    312.41796    274.40643   -15.185679    18.077212     38.01153     40.10095 
128036000    265.55523     311.0693    268.95675   -16.195595    18.061405     42.11255    40.100339 
128040000    273.41882    327.22143    289.24751   -17.308686    18.589855    37.973914    40.098825 
128044000    273.32739    325.52728    286.79524   -17.906262    18.330874    38.732043    40.098273 
128048000    265.19637    326.64641    293.98448    -17.85631    17.932709    32.661933    40.096519 
128052000    267.57903    337.34735    272.30719   -16.842662    18.205508    65.040167    40.096369 
128056000    263.00389    312.15999    288.46966   -16.125029     17.50518    23.690332    40.095409 
128060000    271.85848    331.01618    286.31955   -18.408793     16.71422    44.696633    40.095788 
128064000    266.04745    313.23036    277.26988   -16.234679    18.658631    35.960486     40.09496 
128068000    264.33101     309.0409    277.27132   -16.653581    18.511641    31.769585    40.096114 
128072000    270.81707    306.15075    286.52741   -15.923285    16.913458    19.623347    40.095119 
128076000    271.41909    326.81954    275.96287   -17.223069    16.757359    50.856672    40.095628 
128080000    266.96305    307.08533    260.96862   -16.947389    18.316167    46.116709    40.097165 
128084000      269.457    320.69432    263.97549   -17.121031    18.459114    56.718827    40.098037 
128088000    271.72013    314.11482    279.29786   -17.004025    18.017932    34.816959    40.098607 
128092000    264.46401    319.57412    266.05728   -17.334525    18.872555    53.516836    40.096635 
128096000    268.69934    314.04075    276.14625   -17.423624     17.94488    37.894496    40.096067 
128100000    275.50882    312.83127    312.45926   -16.222098    16.936003   0.37201217    40.094365 
128104000    280.57459    337.04033    280.51607   -17.365096    17.375022     56.52426    40.093575 
128108000    287.04072     334.3646    307.86918   -17.735056    16.542037    26.495417    40.092675 
128112000    263.85112    314.80495    271.31655   -17.276599     18.34282    43.488401    40.092755 
128116000    271.86553    291.45506    293.77613   -15.693428     16.84483   -2.3210695    40.092112 
128120000     270.4929    312.03871    284.88131   -16.875679    16.956732    27.157406    40.091168 
128124000    260.37568    307.91433    264.93128     -16.1514    17.742732    42.983049    40.091884 
128128000    266.96434    320.68076    263.37962   -16.979367    18.109412    57.301136     40.09198 
128132000    283.32011    336.20036    305.73314   -17.848458     17.04065     30.46722     40.09157 
128136000    275.06605    326.63431    267.82718   -17.651648    18.309944    58.807133    40.091245 
128140000    278.19348    322.88982    302.31728   -17.964206    16.442618    20.572536    40.091534 
128144000    261.59354    295.99964    269.43586   -17.506374    18.160655     26.56378    40.090454 
128148000    275.90096    325.47883    282.63156   -17.487009    16.971856    42.847272    40.090722 
128152000    271.21531     312.4886     275.3201   -16.896627    17.529572    37.168504    40.090582 
128156000    279.05005    330.64297    285.46404   -17.562116    16.969205    45.178933    40.089571 
128160000    271.50923    323.92785    282.01158   -16.858735     16.95292    41.916271     40.08763 
128164000    277.68358    333.80158    281.48959   -18.489889    16.546571    52.311992    40.088681 
128168000    285.13386    334.37557    267.99172   -18.834672    17.639682    66.383855    40.089089 
128172000    278.37033    322.99908    283.87345   -18.336171    16.997548    39.125627    40.088158 
128176000    286.15052    337.85533    310.28274    -19.14778     16.03297    27.572584    40.090044 
128180000    267.25504    304.48094     273.9312   -18.098865    17.972603    30.549741    40.091721 
128184000    278.92218    331.36684    287.78706   -17.978345    15.780364     43.57978    40.093307 
128188000    274.67964    319.47392    273.59106   -17.636844    17.345374    45.882863    40.093055 
128192000    279.88308    316.93265    293.17381    -17.11126    16.314501    23.758838    40.095038 
128196000    271.52889     299.5195    270.46338   -17.364797    17.123716    29.056124    40.093666 
128200000    275.76833    332.31267    278.25194   -19.612109    16.142995    54.060733    40.094431 
128204000    282.15561    338.29236     300.8479   -20.197233    16.253512    37.444457    40.093908 
128208000    282.45908    324.83361    299.24414   -18.457572     15.67563    25.589468     40.09369 
128212000    276.86534    318.74326    278.81055   -18.662801    16.083118    39.932712    40.095743 
128216000     270.8532    310.06579    276.70073   -18.379963    17.007449    33.365059    40.095792 
128220000    275.31525    315.36348    293.87525   -17.353114    17.583748    21.488233    40.095023 
128224000    278.57132    330.57865    298.92103   -18.433949    16.901716    31.657621    40.094666 
128228000    268.90512    309.94813    281.94287   -17.840166    18.509527     28.00526    40.097016 
128232000    274.10168    306.15348    277.53776   -16.768193    17.465065    28.615718    40.097106 
128236000    277.99963    336.14256    276.81021    -19.09629    17.789311    59.332349    40.097406 
128240000    275.35571    324.17142    266.40508   -19.304397    18.487754    57.766338    40.096375 
128244000    271.30671    293.08768    297.69595    -17.37459    17.162297   -4.6082725    40.094766 
128248000    283.68266    335.22062    280.85828   -19.007658    18.648699    54.362342    40.094584 
128252000    267.75816    294.16588    276.03539   -17.619199    17.756437    18.130498    40.094923 
128256000    276.37594    313.83102    280.37611   -18.866746    18.139861    33.454914    40.095528 
128260000    284.99883    339.79079    292.39078   -20.259152    17.813595    47.400015    40.094153 
128264000    270.71171    313.44644    257.73087   -18.949925    18.818501    55.715569    40.095623 
128268000    276.89898     317.0703    275.96612   -20.094362     18.46582    41.104188    40.093865 
128272000    277.66683    329.56689    273.32821   -20.749959    18.791564    56.238676    40.095261 
128276000    277.09136    328.55409    267.01222   -21.415754    18.386666    61.541868    40.096119 
128280000    284.75129    322.50455    279.45987     -19.4299    18.100951    43.044684     40.09815 
128284000    290.40302    351.62292    302.08947   -20.678489    17.246036    49.533449    40.099297 
128288000    275.21089    320.02936    279.22624   -19.659477    17.360459     40.80312    40.098926 
128292000    275.19622    277.12474     287.2329   -17.426277       16.908   -10.108159    40.097045 
128296000     273.2081     309.2986    267.27746   -19.698812    17.870288    42.021136    40.099046 
128300000    280.50536    328.32287    274.76479   -21.896542    16.978452    53.558084    40.098533 
128304000    282.04285    311.42706    300.46619   -20.309917    16.001268    10.960869    40.096344 
128308000    277.28092     318.0179    254.59139   -19.671538    18.077578    63.426509    40.096825 
128312000    276.08687    318.27731    271.14834   -20.359518    18.732344    47.128972    40.097712 
128316000    278.85887    318.84137     268.4185   -19.938767    18.291818    50.422875    40.099154 
128320000    281.21855    326.05199    289.84752   -18.816592    16.851475    36.204466    40.099382 
128324000    273.76323    344.80617    264.60003   -19.753225    18.246735    80.206142    40.099426 
128328000    283.92359    331.13142    292.64736   -19.712188    16.604451    38.484055    40.098648 
128332000    275.14172    335.16525     281.5712   -20.075014    18.170506    53.594052    40.099245 
128336000    273.88264    318.07418    261.47748   -17.748348    18.878193    56.596708    40.100096 
128340000     278.9238    331.08164    278.28568    -20.00917    17.509653    52.795966    40.099763 
128344000    277.68689    312.50633    293.18318   -18.569119    17.124173    19.323143    40.099846 
128348000    277.82564    305.28728    284.24514   -18.765109    17.691974    21.042137    40.099275 
128352000    272.44605     314.4334    274.11191    -18.59029    18.809649    40.321488    40.099095 
128356000    280.76862    329.97947    273.27445   -20.446732     18.03682    56.705018    40.096619 
128360000    284.09491    314.03862    301.21454   -19.174182    16.471929     12.82408    40.095715 
128364000    272.61835    311.76315    277.17215   -18.773992    17.910559    34.590996    40.095487 
128368000    275.17326    335.06248    259.77491   -19.533519    18.141992    75.287569    40.097045 
128372000    282.50819    345.66537    261.57563   -20.910754    18.337982    84.089742    40.098005 
128376000    286.41638    327.15189    296.19737   -18.555686    16.502496    30.954515    40.098305 
128380000     279.4112    317.45089    292.69219     -17.7655    16.418913    24.758695    40.099048 
128384000    276.30023    338.52911    268.25483   -18.385088    18.026982     70.27428    40.098104 
128388000    278.15656    308.99092    278.92545   -17.340418    17.258377    30.065469    40.098557 
128392000    267.68702    313.23687    271.45327   -18.378946    17.690823    41.783595    40.097755 
128396000    275.02116    295.26178    300.09105   -18.193953    15.963504   -4.8292698    40.096375 
128400000    283.34185    314.65902     270.8963   -19.023882    17.828284    43.762726    40.096566 
128404000     271.2476    303.66354    287.66506   -18.732368    16.678272    15.998481    40.095329 
128408000    282.30852      346.795    275.53588   -21.648972    17.818297    71.259121    40.095632 
128412000    269.10256    298.87384    268.05712   -18.410545    17.732201    30.816727    40.095245 
128416000    283.88898    337.70926      274.164   -19.522738     17.54044    63.545263    40.098027 
128420000    287.81987    347.01298    288.47011   -19.945321    17.021774    58.542877     40.09751 
128424000    274.56335    319.44611    275.72799   -19.761764    17.717626    43.718124    40.094794 
128428000    283.26199    303.54294    311.53189   -17.694691    16.901287   -7.9889456    40.096289 
128432000    275.03988    325.64609    259.32828   -18.767538    19.194536    66.317814     40.09912 
128436000    274.82815    320.44797    284.15104   -16.973327    17.731998     36.29693    40.098396 
128440000    271.90441    321.00263    274.00633   -18.158834    18.187131    46.996291     40.09653 
128444000    279.09727    367.55153    272.40451   -21.045909    17.770008    95.147021    40.096044 
128448000    275.64151    333.13525    281.50007   -19.178077    17.841926    51.635178    40.096874 
128452000    279.78573    313.11457    272.07176   -19.068063    18.364245    41.042809    40.097894 
128456000     276.1318    329.05351    286.07241   -19.759656    19.189001    42.981095    40.100344 
128460000    286.19562    336.34268    289.82814   -19.164705    17.119901    46.514534    40.099776 
128464000    276.94557      318.194    278.34901   -19.913919    16.967079    39.844995    40.099814 
128468000    269.43078    301.31511    282.17385   -17.472847    17.597174    19.141257    40.098862 
128472000    271.05873    313.12322    272.55274   -19.029306    18.419597    40.570476    40.097913 
128476000    276.84554    334.07558    269.68681   -21.011344    18.362496    64.388775    40.095281 
128480000    266.25688    307.63632      273.053   -18.078558    19.053715    34.583326    40.095834 
128484000    273.50401     333.7759    266.37072   -19.699022    19.242543    67.405177    40.094527 
128488000    277.97802    322.09052    289.65089   -18.680797    18.365024    32.439626    40.095732 
128492000    272.05485    299.28242    293.86545   -18.413233    17.738344    5.4169706      40.0993 
128496000    274.08131     331.2606    254.25876   -19.348744    19.721922    77.001842    40.100128 
128500000    281.07131    336.27507    286.64582   -19.887483    18.346886     49.62925    40.100915 
128504000    277.46025    333.60393    268.43291   -19.626422    18.558032    65.171022    40.100876 
128508000    276.72996    316.52038    275.32221    -18.49798    19.208757    41.198165    40.103349 
128512000    278.01602      314.818    295.93384   -17.794641     17.78052     18.88416    40.104919 
128516000    271.38687     316.0804    280.87328    -17.90456    18.414886     35.20712    40.102167 
128520000    287.70813    341.01291     294.6581   -19.548793    16.994366    46.354805    40.102707 
128524000    285.73124      323.203    301.13905    -17.38731    17.960979    22.063944    40.101427 
128528000     272.3718     320.3594    289.37723   -17.425396    19.116957    30.982169    40.101053 
128532000    265.78819    324.50604     272.1126    -17.86531    20.235314    52.393447     40.10057 
128536000    269.90785    319.66556    261.83792    -17.16085    20.054846    57.827638    40.100171 
128540000      277.536    325.00223     286.0099   -18.147192    17.549169    38.992336    40.100384 
128544000    269.23165    295.11087    293.39265   -16.811007    17.015461    1.7182253    40.101642 
128548000    289.33802    348.13449    307.58925   -20.027046    16.598379    40.545239    40.100831 
128552000    273.12343    324.54374    281.69266   -17.719715    18.769675    42.851078    40.102957 
128556000    274.49579    323.97063    270.19128   -17.921698    19.371121    53.779353    40.104487 
128560000    275.27388    315.70247    288.84063   -18.910012    18.099414    26.861838    40.105304 
128564000    276.62226     324.3931    283.63837   -18.405537    18.579687    40.754732     40.10533 
128568000    277.29063    331.85657    292.11357   -19.910889    18.159715    39.743006    40.106357 
128572000    272.59794    306.69972    286.75787   -17.277344    18.648635    19.941852    40.106075 
128576000    273.71804    313.95775    275.01556   -17.340333     19.53151    38.942193    40.105385 
128580000     259.5423    306.61302    267.48892   -18.306388    18.898779    39.124107    40.107223 
128584000    270.24291    316.22967    279.08844   -18.896561    17.698269    37.141229    40.106639 
128588000    267.49867     292.0054    276.58653   -17.687319    18.626165    15.418865    40.107124 
128592000    275.92184    322.21802    281.46489   -18.281591    17.825145    40.753135    40.106581 
128596000    270.08164    318.86516    263.83126   -18.359999    19.329586    55.033894    40.106286 
128600000    287.95034    335.71997    296.45707   -19.195004    17.706458    39.262904    40.105935 
128604000    278.44264    347.06079    270.77512   -19.968312    18.813313    76.285678    40.106294 
128608000     267.0132    302.62418    252.20511   -18.802006    19.023911    50.419064    40.106973 
128612000     276.8857     326.2525    273.04418   -19.800468    18.508675    53.208325    40.106921 
128616000    265.18193    313.15282    255.44072   -18.713797    19.053035    57.712095    40.109148 
128620000    275.14973    315.28724    273.10799   -17.586496    19.002628    42.179252    40.109002 
128624000    270.73956    325.21667    279.59549   -17.520747    18.649865    45.621172    40.109765 
128628000    274.24475    338.20915    268.68943   -19.262539    19.324249    69.519711    40.109767 
128632000    280.39746    328.07848    295.93072   -17.935931    18.339715    32.147759    40.108678 
128636000    279.90401    323.98168    285.37031   -19.543795    18.495068    38.611371    40.109131 
128640000    270.23519    315.87966    270.49982   -19.719902    20.138286    45.379845    40.110263 
128644000    272.40666    326.00585    269.63072   -18.910182    18.647923    56.375138    40.109276 
128648000     286.3364    349.49448    283.01932   -21.197834      18.2792    66.475152    40.110615 
128652000    272.88715    306.67293    273.60828   -18.412002    18.134843    33.064654    40.110175 
128656000    279.38077    331.49397    279.71809   -18.834347    18.650222    51.775876    40.110399 
128660000    267.12286    296.74576    273.01243   -18.217146    19.559663     23.73333    40.110154 
128664000    273.33628    320.04927    295.62614   -18.493014    17.941143    24.423132    40.110471 
128668000    272.60808    310.19862    285.47351   -17.352378    19.249943    24.725114    40.111331 
128672000    277.86959    333.08511     284.9053   -18.532066    19.134217     48.17981    40.109545 
128676000    271.73842    332.59069    285.47922   -18.346538    19.769139    47.111466    40.109697 
128680000    269.68126    309.08204    276.54324   -18.522411    18.927243    32.538797    40.109384 
128684000    270.74949    317.74228    281.21332   -19.623967     18.99488    36.528954    40.109113 
128688000    275.65088    323.58376    284.86537   -19.078459    18.494102    38.718394     40.10855 
128692000    277.17567    329.96728    301.08886   -19.236468    18.040653    28.878415    40.108545 
128696000    274.42441    308.95758    286.07031   -18.039425     18.65317    22.887277      40.1098 
128700000    272.80198    323.55808    276.87346    -19.21402    18.731257     46.68462    40.111157 
128704000    277.71636    306.79125     296.0198   -17.437548    17.226522    10.771451    40.111796 
128708000    262.96205    283.72775    285.09627   -16.682768    18.370779   -1.3685268    40.109466 
128712000    267.10181    289.90116    274.55425   -17.521764    20.027445    15.346907    40.110461 
128716000     272.1723    315.60057     281.4442    -19.01898    17.689027     34.15637     40.10945 
128720000    280.51497    332.94436    312.96371   -18.655804    16.946779    19.980644    40.107344 
128724000    273.45292    305.96123    288.39152   -19.711158    17.967032    17.569704    40.106487 
128728000    277.95207    331.53093    280.98464   -20.036854    17.611232    50.546288    40.107648 
128732000    274.77281    321.48388    260.67556   -19.717085    19.314062     60.80833     40.10912 
128736000    280.10998    329.12974    283.79206   -19.836695    18.399371    45.337683    40.110976 
128740000    277.67982    336.25895    290.02603   -20.638516    18.876537    46.232917    40.109736 
128744000    280.94401    314.76921    279.22114   -20.137802     18.68564    35.548075    40.109434 
128748000     273.5551    330.89463    267.81326   -19.409349    18.550939    63.081375    40.108745 
128752000    281.67618    323.70833    283.97106    -19.77396    18.403323     39.73727    40.108622 
128756000    279.70528    317.77929    283.07087   -18.945575     18.70129    34.708415     40.10852 
128760000     278.1172    304.59847    268.45665   -17.620582    18.922527    36.141817     40.10783 
128764000    283.92192    315.77539    304.55327   -17.666021    16.962443    11.222116    40.107295 
128768000    283.18314    327.56138    286.86702   -19.215991    18.357577    40.694365    40.106445 
128772000    268.11121     313.0978    272.67057   -19.945187    18.477353    40.427229    40.105384 
128776000    270.14367    304.62718    282.09961   -18.654747     18.00789    22.527565    40.103543 
128780000    271.37693    314.11626    274.92365   -18.982954    17.957326    39.192605    40.103213 
128784000    277.64364    306.81163    296.60643   -18.207312    17.240658    10.205209    40.104148 
128788000     276.4267    292.11322    288.21287   -18.377552    16.729459    3.9003521    40.104053 
128792000    278.13028    327.84038    273.48847   -20.276363    16.422296    54.351908    40.104329 
128796000    270.88573    312.56056    268.45384   -19.002156    18.228652    44.106722    40.104767 
128800000    274.26019    309.77625    275.05419   -19.963672    17.379125    34.722057    40.105366 
128804000    280.86663    321.66959    283.87721   -19.979525    17.293872    37.792383    40.104924 
128808000    289.43793    340.57538    297.32365   -21.741911    17.409845    43.251727    40.103708 
128812000    279.75182    302.02274    292.85315   -18.705384    17.818662    9.1695944    40.102115 
128816000    277.47309    330.71594    288.28572   -20.873236    17.456029    42.430228    40.100138 
128820000    278.03165     328.0095    300.91247   -19.050255     16.59025    27.097029    40.099178 
128824000       284.33    311.55334    295.50111   -19.249899    17.441681    16.052229    40.097846 
128828000    281.06341    325.79102    303.48837   -21.778473    17.145466    22.302649    40.097368 
128832000     279.1454    337.10783    283.57166    -20.15661    17.999401    53.536168    40.098032 
128836000      272.635    316.79169    275.80308   -19.653176    18.860731    40.988612    40.098263 
128840000    272.21182    319.00889    282.53134   -19.185148    18.823269    36.477545    40.100643 
128844000    277.04381    322.66012    283.97003   -18.793106    17.951806     38.69009    40.099015 
128848000    266.69192    311.54896    268.64491   -18.911459    20.308871    42.904048    40.099708 
128852000     276.4161    308.86268    288.02568   -17.785705    18.824909    20.836997    40.100033 
128856000     285.2999    327.72052    307.72851   -18.364012    18.343037     19.99201    40.101115 
128860000    275.40864    335.36759    301.58178   -19.957727    18.635076    33.785816    40.100921 
128864000    273.71642    305.24795    296.35231   -17.686598    18.426492     8.895634    40.099989 
128868000     273.7831     304.2832    310.85701   -17.665242    16.733851   -6.5738083    40.098506 
128872000    276.64254    320.01552    283.71271   -18.411324    19.074291    36.302815    40.099611 
128876000    266.15298    297.20522    273.34773   -18.723281    18.129772     23.85749    40.100075 
128880000    269.95481    318.03739    280.67635   -18.542726    18.148484    37.361043    40.099601 
128884000    266.64807    310.46561    270.00212   -18.511274    19.005295    40.463492    40.100739 
128888000    277.04576    353.52826    271.77177   -20.038416    19.815712    81.756488    40.099785 
128892000    269.98705    323.33075    272.26355   -18.968753    19.553373    51.067198    40.098585 
128896000    275.07711    307.15567    282.85119   -18.474569    18.080297    24.304483    40.098311 
128900000    270.80128    317.58105    276.74888   -18.846989    18.722447    40.832174    40.097625 
128904000    271.01665    320.09683    268.66547   -18.800898      19.0494    51.431359    40.099087 
128908000    277.35433    338.89275    281.20297   -20.067223    18.875972    57.689784    40.099129 
128912000    267.98084     326.1508    276.34259   -18.799119    19.667352    49.808206    40.097668 
128916000    267.12288    320.99651    267.71229   -17.629504    17.544667    53.284223    40.097799 
128920000    276.21199    336.56628    279.54573   -20.246503    19.171057    57.020555    40.100336 
128924000    285.17183    358.24079    284.54863   -19.545741    18.841419    73.692152    40.100597 
128928000    279.76947    328.97227    284.99167   -18.342558    17.713919    43.980596    40.100662 
128932000    272.78924    318.19666    270.10974   -18.182716    19.246094    48.086919    40.100799 
128936000    266.47951    315.95376    266.98622    -20.01949    19.219927     48.96754     40.09938 
128940000    271.94384    324.78856    295.86862   -18.153201    19.299201    28.919938    40.099219 
128944000    274.52855    308.03285    285.41208   -16.960667    18.897621    22.620777    40.098492 
128948000    276.49588    328.66029     291.8821   -18.781597    18.930187    36.778185    40.097612 
128952000    273.19951    298.65708    289.03642   -17.422046    19.076264    9.6206592    40.097174 
128956000    268.69757    323.13774    261.98774   -17.876748    20.843017    61.149995    40.098388 
128960000    270.77339    323.28486    280.32645   -19.204019    19.867907    42.958403     40.09719 
128964000    275.80885    288.52685    298.55471   -17.918255    17.428935    -10.02786    40.095112 
128968000    266.44652    317.53896    269.41623   -18.984098    19.277687     48.12273      40.0962 
128972000    284.97033     332.1656    308.22608    -19.79487    15.828897    23.939521    40.096794 
128976000      270.653    304.90207    278.05286   -18.326335    18.663127    26.849212    40.097936 
128980000    278.40609    337.71402    284.73446    -19.93643    19.009287    52.979557    40.098115 
128984000    273.77291    323.88507    272.97288   -19.226651    19.418632    50.912187    40.097369 
128988000    283.51405     326.9527    301.92229   -19.152827    18.291166    25.030411    40.097391 
128992000    281.61903    342.56421    285.88085   -18.858585    18.657652    56.683362    40.098599 
128996000    282.26308    316.58997    301.05474   -19.546712    18.253531    15.535236    40.098688 
129000000     284.8394    344.28848     279.4679   -20.503992    18.749214    64.820586    40.099624 
129004000    275.65863    316.07407    276.50744    -19.61162    20.305607    39.566637    40.098739 
129008000    276.08576     321.1495    274.28061   -19.933789    19.873274    46.868883    40.097998 
129012000    274.29842    325.60171    271.56775   -19.912886    20.030607    54.033959    40.098349 
129016000    275.22909    331.32142    263.93877   -21.499117    20.761156    67.382647    40.097582 
129020000     278.2198    328.37085    298.03852   -19.710417    18.451727     30.33233    40.096395 
129024000    284.56572    336.51707    280.44696   -20.167012    18.205327    56.070108    40.095992 
129028000    267.97366    298.26351    275.78962   -19.293733    18.822458    22.473892    40.094073 
129032000     272.5287    308.16158    265.91204   -19.801711    19.833596    42.249544    40.093809 
129036000    274.88669    302.05287    276.50595   -20.350603    19.084373    25.546918    40.092298 
129040000    270.72531    318.29896    275.51988   -20.273144    19.215484     42.77908    40.094799 
129044000    276.43764    321.57715    294.29286   -20.599788    19.751316    27.284286    40.092735 
129048000     272.2866    329.05439    266.43041   -21.069808    20.688391    62.623978    40.093884 
129052000    272.88552    316.19928    278.87891   -20.245688    19.539808    37.320371    40.091789 
129056000     275.5765    335.58807    261.48639   -21.421013    19.370606    74.101682    40.092652 
129060000    282.91508    334.50901    283.59238   -20.960831    18.873642    50.916628    40.093243 
129064000    278.79499    309.64906    274.44835   -20.764816    19.605316    35.200717    40.093588 
129068000    283.34335    324.59622    274.27811   -21.287772    19.780862    50.318107    40.093294 
129072000    275.77566    321.38249    281.44862   -22.201333    18.288955    39.933866    40.092321 
129076000    283.18485    330.98065    279.75669   -22.621658    20.079096    51.223963    40.093168 
129080000    286.03454     329.0371    294.10392   -20.473153    17.792089    34.933183     40.09477 
129084000    270.59866    321.92431    262.25824     -20.9916    19.051074    59.666065    40.096369 
129088000    279.22762     320.3122    277.24833   -21.166451    18.891792     43.06387     40.09512 
129092000    278.57853    327.57342    271.80179   -22.812807    18.801146    55.771629    40.095137 
129096000    267.24612    302.97399    278.67232   -21.334137    18.776233    24.301676    40.094661 
129100000    272.54935    314.88236    270.20315   -21.539797    19.373383    44.679208    40.095555 
129104000    273.15219    311.94971    277.39835   -20.249051    18.955418    34.551356    40.095264 
129108000    276.00343    318.81644    297.49445   -20.342006    18.322225     21.32199    40.093849 
129112000    278.51577    323.65868    285.09718   -21.183515    18.872681      38.5615    40.092803 
129116000    274.28664    317.83714    275.69448   -21.462445    20.140091    42.142653    40.093355 
129120000    285.44985    335.41009    293.32646   -20.773477    18.428771     42.08363    40.094401 
129124000    286.38905    338.24445    300.22879   -20.916356    17.516223    38.015665    40.093517 
129128000    266.27283    301.44702    279.00599   -19.317872    19.087974    22.441029    40.095057 
129132000    278.14289    305.11419    307.80543   -19.242347    17.268301   -2.6912433    40.096301 
129136000    271.94637    310.39653    284.00635   -19.948679    19.755422    26.390185    40.095724 
129140000    276.82543    325.08366    292.63061   -21.400287    18.105101    32.453051    40.095794 
129144000    280.62557    324.96434    290.77643   -21.925802    18.418267    34.187908    40.097129 
129148000    289.22059    325.81031     305.0358   -21.230393    18.178514    20.774507    40.096387 
129152000    272.34486    310.42811    266.96868    -21.31282    20.882834    43.459425    40.096996 
129156000    280.38471    325.16135    290.73423   -21.211241    19.242548     34.42712     40.09728 
129160000    273.06327    289.57887     288.4668   -20.071415    20.194301    1.1120706     40.09692 
129164000    282.82438    337.83174    278.66769   -20.499393    20.375702     59.16405    40.097327 
129168000    269.08135    320.52427    265.97289   -20.715737    21.297421    54.551385    40.097819 
129172000    275.73986    306.20026    293.24243    -20.53334    19.642253    12.957836    40.096648 
129176000    273.13833    324.03981    276.44683    -21.16498    19.744324    47.592977    40.096708 
129180000      280.554    325.78462    285.13579   -21.516571    19.806986    40.648836    40.097547 
129184000    268.40345    302.47644    291.29435    -19.55997     18.73859     11.18209    40.097904 
129188000    271.89436    320.11984    279.69533    -20.79771    19.935387    40.424511    40.097693 
129192000    275.16655    324.91937    288.20788   -20.300371    17.826782    36.711495    40.098403 
129196000    279.70401    335.37332    288.38417    -20.99838    19.129476     46.98915    40.097486 
129200000    278.26084    346.81306    270.06541   -21.385142    20.046259    76.747643    40.097279 
129204000    288.89425     353.1386    290.30017   -21.695005    19.208268    62.838427    40.097306 
129208000    276.93343    328.33179    276.82137   -19.219074    19.681478    51.510427    40.099392 
129212000    272.70633    331.50485     259.9754   -20.150151    20.326304    71.529448     40.09915 
129216000    279.42275    335.09931    277.02588   -20.169226    20.034753    58.073428    40.099851 
129220000    273.73739    333.49214    272.06105   -19.669875     20.80958    61.431089    40.099802 
129224000    277.39722    321.50053    304.84611   -20.307334    19.471508     16.65442    40.097894 
129228000    270.98652    332.86839    282.75746   -20.091631    19.641084    50.110925    40.097533 
129232000    274.38585    326.79697    275.56085    -19.11805    20.836037    51.236122     40.09647 
129236000    269.16446    322.00456     277.3761   -19.995064    20.391217    44.628455    40.095204 
129240000      279.692    318.94821    296.20014    -18.59385    19.520742    22.748065    40.096882 
129244000    272.56781    318.69837    267.27199   -19.613366     20.72518    51.426378    40.095539 
129248000    281.83662    325.66242    285.64256   -21.041646     19.40472     40.01986    40.095552 
129252000    272.77666    311.31153     298.8593   -19.213513    18.199373    12.452239    40.095752 
129256000    267.87379    314.60262    265.64528   -19.813361    21.310919    48.957338      40.0955 
129260000    277.31629    311.93098    293.12779   -19.683648    20.188165    18.803182    40.093154 
129264000    280.00645    303.55786    317.93734   -20.100281    18.410196    -14.37948    40.093599 
129268000    265.82221     305.7926    275.65685   -19.813886    20.373782    30.135751    40.093106 
129272000    273.47718     309.6392    310.35456   -19.742149    18.963354  -0.71535613    40.094235 
129276000    283.70887    337.29264     293.0107   -20.102379    19.896934    44.281939    40.095544 
129280000    267.69321    300.82731    271.81633   -18.502827    21.211872    29.010986    40.096423 
129284000    283.70351      328.443    288.72239   -20.437816    19.954572    39.720613    40.096397 
129288000     270.0889    312.28123    277.49999   -19.259358    19.980786     34.78124    40.095233 
129292000    271.71612     319.9402    263.79962   -19.803446    21.659738    56.140581    40.094845 
129296000    283.35439    330.65826    281.97515   -20.508545    21.971664    48.683107    40.095762 
129300000    272.45056    309.70008    282.72103   -19.929927    19.645638    26.979054    40.098335 
129304000    267.54235    308.72826    267.43295   -19.854748    21.585284    41.295317    40.096365 
129308000    283.39237     341.7252    291.09196   -23.039935     19.19722    50.633236    40.096793 
129312000    275.88778    327.26721    257.89043   -21.376488    21.288227    69.376777    40.096704 
129316000    279.15331    324.49734    304.45848    -22.31302    19.316324    20.038855    40.098691 
129320000    276.30844    320.52202    290.05093   -21.446794    19.137914    30.471093    40.098142 
129324000    278.21331    331.87018    273.57951   -20.371254    20.046141    58.290669    40.098318 
129328000    273.50949    328.46567    280.90797   -21.551807    20.659777    47.557693    40.099706 
129332000    276.24066    315.31664    281.88513   -21.092338    19.230537    33.431505    40.098265 
129336000    272.26532    307.55495     271.3173   -18.978182    20.066628    36.237656    40.099718 
129340000    268.32603    312.85048    269.40192   -20.039216    20.423152    43.448561    40.098515 
129344000    278.38897    329.76953    292.88632   -20.703432    19.317372    36.883216     40.10056 
129348000    281.49111    317.72014    300.49269   -20.042249    18.609967    17.227452    40.099293 
129352000    280.08186    333.16011    271.86228   -21.278972     20.62895    61.297828    40.100268 
129356000     270.2339    327.28843    268.09739   -21.771019    21.456602    59.191035    40.098608 
129360000    273.24843    298.70455     307.4612   -18.938873    20.140962   -8.7566543    40.097699 
129364000    278.45142    352.10464    266.84393   -21.070214    21.604352    85.260715    40.098441 
129368000    275.04791    339.89857    287.79409   -21.713926    19.723416    52.104477    40.097651 
129372000     281.1874     303.6311    300.12845   -20.185651    18.539499    3.5026458    40.098257 
129376000    267.99584    302.45217    268.00948   -20.289952    20.450574    34.442695    40.098601 
129380000    280.68432    325.55483    268.46564   -20.823718     20.81077    57.089193    40.099265 
129384000    281.40034     323.3268    289.84673   -21.520569    18.843966    33.480067    40.098967 
129388000    274.47692    305.80132    280.00606   -19.576503    19.695138     25.79526    40.098339 
129392000    276.58845     323.0938    283.39658   -20.756575    20.371934    39.697217    40.098497 
129396000    273.02723    308.73799    291.74115   -21.007918    20.262237    16.996844     40.09874 
129400000    287.17953    343.32632    294.35339   -22.363922    19.699647     48.97293    40.100152 
129404000    283.09664    322.49504    291.29217   -20.748266    19.665344    31.202866    40.099354 
129408000    277.58883    340.54261    279.06383   -20.779066     20.61333    61.478775     40.10015 
129412000    273.59344    308.50492    275.72068    -20.63285    20.555851    32.784235    40.099273 
129416000    277.84221    309.75537    302.25588   -20.663895    18.627701    7.4994851    40.098483 
129420000    271.09227     322.5758    267.82725    -21.22287    20.523886    54.748553    40.098236 
129424000     273.5137    318.43232    273.45415   -21.357403    19.209008    44.978175    40.097462 
129428000    283.76964    324.18056    283.80516   -20.839858    19.228012    40.375401    40.095467 
129432000    271.99382     329.2024     259.5334   -21.102805    21.053965       69.669    40.095845 
129436000    270.17091    315.15408    260.29794   -20.248904    21.377851    54.856143    40.096947 
129440000    275.97439    327.75126    295.68817   -20.771442    20.836028    32.063086    40.097559 
129444000    269.91915     299.6056    283.45471   -20.719936    21.102057    16.150894    40.098079 
129448000    279.66507     329.2292    293.22448   -21.888857    20.498353     36.00472    40.096878 
129452000    269.09307    319.89903    275.83174   -21.351998    20.339498    44.067297    40.098312 
129456000    278.07533    314.30365      269.633   -20.309084    21.038144    44.670645     40.09723 
129460000    277.60514    334.23619    274.58352   -21.849352    22.273506    59.652676    40.096234 
129464000     275.2765    315.65595    274.72539   -21.444477    20.933996    40.930562    40.096042 
129468000    280.65296    317.08999    280.18334   -20.566073    21.218973    36.906652    40.096981 
129472000    280.71213    327.10921    308.83652   -19.998322    19.492882    18.272688    40.098172 
129476000    284.54829    345.75932    282.51614   -22.328835    19.395274    63.243179    40.098664 
129480000    272.51453    324.95238    267.47136   -21.472386    20.571129    57.481016    40.097978 
129484000    270.28694     304.5108    278.27898   -20.379073    19.437236    26.231821     40.10031 
129488000    277.48423    311.10678     281.3942   -20.734562    20.136596    29.712579    40.100187 
129492000    276.99862    319.23529    273.48921   -20.942507     21.61053    45.746074    40.101516 
129496000    283.11206     322.0744    284.31765   -20.331949    20.198598    37.756751    40.103362 
129500000    264.87996    299.64901    273.20038   -20.068959    22.278194    26.448632    40.102766 
129504000     261.9213    312.97899    258.82646   -20.615688    22.632959    54.152532    40.101033 
129508000    268.74689    315.04444    270.00676   -19.703002    21.243583    45.037687     40.10292 
129512000    276.94888     319.3041    279.82612   -19.845585    21.196284    39.477973     40.10285 
129516000    273.80335    332.90099    280.53547   -22.246742    20.795809    52.365517    40.104582 
129520000    275.27532    329.26451     298.0866   -20.367323     20.22131    31.177916    40.103853 
129524000    269.70182    310.54505    284.72568   -20.023561    21.734801    25.819378    40.104474 
129528000     271.6814    321.50019    274.83004   -20.014372    21.965179    46.670152    40.103492 
129532000    275.25268    305.22831    301.27164   -19.537655      19.9464     3.956675    40.103008 
129536000     276.0579    327.60808    279.72135   -21.354147    20.607608    47.886725    40.102048 
129540000    275.22968    317.32942    294.62317   -20.890769    20.966609    22.706256    40.101177 
129544000    278.74484    325.53769    285.30218   -21.659196    21.454458    40.235517    40.102161 
129548000    278.96179    345.96714    284.47382    -21.27441    21.186502    61.493322    40.102298 
129552000    262.72945    312.62468    253.35903   -20.525355    22.889304    59.265653    40.101635 
129556000    268.59873    314.43313    279.03347   -19.662111    21.358832     35.39966     40.10084 
129560000    267.01309    304.89509    277.69674   -18.639411    22.139772    27.198347    40.100813 
129564000    278.38968    346.47642    274.91194   -21.802313     21.50589    71.564482    40.098763 
129568000    276.23523    318.29429    283.24984   -20.209522    21.588283    35.044458    40.097924 
129572000    269.06523    289.00683     295.8239   -18.876648    21.144973   -6.8170767    40.097243 
129576000    280.49089    331.56775    294.48538   -20.566097    19.970446    37.082372    40.096999 
129580000    269.58025    312.38872    288.19876   -21.174453    21.066853    24.189955    40.096951 
129584000    267.65494    296.82624    289.18534   -19.876121    20.447397    7.6409021    40.097205 
129588000    274.05453    313.28701    286.00403   -19.990311    21.443188    27.282981    40.094756 
129592000    262.85552     314.1394    269.21045   -21.024287    21.571246    44.928948    40.095841 
129596000    273.22725    343.50197     254.8927   -22.132446    22.199543    88.609269    40.095868 
129600000    279.82166    345.99963    279.35626   -21.405726    21.837801     66.64337    40.096157 
129604000    278.86555    331.98748    276.26485   -20.715433    21.366745    55.722624    40.096938 
129608000    268.61912    298.72378    284.23763   -19.150919    20.750624    14.486144    40.095697 
129612000    271.78617    320.17662    272.40405   -20.614064    21.606729    47.772575    40.096619 
129616000    278.17328    325.61842    290.23866   -19.548835    19.882133     35.37976    40.098917 
129620000    273.17899    315.29141    274.09801   -20.888256    20.367713    41.193402    40.099971 
129624000    274.91893    306.34696    292.99454   -21.201976    19.818378    13.352421    40.101442 
129628000    272.02896    328.26985    274.65147   -20.927934    21.093301    53.618372    40.102745 
129632000    273.64652    316.90355    279.18257   -20.207672    21.406946    37.720978    40.102132 
129636000    281.25495    322.92695    302.26317   -21.368455    19.275504    20.663778    40.101346 
129640000    267.22607    306.77376    264.63244    -20.20605    21.143636    42.141324    40.101405 
129644000    272.71409    316.24107    277.85528   -20.687212    20.530532    38.385798    40.100674 
129648000    271.42049    315.72066    284.78195   -21.785161    20.139891    30.938707    40.102108 
129652000    276.70974    333.11026    272.45652    -22.18671    20.775802    60.653743    40.100402 
129656000    266.38271    300.32486    269.05541   -20.063312     20.11577    31.269443    40.099148 
129660000    277.86903    337.48989    272.39787   -21.899559    21.164174     65.09202    40.098434 
129664000    281.97177    337.18849    278.67385   -20.892256    19.857914     58.51464    40.099082 
129668000    281.48691    323.73053    285.00387   -20.507704    18.889613    38.726668    40.098943 
129672000    267.21694    308.97107    281.15174   -20.356258    19.703273    27.819331    40.099063 
129676000    283.11252    317.32356    315.50236   -21.115331    18.092155    1.8211976    40.098999 
129680000    277.36485     333.6144    278.78771   -21.535396    20.909789    54.826695    40.099178 
129684000    273.80537    303.57792    286.83246   -19.787094    20.137901    16.745465    40.098736 
129688000    276.16546    309.88962    276.67558   -20.199282     19.37761    33.214043    40.099307 
129692000    269.11632    294.07378    290.78616   -19.873571    19.418186    3.2876221    40.099998 
129696000    280.99938    340.84184    287.08282   -22.076561    19.422714    53.759021    40.099123 
129700000    275.66177      337.873    275.99397   -21.867512    19.875227    61.879038    40.099686 
129704000    263.69267    293.53327    285.83086   -19.361266    19.659368    7.7024143    40.097843 
129708000     275.5466    300.64818    277.87399   -20.312257    18.967635    22.774189    40.098384 
129712000     278.6244    324.90647    282.32566   -21.548931    19.905215    42.580816    40.098423 
129716000    273.83475     290.9034    285.90039    -17.99813    21.163058    5.0030066    40.095742 
129720000    267.69642    287.11817    277.79682   -19.614642    20.851177    9.3213497    40.094999 
129724000    284.46344    352.02695    281.13981   -22.133031    20.552928     70.88714    40.096015 
129728000    278.20165    336.91928    284.24456    -21.12052    21.061505    52.674713    40.096523 
129732000    271.26703    325.82145    276.50406    -20.53953    20.097197     49.31739    40.097589 
129736000    268.88928     326.0281    288.88644   -20.348942    21.011985    37.141661    40.098611 
129740000     270.0194    308.73268    281.96288   -20.017392     20.42714    26.769804    40.098298 
129744000     269.6722    326.31396    274.40284    -19.96052    21.439569    51.911121    40.099494 
129748000    267.49107    303.82371          272   -19.141307    20.980067    31.823708    40.097725 
129752000    273.03204    346.46161    249.44783    -21.83208    22.544328    97.013781    40.097605 
129756000    272.47253    315.34475    291.51815   -20.192051    20.610523    23.826601    40.097843 
129760000    262.57654    317.34155    260.19235   -19.749178    22.117786    57.149192    40.098055 
129764000    271.63108    326.22589    274.89275   -20.059514     21.53165    51.333143    40.098495 
129768000    269.89223    304.15886    288.42775   -19.815899    20.641688    15.731109    40.099706 
129772000    277.29894    337.87849     281.0842   -22.017566    21.151046    56.794294    40.099281 
129776000    269.59493    291.62876    282.36868    -18.67247    21.321834    9.2600752    40.100164 
129780000    278.72809    342.75374    267.44111    -21.67249    22.328977    75.312632    40.098816 
129784000    277.87185    334.22431    270.67468   -22.475765     20.80692    63.549626    40.098384 
129788000    268.23947    300.35933    271.37594   -20.989542    20.512706    28.983387     40.09798 
129792000    273.04643    333.31429    264.98344   -22.130139    21.559658    68.330853    40.097465 
129796000    287.70948    342.21671    306.08784   -23.019656    19.456515     36.12887    40.098055 
129800000     263.4684    307.65884    272.48911    -21.46568    22.178978    35.169733    40.099596 
129804000    271.67022    319.20447    288.79777   -21.922302    20.274831    30.406704    40.099224 
129808000    277.43027    331.71838    289.67324   -22.019963     19.40991    42.045138    40.099825 
129812000     269.2046    310.94995    283.88567   -19.746297    21.184098    27.064279    40.100321 
129816000    276.03567    325.22475    276.58225    -21.29308    22.308997    48.642496    40.099761 
129820000     275.5935    325.98578    292.99786   -20.168002    19.339105    32.987915    40.099181 
129824000    267.99894    307.39753    264.79415   -19.487733    21.219366    42.603377    40.097655 
129828000    276.34295    342.11649    290.36939   -21.187373    19.907482    51.747102    40.098141 
129832000    265.74906    300.00726    268.86469   -19.671226    21.074291    31.142566    40.098421 
129836000    272.21616    322.34064    283.28776   -20.165661    21.015542    39.052882    40.098833 
129840000     275.4442    333.16288    280.08144   -21.425978    20.844309    53.081439    40.098948 
129844000       274.19    316.77047    275.00205   -21.900711    20.390074    41.768419    40.099501 
129848000    276.62174    322.19801    307.54164   -21.824544     20.23176     14.65637    40.099863 
129852000    266.27971    317.52378    278.72298   -20.797629    21.404444    38.800805    40.100008 
129856000    269.93256    317.95108    279.18287   -21.505516    21.228247    38.768212    40.098749 
129860000    274.35502    321.57142    287.19474   -20.378539    19.751468    34.376689    40.098859 
129864000     277.5792    324.42273    278.96285   -20.579843    21.198902    45.459879    40.098339 
129868000    271.37495     313.5911    291.15091   -21.469648    19.647699    22.440186    40.098306 
129872000    277.13137    316.81787    279.08743   -21.419939    20.749748    37.730439    40.097802 
129876000    269.10229    316.33461    283.04874   -20.486219    21.315046    33.285872    40.098441 
129880000    282.25184    321.95482    301.10459   -22.161161    19.929187    20.850229    40.100687 
129884000     278.1351    320.24506    294.25082   -21.984746    21.496296    25.994236    40.101725 
129888000    274.73561    320.90505    271.21089   -22.432152    21.819111     49.69416    40.101869 
129892000    284.07631     325.5353    270.87577   -22.140251    21.104513    54.659537    40.101863 
129896000     279.7322    325.14105    289.30191   -22.226987     20.13808    35.839134    40.100828 
129900000    276.73973    336.72231    282.35319    -22.59907    20.819484    54.369126    40.100534 
129904000    272.57214    322.17731    260.85625   -21.638424    22.670139    61.321058    40.101987 
129908000    270.51714    307.14099    269.86962   -20.999389    22.574664    37.271371    40.102067 
129912000    281.07362    331.19273    267.28341   -22.297875    21.496207    63.909329    40.101617 
129916000    280.64074    330.84326    295.79489   -22.681148    20.071278    35.048372    40.102347 
129920000    288.71049    326.29202    295.04839   -22.572669    20.234734    31.243636    40.102478 
129924000     275.6423    310.12739    282.00873   -21.729198    21.326764    28.118655    40.101982 
129928000    275.58432    318.83224    268.10446   -21.736614    22.040736    50.727782    40.102013 
129932000    277.96183    315.64831    269.88547    -22.15915     21.66325     45.76284    40.101133 
129936000    288.37003    334.78818      297.538   -21.780748    20.785002    37.250183    40.101326 
129940000    281.00499     320.9711     304.1679   -21.428999     20.74203    16.803196    40.102392 
129944000    279.35301    318.07989    277.61764    -23.55976    21.382853    40.462252    40.103244 
129948000    279.23832    299.32992    289.00864   -21.704685    20.296596    10.321283     40.10463 
129952000    282.76052    312.81785    276.31207   -21.735163    21.233477    36.505786    40.105132 
129956000    279.82244    335.67918    288.92307   -24.041125     20.50782    46.756114    40.104689 
129960000    277.35591    324.56493    281.06127    -22.66682    20.515365    43.503663    40.103979 
129964000    279.85968     316.5898    290.11557   -23.008112    20.421438    26.474224    40.105342 
129968000    287.77121     333.4003    283.85151   -23.273731    20.840158    49.548783    40.105922 
129972000    284.09279    320.92129    289.56319   -22.608127    20.357709    31.358103    40.107412 
129976000    274.22839    314.50777    280.43103    -22.81703    21.251036    34.076738    40.107647 
129980000    277.96284    320.88234    280.12269   -22.600207    19.761506    40.759654    40.107083 
129984000    279.73186    339.23153    263.02682   -22.763425     21.68204    76.204709    40.107742 
129988000    281.53178     346.2541    277.26474   -23.078987    20.964226    68.989361     40.10657 
129992000    274.95678    315.43096    273.43355    -21.19377    22.065428    41.997411    40.107767 
129996000    280.67659    333.66357    287.70867   -21.387301    20.666593    45.954908    40.105616 
130000000    271.16086    299.11398    292.83175   -20.862158    20.797942    6.2822382      40.1049 
130004000    273.39877    330.25397    265.76706   -23.119844    21.532279    64.486901    40.105692 
130008000    273.20618    322.23892    268.67249   -22.538413    21.989766    53.566428    40.106026 
130012000    273.70263    316.82656    281.73181   -21.499845    22.238337     35.09475    40.105932 
130016000    275.01402    339.32894    253.91534     -22.8488    22.029256    85.413603    40.107272 
130020000    273.45263    291.29666    287.02852   -21.040836    21.363198    4.2681443    40.106456 
130024000    277.38668    329.14206    279.12083   -22.487555    20.884461    50.021228    40.107519 
130028000    277.69477    336.96897    261.74192   -23.328796    21.838802    75.227054     40.10834 
130032000    267.60714    312.92943    284.51038    -22.35936    20.660318    28.419042    40.109164 
130036000    270.05541    308.18941    276.92477   -21.817248    21.490984    31.264644     40.10924 
130040000     270.0891    310.12843    282.30295   -20.261618    21.003867    27.825476    40.107187 
130044000    279.86062    336.96741    289.42158   -22.124247    20.634817    47.545838    40.107656 
130048000    271.75511    320.35034    272.86672   -21.167403    20.970686    47.483621    40.109377 
130052000    269.95185    331.20559    265.19409   -22.416221    21.713771    66.011505    40.110368 
130056000    271.77329    327.25681    278.77113    -21.51587    20.426897    48.485681    40.110837 
130060000     267.6987    319.32662    263.58401   -21.101382    21.727517    55.742618     40.11297 
130064000    268.31507    328.76731     254.4776   -21.001307    22.240191    74.289716    40.113562 
130068000    283.92227     342.2424    279.79219   -22.802844    20.076849    62.450214    40.115701 
130072000    279.84815    321.18518    291.82955    -22.45672    20.122438    29.355633    40.115239 
130076000    269.06096    324.22169    266.72387   -22.479143    20.956776    57.497822    40.115329 
130080000    287.34931     333.2374    300.38264   -23.056721    19.734014    32.854765    40.115597 
130084000    272.78757    310.70892    282.85558   -21.789448    19.659324    27.853331    40.116569 
130088000    280.80969    338.17698    291.35283   -22.515448    21.145821    46.824145    40.117989 
130092000    278.65808    310.02236    310.86656   -20.718545    19.683101    -0.844205    40.116945 
130096000    273.60346    343.05531    265.14581   -22.608669    22.232329    77.909498    40.117266 
130100000    271.61539    312.53491    283.21191   -21.511968    21.943958    29.323002    40.117837 
130104000    268.91408     328.4158    267.46304    -21.24775    22.438999     60.95276    40.116732 
130108000    261.67414    307.70494    257.58075   -20.602411    22.837827    50.124197    40.115888 
130112000     276.7607    330.71545    293.14162   -22.173395    20.912169    37.573827    40.116584 
130116000    262.91266    310.59198    259.09538   -21.207367    23.209608    51.496607    40.118084 
130120000     268.6932    303.45653    268.38456   -20.561421    22.849885    35.071969    40.118945 
130124000     269.9899    306.64066    280.02771   -19.515764    22.412519    26.612942    40.119632 
130128000    268.77146    317.75861    276.15112   -21.064797    21.811382    41.607485    40.119401 
130132000    260.89712    304.65538     260.8883   -19.159457    22.749369    43.767089    40.119372 
130136000    276.36912    324.88554    287.45614   -20.685137    22.269803    37.429396    40.119785 
130140000    276.45638    304.12397    293.98418   -19.535361    21.184672    10.139789    40.119499 
130144000    278.04397    319.32896    276.75604   -21.093393    22.392707     42.57292    40.119863 
130148000    272.72813    312.02435    292.85852   -22.373211    20.790746    19.165835    40.117681 
130152000    266.81604    313.27023    272.20429   -22.398493    21.733845    41.065941     40.11771 
130156000    280.78965    315.59066    305.37535   -22.802377    21.514286    10.215315    40.116927 
130160000    273.24604    317.41302    288.27124   -21.821514    22.585857    29.141781    40.117299 
130164000    270.51967    313.19616    293.47857    -21.02727    22.688526    19.717593    40.117163 
130168000     282.8509    344.04429     299.5302   -23.572875     23.06846    44.514093    40.118579 
130172000    273.69093    315.39417    282.34677   -22.569372    23.608544    33.047395    40.118442 
130176000    275.52633    327.89965    286.28786   -22.595104    23.545156    41.611783    40.116963 
130180000    281.94319    335.97411    288.96819   -22.351647    23.032931    47.005919    40.117124 
130184000    271.91256    331.35832    282.91964   -22.236616    22.860484    48.438682    40.116633 
130188000    260.30417    308.56232    270.17749   -20.533102    23.521556    38.384828    40.116848 
130192000    269.99019     327.7354    266.87153   -22.432588    24.106263    60.863873    40.118296 
130196000    268.52447    339.01248    270.98177   -22.269284    24.822693    68.030708    40.117859 
130200000    284.56967    338.55435    303.74693   -21.632014     22.73696    34.807419     40.11832 
130204000    273.40269     325.3479    286.35197   -21.231386    23.065336    38.995929    40.117692 
130208000    271.18829    312.38769    276.35877   -21.802884     22.89392    36.028919     40.11801 
130212000    264.64889    302.42601    277.00301   -21.630346    23.116915    25.422996    40.117709 
130216000    265.81669    313.15118    258.68801   -21.866293    23.467256     54.46317     40.11747 
130220000    277.73258    336.37269    286.12487    -22.63645    23.484335    50.247813    40.116978 
130224000    264.96767    302.71677    261.62211   -21.877726    24.732576    41.094666    40.116911 
130228000    272.72601    324.29977    281.42561   -22.379329    23.287711    42.874168    40.117946 
130232000    275.60924    312.52954    272.27076   -21.426107    24.253401    40.258784    40.118448 
130236000    273.67685    328.85977    265.39685   -22.756035     24.13452    63.462927    40.117424 
130240000    272.70513    325.19295    286.21732    -21.64446    23.771873    38.975628    40.116236 
130244000    268.29171    294.94588    289.01956    -18.80305    22.717963    5.9263182    40.114687 
130248000     269.4389    319.59524    282.62267   -21.963822     23.23774     36.97257    40.115456 
130252000    261.46316    312.37894    268.57571   -20.561261    23.826751    43.803229    40.116526 
130256000    266.52685    323.48878    264.34473   -21.079082    24.172698    59.144052    40.116353 
130260000     270.8313    335.12082    277.53919   -21.638032    23.105283    57.581631    40.117043 
130264000      269.418    323.83973     277.9808   -21.074372    23.802381     45.85893    40.117216 
130268000    277.81263    342.80017     277.4364   -22.101773    23.502035    65.363776    40.117988 
130272000    274.36033    323.67872    294.51244   -21.007404    23.174885    29.166279     40.11926 
130276000    268.04323    322.19175    279.73287   -21.637305     23.15676    42.458881    40.119261 
130280000     268.1929    314.21435    293.77054   -21.186839    22.025936    20.443816    40.119327 
130284000    272.03595    329.33581    284.69402   -21.726753    23.655252    44.641786    40.118444 
130288000    266.70762    328.53328     283.1591   -21.855194    24.121787     45.37418    40.118103 
130292000    271.35208    328.97807    275.53375   -21.617171    25.106918    53.444317    40.117225 
130296000    273.67124    296.05392    304.77628   -20.339505    22.344152   -8.7223687    40.116978 
130300000    259.15357    300.59724    273.54417   -21.409031    24.048366    27.053064    40.116982 
130304000     268.7326    316.03913     277.1058    -21.18733    22.598982    38.933325    40.114337 
130308000    280.41493    322.03063    308.71166   -21.438773    21.703141    13.318972    40.113293 
130312000    264.22649    306.21156    280.05942   -20.454044     22.56072    26.152139      40.1109 
130316000    267.85955    311.43971    291.39889   -21.500811    22.324191    20.040826    40.112148 
130320000    280.94018     357.2116    290.23174   -22.629147    23.158118    66.979856     40.11299 
130324000    266.41247    317.56265    268.43389   -21.320999    23.964501    49.128765    40.114416 
130328000    269.35728    316.82596    285.61273   -21.279567    23.525958    31.213228    40.113275 
130332000    272.36983    328.21742    278.23541   -21.175949    23.829514    49.982008    40.114857 
130336000    277.88717      329.569    288.06222   -21.368494    22.600041    41.506782    40.113744 
130340000    266.99543    323.80593    271.68084   -21.242761    23.484649    52.125097    40.113287 
130344000    278.07841    318.29383    287.75526   -21.674234    22.552252    30.538573    40.113446 
130348000    263.47953    302.14172    280.75976   -21.594857     22.84807    21.381958    40.113599 
130352000    271.32297    335.45884    265.24105   -22.170014     24.20728    70.217792    40.114263 
130356000    275.84028    326.19842    282.83423   -22.619548    22.397601    43.364196    40.113804 
130360000    269.86872    325.64188    275.23073   -22.620205    23.312709    50.411147     40.11463 
130364000    269.52455    302.71912    296.27895   -21.749143    22.565939    6.4401697     40.11524 
130368000    280.90205     334.8222    305.13819   -23.011999    22.401278    29.684013    40.114623 
130372000    266.05769    318.33275    258.49842    -21.21832    23.763518    59.834333    40.114887 
130376000    269.41356    326.46785    270.45298   -22.123909    23.500095    56.014869    40.115856 
130380000    276.94026    332.85897     281.4079   -22.799365    23.006513    51.451072    40.116331 
130384000    284.98941    339.82219    301.00098   -22.484684    21.228517    38.821209    40.117121 
130388000    275.48104    342.24001     261.5079   -23.750096    23.550844    80.732109    40.117336 
130392000    270.81546    318.19152     281.2147   -21.730971    23.707275    36.976812    40.117736 
130396000    279.69291    348.45415    280.96497   -23.962445    23.403836    67.489182    40.118459 
130400000    268.57598    324.04354    272.13465   -22.517293    23.347526    51.908891    40.119955 
130404000    264.05303    323.86418    247.93672   -22.637052     24.66638    75.927455    40.121853 
130408000     275.1195    331.72391    279.65209   -22.791604    23.811027    52.071826    40.123344 
130412000    269.49925    308.96889    275.93403   -21.908757    22.993784    33.034861    40.123499 
130416000    271.51118    330.71144     281.0036   -22.363836    24.144059    49.707846     40.12253 
130420000    272.44437    325.96102    280.07663   -22.416521    22.755825    45.884383    40.122484 
130424000    278.46475    336.45575    279.01258   -22.839778     22.75489    57.443174    40.122914 
130428000    268.76563    323.11921    282.06975   -22.279188    23.158198    41.049458    40.121383 
130432000    274.10478    325.29653    284.42874   -21.957446    23.198051    40.867787    40.120676 
130436000    273.92903    318.56151    287.31883   -21.618064    22.380192    31.242683    40.120092 
130440000     278.1693    322.24415     283.5383   -22.853865    21.551623    38.705852    40.120578 
130444000    273.30542    322.87323    271.83442   -22.957483    22.444286    51.038802    40.121432 
130448000     273.7328    320.94711    283.62022   -22.524386    22.704591    37.326886    40.120985 
130452000    277.14041    324.73269    297.27942    -22.83639    22.218322    27.453269    40.119576 
130456000    269.42216    302.65634     274.3298    -22.11519    23.422865    28.326541    40.120741 
130460000    271.89086    315.94531    290.67776   -23.560595    22.317987    25.267541    40.120151 
130464000    276.14009    343.59048    264.54188   -22.968659    22.919322    79.048605    40.120815 
130468000    272.62952    303.29818    285.93979   -21.872417    21.704213    17.358389    40.119731 
130472000    278.88722    331.79757    288.70499   -22.227711     21.23021    43.092582    40.120555 
130476000    265.80671    320.58673    263.59416   -22.307515    23.947662    56.992568    40.121382 
130480000    269.86707    296.34832    288.51092   -20.978414    23.757389    7.8373995    40.121043 
130484000    277.02984    338.92747    276.43875   -23.552586    23.584186    62.488725    40.121658 
130488000    275.78472    318.07885    286.05948   -21.628028    22.357808    32.019375    40.121301 
130492000    265.73194    307.15383    285.13242   -20.367789    23.139192    22.021402     40.12028 
130496000    275.69043    302.21856    298.56824   -20.235322    22.568039    3.6503177    40.120961 
130500000    267.26747    306.00218    286.77519   -20.822818    22.818361    19.226992     40.12224 
130504000    281.06595    333.84264    301.70174   -20.869086    22.877389    32.140905    40.123254 
130508000    270.00166    308.39068    274.79419   -20.308731    23.294035    33.596489     40.12435 
130512000    272.41686    335.28025    279.33894   -22.793873    22.518787    55.941314    40.123961 
130516000     266.3376    312.94444    277.05857   -21.128622    23.704348    35.885864    40.124451 
130520000    269.27208    322.69467    276.32707   -21.198954    23.027832    46.367605     40.12571 
130524000    278.02741    324.48744    283.66211    -20.89314    22.093941    40.825334      40.1256 
130528000    270.46076    332.75788    272.52002   -21.465974    23.233411    60.237859     40.12574 
130532000    273.30225    320.04039    281.05011   -21.761258    22.378393    38.990283    40.126021 
130536000    273.82052    343.25791    262.37964   -23.546372    23.691908    80.878269    40.126656 
130540000    274.52033    322.21361    299.04733   -21.886908      22.7211    23.166281    40.124529 
130544000    268.88096    291.22865    281.12342   -20.171596    22.367547    10.105232    40.125491 
130548000    277.98675    336.98201    273.23857   -23.361504    23.028863    63.743447    40.126381 
130552000    273.28314    335.38483    267.18306   -23.744432    22.446099    68.201768    40.127114 
130556000    276.35762    331.92789    290.32063   -22.462841    21.551873    41.607254    40.127561 
130560000     282.1474    346.38831    284.52004    -23.53662    22.322455     61.86827    40.126921 
130564000    268.02409    300.49373    273.55345   -21.342618    22.820757    26.940285    40.126295 
130568000    271.19871    299.94766    288.35297   -20.794631    21.315788    11.594681    40.124633 
130572000    278.08216    339.06998    281.60748   -21.492204     21.52489    57.462501    40.124658 
130576000    274.24751    333.02784    267.10471   -23.429234    21.689262    65.923129    40.125189 
130580000    270.12303    293.54216    288.34922   -20.758539    20.579404    5.1929334    40.124576 
130584000     273.8159    327.01761    280.36625   -24.525639    21.746698    46.651358    40.125251 
130588000    276.89041    325.22312    284.88451   -24.008015    20.980559     40.33861    40.124183 
130592000    279.82668    339.95295     270.8839   -23.981546    21.336196    69.069046    40.124637 
130596000    272.85918    315.62995    259.51046    -23.27962    22.577089    56.119488    40.124086 
130600000    278.84709    307.01818    284.43126   -23.263876    21.004713    22.586919    40.125561 
130604000    286.18637    333.90178    291.83238   -25.090434    21.044912    42.069398    40.126592 
130608000    282.11814    309.56777    290.67774   -23.730784    20.423372    18.890025    40.126171 
130612000    282.37044    326.69656    270.68782   -24.299302    22.729904    56.008733    40.126234 
130616000    272.39104    318.85228    272.27732   -24.739284    21.498079    46.574961    40.125549 
130620000    279.95196     339.4323    266.47842    -24.50052    21.470698    72.953881     40.12635 
130624000    279.61815    288.13204    284.01836   -22.928779    21.189498    4.1136822    40.126432 
130628000    284.58827    327.50046    283.20613   -24.448809    20.926184    44.294325    40.125768 
130632000    279.45627    316.17741    269.20046   -24.635184    21.937667    46.976955    40.125767 
130636000    277.35317       308.68     284.8254   -23.895619    19.806511    23.854605    40.124541 
130640000    281.24702    312.54988    283.02895   -23.408402    20.985575    29.520925    40.124508 
130644000    284.57898    335.73542    282.62645   -25.257829    20.259149    53.108971    40.121979 
130648000    281.04499    328.78623    270.18075   -23.595447    22.126064    58.605478    40.121577 
130652000    276.17615    315.45113    270.05655   -24.064242     23.23667    45.394583    40.120192 
130656000    280.75511    323.44913    275.69483   -25.040043     22.25114    47.754305    40.118384 
130660000    280.99608    328.54236    271.95814   -23.846168    21.934294    56.584229    40.120737 
130664000    281.65594    320.36586    287.04001   -23.290293    20.645516    33.325848    40.120534 
130668000    272.37554     320.0473    272.42357   -24.324475    22.631674    47.623725    40.120607 
130672000    281.60678    308.86879    267.00184   -22.871403    23.216201    41.866941    40.121747 
130676000     276.9303    303.10037    283.65607   -21.680301    22.464116    19.444301    40.121167 
130680000    286.84586     306.0855    294.94187   -23.274035     20.18093    11.143628    40.122542 
130684000    281.28285    335.90708    279.41716   -23.239792    20.936231    56.489918    40.123172 
130688000     281.9391    313.10777    285.72938   -23.287529    22.054937    27.378385    40.123674 
130692000    274.67567    321.72955    264.25521   -22.988499    22.597193    57.474339    40.123826 
130696000    276.70474    325.55053     287.6164   -22.401351     21.62896    37.934133    40.121837 
130700000    275.65008    321.61222      271.608    -22.67027    22.978305     50.00422    40.122609 
130704000    288.82217    336.04297     298.1385   -24.500101     21.24105    37.904468    40.120552 
130708000     275.8622    312.04139    266.03634   -22.720509    23.720633    46.005049    40.119402 
130712000    272.77405    313.37967     272.9703   -22.628858    23.032952    40.409365    40.120077 
130716000    278.19281    321.79795    282.45993   -24.343667    21.905465    39.338014     40.12098 
130720000    280.98103    329.30514    281.25849   -24.113743    22.196139    48.046643      40.1199 
130724000    283.10338    315.86084    285.27653   -23.871875    21.533785    30.584311    40.120092 
130728000     274.1819    315.45533    282.15501   -23.596767    23.273449    33.300319    40.120089 
130732000    276.53779     322.7844    256.92176   -24.342714    22.517392    65.862646    40.119476 
130736000    276.28973    330.33036    275.18367   -25.813636    23.399827    55.146689    40.119233 
130740000    269.47509    302.48706    263.16096   -24.730832    23.476756    39.326098    40.119461 
130744000    286.45083    342.09121    281.68791   -26.000906    22.974456    60.403298     40.11808 
130748000    279.41939     330.6622      287.298    -24.13684    21.994652    43.364204    40.118437 
130752000    271.78936     286.2013     285.6054   -22.717318     22.11306   0.59590188    40.118965 
130756000    278.36434    314.89001    308.91128   -23.347302    21.904401    5.9787233    40.118801 
130760000    279.49929    313.94573    274.24531   -23.435715    22.464849    39.700424    40.119279 
130764000    274.96557    297.68323    302.25229   -23.379866     22.32225   -4.5690603    40.118423 
130768000    269.11352    316.93027     263.9728   -23.805025    24.296841    52.957469    40.118236 
130772000    275.97149    335.22374    292.86858    -24.65546    21.897651    42.355152    40.118895 
130776000    271.62603    313.89174    273.49695   -24.373722    23.572749    40.394791    40.119486 
130780000    279.79889    328.41877    274.61755   -24.024904    22.931391    53.801212    40.120092 
130784000    276.68065    316.44942     301.9539   -23.930033    22.705208    14.495526    40.120694 
130788000    277.60487    319.50346    283.65394   -24.279954     22.74161    35.849519    40.120653 
130792000    269.48208    316.54313    273.82553   -24.138451    24.402815    42.717601    40.119723 
130796000    272.73981    305.18649    290.52051   -23.948706     22.33242    14.665979    40.119624 
130800000    276.34799    313.09139    289.14425   -23.062343    22.753975    23.947138    40.118875 
130804000    276.36281     311.8095    290.80473    -22.46097    22.988213    21.004775    40.117526 
130808000    278.77629    312.03331    285.93731   -23.535757    23.139501    26.095995    40.116369 
130812000    279.24329    337.21799     285.5528   -25.355899     23.72809    51.665184    40.116302 
130816000    277.58836    306.32743    275.02882   -23.603569    23.185219    31.298607    40.115986 
130820000    268.34928    303.81956    271.98146   -22.327853    24.075918    31.838102    40.115769 
130824000    280.79597     324.2226    302.10703   -22.940322    22.466553    22.115569    40.116023 
130828000    278.18641    326.67346     280.0821   -22.681975    24.162642    46.591354    40.117076 
130832000    268.31337    316.70706    273.90233   -22.637164    23.324285    42.804728    40.117215 
130836000     267.2399    309.36332     258.0972   -23.032468    23.937726    51.266118     40.11597 
130840000    274.67662    323.25105    290.76868   -22.961238    23.793053    32.482365    40.115655 
130844000    270.61728     315.8246    270.92895   -23.963524     24.38345    44.895653     40.11529 
130848000    278.74354     350.6586    269.20596   -24.410539    24.124618    81.452644    40.116964 
130852000    269.69415    313.78468    271.53761   -22.732789    24.873936    42.247077    40.116573 
130856000    281.60678    325.89179    300.67084   -23.036891    22.455345    25.220947    40.115401 
130860000    271.88978    325.58039    281.20764   -23.177195    23.382281    44.372756    40.115402 
130864000    272.16366    320.17028    270.13646   -23.435902    24.518215    50.033817    40.114014 
130868000    273.35025    351.26795    277.13371   -25.437914    24.159391    74.134234    40.114027 
130872000    275.28283    318.42991    289.48197   -23.310695    24.325185    28.947944    40.115219 
130876000    275.93205    320.70577    300.19825   -24.684904    23.985866    20.507519    40.114069 
130880000    275.40747    344.87581    275.86611   -25.079527    24.776248    69.009701    40.114525 
130884000    266.22848    316.96739     278.9206   -22.902062    24.513083    38.046791    40.114788 
130888000    274.88773    330.53395    292.31724   -23.224303     24.27597    38.216715    40.114921 
130892000    263.73594    301.58626    268.45121   -22.833626     26.45971    33.135046    40.113817 
130896000    274.66037    307.21722    295.65784   -23.822821     26.02589    11.559381    40.113881 
130900000    270.82476    309.05923     270.4554   -22.376357    24.358348    38.603833     40.11431 
130904000    269.17204    323.19789    268.21391   -25.108832    24.822113    54.983982    40.114969 
130908000    277.35266    324.78066    292.71007   -24.105147    25.821313    32.070584    40.114987 
130912000    264.77786    316.91662    266.02547   -23.294622    25.605091    50.891147    40.115041 
130916000    266.21573    317.90822    266.57663   -23.622669    25.489374    51.331587    40.114326 
130920000    275.15292    331.58323    295.23077   -22.243271    22.846135    36.352459    40.114322 
130924000    269.03955    300.28815    289.79482   -22.876422    23.676971    10.493333     40.11522 
130928000    270.71543    328.75371    278.56234   -22.457899    24.456674    50.191368    40.115368 
130932000    271.95723    316.97225    286.11883   -22.738002    23.995554    30.853427    40.115687 
130936000    267.85458    310.44876    270.86545   -21.542784     23.90806    39.583306    40.116426 
130940000    274.74985    322.05551    282.92567   -22.440839    24.396648    39.129838     40.11581 
130944000    264.27572    275.61518    287.10905   -20.116632    24.223398   -11.493869    40.116237 
130948000    270.39236     341.0016    267.18986   -23.908924    25.569626    73.811744    40.115035 
130952000    272.32711    315.18108    282.07449   -21.999586    23.811103    33.106589    40.113185 
130956000    274.32317    321.64766    287.98815   -22.884404    23.896258    33.659511     40.11305 
130960000    278.11594    325.55215    277.20306   -24.875568    24.278959    48.349091     40.11453 
130964000    283.08531    318.08747     308.5755   -24.077257    22.821974    9.5119675    40.115404 
130968000    272.85803    321.93803     275.1226   -23.367126    24.352223    46.815433    40.114925 
130972000    279.12467    332.97453    277.23202   -24.410533    24.208946    55.742511    40.115627 
130976000     274.6551    322.74035    288.57589    -23.30487    22.915533    34.164455    40.113652 
130980000    277.13605    327.27149    261.88768   -23.882945    25.168582     65.38381    40.114223 
130984000    283.67728    336.59785    284.29436   -24.659171    23.538108    52.303494    40.113573 
130988000    283.59373     324.1759    297.46031   -24.489337    23.529196    26.715585    40.113105 
130992000    275.51606    323.05525    277.62237    -23.36936     22.33558    45.432878    40.113197 
130996000    274.64889    323.27956    261.36875    -23.55729    23.474293    61.910807    40.112132 
131000000    272.79765    315.30601     274.8519   -22.935683    23.024731    40.454114    40.112861 
131004000    271.52797    313.29608    278.44177   -24.156489    22.680697    34.854306    40.111923 
131008000    270.34724    316.30666    287.89104   -23.708048    22.562454    28.415619    40.111592 
131012000    282.99919    346.20427    283.19167   -25.305915    22.334076      63.0126     40.11265 
131016000    272.66797    328.86518    270.38356   -23.276761    23.853005    58.481618    40.113721 
131020000    273.06487    300.33947    296.22076    -21.61961    23.701932    4.1187108    40.113899 
131024000    274.69443     311.2818    288.40716   -23.791985     23.57072    22.874647    40.113239 
131028000    269.44229    295.43194    268.16872   -22.612922    23.839703    27.263219    40.112229 
131032000    276.42701    320.85455    281.28524   -23.542776    24.328408    39.569308    40.111681 
131036000       273.37    318.80653    273.64942   -22.759881    23.591275    45.157115    40.111707 
131040000    281.94487    346.46743    288.72389   -24.049888    23.717284    57.743537    40.111286 
131044000    274.86498    309.84354    301.72754   -22.047582    22.161954    8.1160007    40.110677 
131048000    265.75779    308.76761    278.42783   -20.675127     23.15752    30.339783    40.111295 
131052000    280.59756    331.10344    299.58221   -22.286884    21.839215    31.521234    40.112283 
131056000    275.54664    326.50025     278.4736   -22.771351    23.152054    48.026651    40.110659 
131060000    277.67189    318.42402    295.12954   -22.332006    21.215043    23.294475    40.108856 
131064000    278.54161    311.20997    279.34474   -21.769545    22.344307    31.865225    40.110361 
131068000    274.88524    313.53982    299.10964   -22.769495     21.66162    14.430175    40.110277 
131072000    269.21159    332.84813    258.72243   -23.834867    23.063844    74.125695    40.111361 
131076000    274.60392    296.55469    282.04743   -21.948929    23.089784    14.507254    40.112237 
131080000    268.74766    318.19462    272.26641   -23.229625    23.147566     45.92821    40.112445 
131084000    273.68564    313.65701    298.19839   -24.079239    21.478488    15.458619    40.112967 
131088000    274.37532    319.26632    280.34242   -22.527807    22.353924    38.923901    40.112801 
131092000    269.57231    304.28031    282.17743    -22.76948     22.83718    22.102879    40.111627 
131096000    273.94132    328.85208    274.78178   -23.827439    22.679963    54.070303      40.1121 
131100000    266.99257    308.55627    266.96284   -22.521293    24.273521    41.593427    40.113312 
131104000    281.01697    359.30773    289.31946   -25.430814    23.187077    69.988278    40.114709 
131108000    278.00859    334.26588    292.65882   -23.698673      22.8375    41.607055     40.11379 
131112000    279.83781    329.58425    280.03556   -23.234487    23.106388    49.548696    40.112177 
131116000    261.19447    295.60597     267.6799   -22.375707    24.188688    27.926068    40.112655 
131120000    270.01459    322.15295    275.82241   -21.806482    23.808219     46.33054    40.113188 
131124000    272.34695    326.67492    276.07203    -21.72414    23.150891    50.602885    40.110616 
131128000    271.85275    330.23382    288.31049   -22.356534    22.269429    41.923335    40.111301 
131132000    276.48574    320.81061    304.01573   -21.661229     21.08993    16.794881    40.111802 
131136000    269.95228    318.92982    270.63847   -23.242653    23.440553    48.291348    40.110059 
131140000    268.05109     304.0623    270.02092   -21.515779    23.354253    34.041384    40.109317 
131144000    274.38859    294.30568    301.26628   -21.735472     21.63425   -6.9606043    40.109136 
131148000    273.76631    335.44066    287.81914   -22.560304    22.469316    47.621511    40.108153 
131152000    269.52142    310.56012    268.42949   -22.900263    23.971147    42.130626    40.107719 
131156000    267.83294    291.35981    283.59877   -21.013347    23.310963    7.7610433    40.107243 
131160000     275.0642    329.34015    260.27901    -22.36045    25.023891     69.06114    40.108389 
131164000    274.80696    348.04221    279.79672   -23.576635    23.509601    68.245483     40.10853 
131168000    273.54234    318.95054    297.94559   -23.752863     22.80825    21.004953    40.108041 
131172000    270.04574    317.56669    278.22863   -22.828553     24.19067    39.338058    40.107145 
131176000    280.12893      331.276    279.42568   -22.742303    23.363191    51.850321    40.106956 
131180000    257.41887    296.22188    257.04118    -21.82936    24.262841    39.180704    40.107789 
131184000    274.33942    327.20246    289.26118   -22.860245    22.924112    37.941278    40.108422 
131188000     269.5515    313.47935    291.58472   -22.991224    23.130042    21.894627    40.108675 
131192000     267.9161    318.92296    268.58654   -23.269151    24.777488    50.336418    40.107831 
131196000       262.14    297.73349    267.50826   -23.794405    24.390213    30.225231    40.108405 
131200000    271.04865     303.0547    290.90427   -23.097285    22.535472    12.150426    40.106282 
131204000    269.58867    298.74682    296.45363   -23.396292    23.214936    2.2931917    40.105569 
131208000     270.2851    326.46919    273.49004   -24.729951    24.237381    52.979146    40.105992 
131212000    284.10846     327.6829    288.95091   -25.907195    24.113908    38.731993    40.105832 
131216000    268.85196    314.90849    279.75936   -24.076726    23.118595    35.149132    40.106035 
131220000    272.69998    317.62818    278.68513   -24.874813     23.07239    38.943043    40.108177 
131224000    268.97105    309.43174    277.79953   -23.681334    22.977077    31.632203    40.107302 
131228000    273.00243    337.09848    274.46375   -23.683588    24.129534    62.634734    40.106994 
131232000    267.39314    302.47483    275.56346   -23.501135    23.565173    26.911378    40.107551 
131236000    275.52346    322.88712    289.52047   -24.028927    23.905556     33.36665    40.108919 
131240000    278.85539    354.96643    275.55797   -26.339155    24.575941    79.408456    40.107735 
131244000     277.3713    325.03538    283.50799   -24.545275    23.305789    41.527389    40.107113 
131248000    269.25573    311.36343      261.286   -23.415063    25.687164    50.077433    40.106917 
131252000    281.62047    324.79849      302.765   -24.232346    23.631009    22.033485    40.106429 
131256000    272.48144    300.63251    281.34371   -22.855372     24.74669    19.288803    40.105627 
131260000    272.55395    306.54813    305.95614   -24.638602    24.212189   0.59199126    40.105268 
131264000    277.32516    323.77886    277.34517   -26.496132     24.11542    46.433687    40.104934 
131268000    274.05895     326.4774    279.71525    -25.32711    24.507778    46.762147    40.104851 
131272000    289.09249     361.3582    298.05875   -26.491393    23.846489    63.299443    40.106059 
131276000    278.55256    323.78977     292.5084   -23.885712    23.561948    31.281372     40.10491 
131280000    263.31939    305.92023    264.66318   -23.606437    25.954884    41.257056    40.105028 
131284000    264.22842    300.19614    274.51492   -23.022738    24.480711    25.681224     40.10497 
131288000    271.46917    315.60098    295.06735   -23.094637    23.566577    20.533639    40.104945 
131292000    275.59125     331.5625    291.94779   -24.768527    24.675879    39.614712    40.105701 
131296000    274.16476     331.0234    285.91129   -24.316492    24.547399    45.112117     40.10792 
131300000    267.26163    299.02679     271.2249   -23.884747    24.461629    27.801889    40.108107 
131304000    269.25746    306.25265    290.19863   -23.890224    24.591515    16.054027    40.105941 
131308000    275.69004    318.69306    282.77926   -23.628576    23.977545      35.9138    40.105512 
131312000    276.80419    318.85123    295.07019   -22.737047    23.141297     23.78104    40.104305 
131316000    268.38541    317.92399    266.01124   -23.368362    25.025177    51.912745    40.102506 
131320000    282.69124    360.25895    295.16257   -24.868825    23.479645    65.096375    40.102501 
131324000    282.26595    347.40702    268.76616   -24.320885    24.270437    78.640861    40.102414 
131328000    271.84318    315.36056    294.79752   -23.164356     23.88273    20.563037    40.102001 
131332000    279.09451    337.86936    294.72393   -24.685293    23.671545    43.145426    40.102256 
131336000    276.57377    345.85467     276.4493   -24.771009    25.296428    69.405373     40.10168 
131340000    277.86471    340.99566    300.39305   -22.929437    23.713573    40.602605      40.1013 
131344000    274.86647    329.73461    267.83691   -24.169668    25.736972    61.897705    40.100249 
131348000     272.3651    306.64514    293.30714   -22.108963    23.696022    13.337995    40.101254 
131352000    273.31643    328.75807    287.01593   -22.342622    24.419604    41.742138    40.100749 
131356000    272.07427     309.1717     279.0892   -22.363261    25.121598    30.082495    40.100272 
131360000       273.41    319.62761      285.427   -24.225482    24.450585    34.200608    40.099693 
131364000    273.82922    321.64832    270.07283   -24.236711     25.81778    51.575484    40.101006 
131368000    270.56545    310.02405    288.06269   -22.940413      24.7235    21.961356    40.101037 
131372000    274.86723    338.29803     272.4544   -23.039702    25.496615    65.843627     40.10108 
131376000     289.1275    356.81616    306.62215   -25.042977    23.239028    50.194013    40.101965 
131380000    267.73864    302.50002    276.13311   -22.197266    25.235576    26.366917    40.101381 
131384000    268.21374    315.94892    293.85311   -22.244479    24.733943     22.09581    40.100342 
131388000    283.70243    357.17674    285.47852   -24.779881    25.054224    71.698224    40.101482 
131392000    270.79059     324.1092    266.19829   -22.837688    25.429045    57.910908    40.102266 
131396000    278.15617     354.7997    276.86913   -25.736033     24.24096    77.930577    40.103203 
131400000    275.20909    333.69191    291.96753   -21.845061    24.844078    41.724379    40.103277 
131404000     276.2937    336.91724    305.42011   -22.337393    24.207319    31.497127    40.103217 
131408000    276.96758    321.76327    314.76983   -22.582025    24.351506    6.9934336    40.103485 
131412000    277.03948    328.55731     300.2702   -24.140326    24.475546    28.287109    40.102956 
131416000    260.62572    304.66239    277.12023   -23.096416    25.695355    27.542151    40.103286 
131420000    269.73244    313.02908    289.21171   -22.657398    24.653724    23.817375    40.103399 
131424000    263.31275    301.98058    289.61057   -21.518966    25.050084    12.370019    40.103737 
131428000    276.17214    324.12492    301.44601   -23.600058    24.851319    22.678904    40.104143 
131432000    264.00844    318.80335    289.45366   -22.957442     26.29187    29.349694    40.104292 
131436000    267.92135    316.53794    290.00798   -23.232138     25.85049    26.529969    40.104836 
131440000    273.49549    340.71927    285.08678   -23.397776    26.160824    55.632491      40.1059 
131444000    278.86265     329.0489     293.2446   -23.327585    25.585342    35.804304    40.107761 
131448000    264.06606     313.6631     281.1353   -22.662106    25.439002    32.527805    40.107142 
131452000    274.70855    323.08582    271.73024   -23.616493    26.040614    51.355583    40.106585 
131456000    273.95647     302.2598    290.22971   -21.763751    24.698116    12.030088    40.105118 
131460000    270.78239     315.3699    283.37785   -22.756885    24.597188    31.992055    40.106635 
131464000    268.39178    301.91194    262.83999    -21.74693    24.644146    39.071948     40.10575 
131468000    266.78871    320.00392    259.03083   -23.858468    25.647325    60.973083    40.106315 
131472000    277.46388    331.39305    286.93284   -24.385107    25.192927    44.460212    40.106227 
131476000    268.78532    321.60743    287.65715   -23.643901     24.22655    33.950281    40.107262 
131480000    274.51234    355.71251    277.61573   -24.680018    25.093692    78.096783    40.106383 
131484000    269.62948    335.16384     265.0722   -23.746258    24.542007     70.09164    40.106252 
131488000     276.8202    332.58145    285.38568   -23.466201    23.995893    47.195768    40.106228 
131492000    265.32548    327.35919    251.34343   -24.611254    25.613483    76.015758    40.107663 
131496000    273.71569    331.66889    267.82813   -25.142259    25.008343    63.840765    40.108331 
131500000    265.48787    319.44617     260.3115   -24.790536    25.760565    59.134672    40.109437 
131504000    271.09936    314.90691    278.06809   -24.587595    24.618588     36.83882    40.108817 
131508000    273.09793    334.01238    281.64261   -26.009768     24.62342    52.369775    40.107358 
131512000    271.71795    313.23406    280.05569   -24.777509    24.295974    33.178367    40.108529 
131516000    267.61839    299.82288    266.96391   -23.466789    25.754476    32.858966    40.109908 
131520000    263.62105    307.37217    268.63643   -23.760522     25.57287    38.735747    40.108279 
131524000    271.61524    318.59949    289.48827   -24.227149    24.707721    29.111219    40.108221 
131528000    264.06273    304.09747    273.40103   -25.016533    26.497887    30.696439    40.108803 
131532000    277.60582    329.28557    292.20639     -27.1219    25.271095    37.079182    40.109816 
131536000    273.91445    326.30929    283.35052   -26.711299     25.47299    42.958765    40.110378 
131540000    279.92181    333.97443    299.59836   -27.153334    25.286829    34.376067    40.110587 
131544000    273.74969    327.36556    295.65373   -26.250639    24.462704    31.711839    40.110192 
131548000    265.81355    324.08396    266.43907   -24.848084     26.96692     57.64489    40.109928 
131552000    262.75163    310.61046    265.71699   -24.781952    27.731971    44.893467    40.108662 
131556000    276.84698    326.59287    285.43268   -26.931524    26.202852    41.160188    40.110086 
131560000    272.16802     307.9148    278.07572   -25.898932     26.12729     29.83908    40.109375 
131564000    281.45038    324.69071    277.61301    -27.37206    25.483876    47.077704    40.110133 
131568000    269.05712    313.04068     271.9771   -25.956767    25.160943    41.063585      40.1096 
131572000    273.07642    328.66113    276.53113   -26.166023    25.981655        52.13     40.11096 
131576000    268.95213    317.61905    272.52052   -24.851107     25.64218    45.098528    40.110204 
131580000    277.90471     331.8629    307.52397    -26.19993     25.66407    24.338934    40.111328 
131584000    267.79704    305.45425    294.22624   -24.650116    24.480815    11.228006    40.111059 
131588000    281.21653    330.72819    287.37086   -25.744246    25.512447    43.357336    40.110421 
131592000     277.4736    310.22536    297.43885    -23.97428      25.5572     12.78651    40.111456 
131596000    280.04678    326.45907    283.16868    -25.68008    25.341526    43.290397    40.111644 
131600000    287.35619    350.87909    284.46703   -26.420628    25.658111    66.412057    40.110369 
131604000    278.10897    324.29761    291.68471   -24.662052    24.854859    32.612896    40.109162 
131608000    277.06762    332.95668    291.79208   -26.002918    26.095764    41.164605    40.108552 
131612000    271.38269    321.60888    279.94118   -24.709391    25.285996    41.667694    40.110049 
131616000    277.50292    341.66419    295.05962   -26.460168    25.131894     46.60457    40.108621 
131620000    269.06832    299.22888    292.09111   -25.014858    25.713235    7.1377698    40.106977 
131624000    282.57674     326.1841    299.15095   -26.292105    23.949901    27.033153    40.107247 
131628000    273.53344    316.79819    278.79515   -26.557024    24.778409    38.003043    40.108207 
131632000    266.44992    313.26496    265.18009   -26.103062    25.547261    48.084868    40.108695 
131636000    274.46699    327.17224    279.38228   -26.979965    24.980985    47.789961    40.107357 
131640000    266.10525    298.66109    268.66306   -26.084005    27.212358    29.998024    40.108063 
131644000    285.87732    341.82682    289.73705   -27.037849    25.794952    52.089777    40.108551 
131648000    280.09008    313.97417    284.23965   -26.727361    26.592982    29.734517    40.109004 
131652000    285.33722    329.33926    294.33596   -27.130456     24.89296    35.003301     40.10944 
131656000    278.95116    333.30618     277.0634   -27.523161    24.109269    56.242781     40.11069 
131660000    275.39138      302.469    279.69267   -25.456069    24.680597    22.776335    40.110722 
131664000     265.9084    298.43456    258.29485   -25.064183    25.279677    40.139709    40.109825 
131668000    272.88244    306.41928    275.27254   -25.953464    25.009474    31.146735    40.107936 
131672000    283.78785    324.11846    279.81645   -27.675017    24.396504    44.302014    40.108293 
131676000    284.79984    325.54883    277.23948   -25.675273    25.176929     48.30935    40.109045 
131680000    274.36975    299.38834    280.64051   -25.140955    24.824083    18.747826    40.110134 
131684000    274.25641      324.106    260.41899   -25.976311    25.675029    63.687012     40.11043 
131688000    274.48538    326.89305    256.69944   -25.695612    25.866785    70.193606     40.11091 
131692000    282.23066    327.73929    297.58339    -26.88482    24.473503    30.155902    40.110362 
131696000    283.12653    342.48629    274.79821   -27.155724    25.037352     67.68808    40.110674 
131700000    264.66787    272.24353    277.43504   -24.664916    24.852144   -5.1915117    40.109212 
131704000    277.00115    320.59659    272.75178   -27.409218    26.335628    47.844808    40.109799 
131708000    275.44611    328.44892    275.40146   -27.334644    25.293713    53.047462    40.110227 
131712000    275.16979    304.57918    281.51101   -24.984399    25.193133    23.068171    40.110596 
131716000    285.45534    333.64995    299.39088   -27.396257     24.03537    34.259063    40.109077 
131720000    266.67048    297.22452    281.90243   -25.541199    25.493759    15.322084    40.109877 
131724000    267.06134    316.10663    266.01409    -25.78358    26.499625    50.092533    40.109942 
131728000    275.77552    328.51403      296.029   -26.288376    24.867764    32.485034    40.110573 
131732000    278.38526     340.1664    268.70978   -27.019143    26.198179    71.456621    40.111293 
131736000    288.77971    351.85258    296.24821   -29.490478    24.260948    55.604372    40.112173 
131740000    280.46058    323.66343    281.25659   -28.855638    26.813913    42.406838    40.112698 
131744000    281.52751    349.51391    279.51123   -29.193476    26.077317    70.002678    40.114423 
131748000    266.25864    299.23576    269.97971   -27.039159    25.775596    29.256048      40.1142 
131752000    270.65772     294.6933    271.24032   -24.924371    25.613816    23.452979    40.114024 
131756000    267.89367    319.57446    267.36971   -27.228251     26.01851    52.204746    40.114416 
131760000    278.09763    308.48949    290.95005   -24.956465    25.691427    17.539436     40.11496 
131764000    278.63415    330.03503    287.08583   -26.546579    25.187492    42.949202    40.115836 
131768000    279.56798    328.69162    293.09205   -27.370911    25.412474    35.599566     40.11582 
131772000    267.57497     319.5368    269.64732   -26.695244    25.465316    49.889484    40.114582 
131776000    279.74995    334.52157    280.13454    -28.70055    26.348656    54.387034     40.11366 
131780000    282.29764    331.25177    292.47335      -27.593    26.002943    38.778419    40.114218 
131784000    271.59709    306.11425    284.11531   -27.167578    25.552947    21.998943    40.114651 
131788000    280.16093    334.78173     272.3155   -28.390006    26.847372    62.466224    40.114912 
131792000    277.68759    329.32598    285.69272   -28.227656    26.191243    43.633255    40.114971 
131796000    274.72602    300.09879    295.93685   -25.162086    24.308743    4.1619389    40.113966 
131800000    269.46685     325.3462    267.31822   -27.000847    26.306113    58.027981    40.113701 
131804000    283.43643    338.30955    276.36072   -27.340387    26.041347    61.948833    40.115117 
131808000    270.83245    307.82269    304.41851   -25.904194    25.110338    3.4041812    40.113985 
131812000    269.47496    304.41769    285.69374   -24.695842     25.89813    18.723952    40.114275 
131816000    271.40307    294.46164    289.77564   -23.832333    26.467479    4.6860025    40.112807 
131820000    280.76743    318.51613     297.2278   -23.990062    26.462749    21.288334    40.112957 
131824000     272.3637     327.9168    276.43487   -23.950712    26.320424    51.481931    40.113402 
131828000    262.36073    308.04309    264.01633   -25.239697    27.183885     44.02676    40.113338 
131832000    272.50633     323.7718    259.80485   -25.670671    26.497881    63.966948    40.114467 
131836000    278.09548      318.873    282.08126   -26.250157    26.227497    36.791742    40.115409 
131840000    275.27245    314.19945    277.74469   -26.633016    25.758946     36.45476    40.114619 
131844000     284.4327    321.22793     310.2004   -26.626084    24.769618    11.027536    40.114338 
131848000    266.47238    296.46381    272.69697   -25.485346    26.464324    23.766843    40.113993 
131852000    277.87276    328.59509    288.32788   -26.224546    24.370417    40.267215     40.11467 
131856000    278.21875    322.17406    263.80218   -25.558654     25.48344    58.371875    40.114272 
131860000    275.95111    326.76645    257.41566   -26.054069    25.383643    69.350787    40.114018 
131864000    271.80182    309.75962    279.91911   -24.556995    24.817273    29.840507      40.1135 
131868000    263.90489     312.5375    261.92502   -26.188711    25.885268    50.612485    40.113472 
131872000    271.17471    310.07665    282.02351   -26.405917    24.579452    28.053141    40.113053 
131876000    270.93174    321.15746     267.3029   -26.006456    25.776169    53.854566    40.111266 
131880000    280.93643    311.24397    291.80849   -24.825289      24.9949    19.435486    40.111707 
131884000    273.67631    328.02224    291.16261    -25.86661    24.869108    36.859635    40.111776 
131888000    276.96174    328.24292    272.72142   -26.489056    25.560806    55.521494    40.112126 
131892000    272.26907     315.5509    279.05121   -25.371921    24.657765    36.499694    40.111729 
131896000    278.91449    313.20916    294.46299   -24.955951    25.699464    18.746165    40.112589 
131900000     273.9072    304.52032    289.51298   -25.603541    25.224299    15.007333    40.111161 
131904000    275.48578    297.41142    297.59094   -24.906685    24.058531   -0.1795108    40.110242 
131908000     285.7218     322.0735     286.6826   -26.743416    25.093184    35.390898    40.109516 
131912000      267.625    295.08247    285.41398   -24.063462    24.650695    9.6684908    40.109498 
131916000    279.14551    298.53418    294.28778   -25.674074    24.016888    4.2463998    40.110352 
131920000    276.78478    320.32695    288.33402   -26.705014    25.099231    31.992933    40.112145 
131924000    286.98914    351.73303    284.61225   -27.308604    25.559868    67.120779    40.113456 
131928000    282.53191    336.56253    278.28175   -28.134004     25.95676    58.280774    40.113603 
131932000     277.2694    304.84762     279.6588   -26.791008    25.458269    25.188817     40.11469 
131936000    275.42553    317.07508    260.54626   -26.564251    26.756563    56.528819    40.115626 
131940000    273.89065    302.19346    274.98341   -25.085474    25.010344    27.210049    40.115375 
131944000    284.62115    325.21069    298.37991   -26.955075    24.124546    26.830778    40.115142 
131948000    272.13082    320.17331    269.53373   -26.495259    25.757298    50.639575     40.11465 
131952000    271.65116    294.06599    277.99701   -26.534254    25.920622    16.068985    40.113721 
131956000    280.70202    338.23562    285.22788   -28.347772    25.105383    53.007738    40.113919 
131960000    276.59324    310.12186     285.0135    -27.10926    26.528499    25.108356    40.112467 
131964000    291.27972    334.05654    300.12584   -28.207726    25.061342    33.930703    40.112648 
131968000    276.70656    320.05219    271.43866   -27.488306    26.645365    48.613533    40.111955 
131972000    278.55675    321.57977    278.17337   -27.003524    26.393588    43.406401    40.111458 
131976000    269.00353    317.15023    280.19493   -26.531186    26.357701    36.955304    40.111712 
131980000    276.88761    318.40752    268.43423   -26.157581    25.020094    49.973289    40.113443 
131984000    264.49467    298.33459    272.30573   -25.256237    25.945376    26.028868    40.113578 
131988000    269.66276    340.99009    259.39679   -27.462832    26.750264    81.593303    40.113635 
131992000    279.27518    330.60014    285.73862   -26.512547    24.320069    44.861518    40.113405 
131996000    284.92169    335.09588    289.82285   -27.418447    25.582839    45.273027    40.113168 
132000000    262.76483    289.06573    265.39031    -24.46982    26.176311    23.675421    40.112899 
132004000    275.32853     306.0586    280.80452   -25.969083    25.881714    25.254078    40.111844 
132008000    278.67802    330.01087    280.42009   -27.064978    25.757381    49.590786    40.112006 
132012000    280.13693    335.63835    282.85924   -27.415882    26.040902    52.779111    40.112608 
132016000    285.59052     328.3475    315.58608   -26.770988    23.334968    12.761423    40.112881 
132020000    275.75108    320.71446    287.90763   -26.371049    25.108824    32.806827    40.113413 
132024000    278.99506    318.87716    286.54642   -26.964634    26.158336    32.330733    40.113285 
132028000    270.42934    309.90745    278.71311   -25.719558    25.703825    31.194345    40.114211 
132032000    269.21114    320.51895    263.49233   -26.456226    26.728178    57.026622     40.11276 
132036000    269.85062    319.47063    263.15572   -25.380056    26.772394    56.314916      40.1128 
132040000    276.68841    318.25403     289.7275   -25.574774    25.376282    28.526523    40.113331 
132044000    285.82486    334.71421    303.01482   -26.403628     24.40398    31.699388    40.112409 
132048000    271.71579    298.79552    286.41166   -23.880753    25.685383    12.383861    40.112168 
132052000    276.94434    320.23338    291.50645   -24.506159    25.720907    28.726924    40.111622 
132056000     268.0616    306.32774    278.52191    -25.69123    26.182559     27.80583    40.110173 
132060000    270.32293    309.90748    284.23922   -26.852705    25.031647    25.668258     40.11084 
132064000    264.86606     305.7655    260.22093   -24.959829    25.628331    45.544573    40.111134 
132068000    275.35654    323.43032    263.33534   -25.326028     25.47516    60.094982    40.110812 
132072000     276.4922     308.0372     280.5273   -26.134047    24.858158    27.509906    40.110803 
132076000    273.92509    323.20728    290.90793   -25.943845    24.540717    32.299344    40.110732 
132080000      274.372    326.44309    283.46345   -25.826206    24.162345     42.97964    40.110039 
132084000    273.52158    309.73799    277.44618   -25.557629    25.705879     32.29181    40.110651 
132088000    273.55381    333.69638     271.4986   -25.937052    26.136261    62.197779    40.109404 
132092000    273.78803    309.31296    274.72249   -25.575225    25.702078    34.590469    40.109917 
132096000    263.10274    289.72781    282.52843   -24.559473    26.091206    7.1993841    40.109995 
132100000    268.64308    311.20783    276.42073    -24.62562    25.364709    34.787103    40.109962 
132104000    268.00323    322.16656    270.42049   -25.806297    26.802803    51.746073    40.108871 
132108000    275.32717    314.14962    293.02494   -26.007867    25.257149    21.124676     40.10863 
132112000    263.83391    325.27996    266.40463   -26.571602    26.121792    58.875332    40.108991 
132116000    273.60041    328.11909    292.93396   -26.440855    25.476448    35.185131    40.109864 
132120000    272.50987     334.8878    281.64865   -27.296349    26.712651    53.239151    40.108715 
132124000    273.78068    320.84634    280.70122   -26.233829     26.50242    40.145116    40.109994 
132128000    263.38591    286.19543    280.58757   -23.660784    25.460641    5.6078644    40.109223 
132132000    272.47943    303.86875    298.28451   -25.847518    25.480345     5.584232    40.108191 
132136000    265.64319    319.31611    261.83702    -25.55478    26.746516     57.47909    40.107469 
132140000    270.03891    317.68754    291.80728   -24.748461    25.043647    25.880265    40.106782 
132144000    273.00118    320.56212    286.60306   -25.183485    25.058585    33.959065    40.107237 
132148000    274.22267    313.82704    281.85849   -25.776614    24.336266    31.968559    40.107233 
132152000    271.42602    293.03173    278.77711    -25.92133    25.030425    14.254626    40.108947 
132156000    279.36649    347.22358    277.44973   -26.827038    26.153439    69.773853    40.108287 
132160000    275.22626    325.78772    278.99204   -25.687302      26.2012    46.795682    40.109807 
132164000    272.27433    312.79484    286.53414   -25.189207    25.911256    26.260694    40.109972 
132168000    280.48761    335.34188    276.15459   -25.351425    26.415249    59.187293    40.110229 
132172000    268.44243    304.92495    299.63023     -25.2652    24.966196    5.2947226    40.109925 
132176000    279.09563     324.7926    283.36035   -25.245731     26.22604    41.432256     40.11094 
132180000     259.5668    313.00311    259.71357   -24.439561    26.929546    53.289542    40.110758 
132184000    272.71914    327.12336    285.33375   -25.503824    25.183564    41.789614    40.112398 
132188000    275.70657    346.67031    266.29701   -25.599804    25.795696    80.373297    40.110403 
132192000    276.58539    317.74121    302.73443   -24.319278    25.457147    15.006776    40.110257 
132196000    271.26759    323.21563    289.94862   -24.726187    25.787667    33.267006    40.109299 
132200000    271.80115    315.50421     280.8329   -25.738694    26.339884    34.671309     40.10924 
132204000    268.41304    311.64286     279.5663   -25.769981    26.185066    32.076558    40.109118 
132208000    265.68581    283.81004     287.4447   -24.371546    26.105152   -3.6346559    40.107512 
132212000    272.09399    304.43319     272.6067   -25.646615    25.622369    31.826494    40.107503 
132216000    280.04329    327.08111    283.47086   -27.350905    25.214517    43.610249     40.10783 
132220000    265.85209    300.80129    273.35084   -25.285966    25.855272    27.450459    40.108196 
132224000     276.7105    313.40332     289.0276   -26.981736    25.847062     24.37572    40.108172 
132228000    279.60022    348.24267    282.36699   -28.744699     26.23238    65.875676    40.110125 
132232000    271.09204    316.08733    272.83157   -26.254396    27.050702    43.255759    40.109704 
132236000    271.06534    314.14139    290.45427   -27.512478    25.112716    23.687123    40.108645 
132240000    271.34277    292.01115     295.5866   -24.996283    25.645239   -3.5754479    40.109594 
132244000    280.44365    321.27884    288.39676   -26.104661    25.723299     32.88208    40.108753 
132248000    287.89685    337.24464    293.62583   -27.030963    25.799007    43.618805    40.109292 
132252000    274.22292    303.21169    274.41374   -26.408832    26.418486    28.797956    40.110212 
132256000     281.6967    308.65786    290.91647   -27.246992    25.009899    17.741393    40.109707 
132260000    281.68137    339.55338    287.54613   -28.202074    25.934024    52.007255    40.109421 
132264000    275.05991    314.49335    272.54663   -27.322033    26.458827    41.946722    40.109956 
132268000    276.07618    317.94932    281.51422   -26.040023    26.970359    36.435093    40.108885 
132272000    271.56244      321.371    260.10394   -27.068593    27.662846    61.267059    40.108986 
132276000    281.66487    332.49504    285.62991   -26.273839    26.427333    46.865125    40.109766 
132280000    277.49035    322.09555    297.09661   -27.246334    25.793215     24.99894    40.110998 
132284000    273.43905    327.22206    269.35008   -27.621667    26.031766    57.871987    40.111683 
132288000    280.10812     320.3469    287.43097   -26.641486     25.22342    32.915933    40.112514 
132292000    280.94201    323.66051    297.53781   -27.312698    25.245323    26.122699    40.111939 
132296000    289.61621     366.2384     282.4587   -28.633749    25.983172    83.779703    40.112154 
132300000     270.9585    324.73293    269.76655   -27.334664    27.812787    54.966383    40.112706 
132304000    271.66005    322.14021     261.9904   -26.352763    28.187818    60.149811    40.110997 
132308000    271.04534    329.03732    272.26879   -27.178796    27.392444    56.768535    40.110492 
132312000    264.63543    305.88334    263.17256   -26.518905    27.285711    42.710787    40.110427 
132316000    271.34956    306.09809    285.27381   -26.940723    26.289716     20.82428    40.111285 
132320000     270.8283     301.7944    262.04157   -25.464409    27.883503    39.752829    40.110005 
132324000    267.07363     291.1864    273.65674   -25.819792    27.032778     17.52966    40.109035 
132328000    282.32252    329.85864    292.93509   -27.145267    27.023633    36.923547    40.109087 
132332000    270.56682    328.71093    270.43531   -27.863233    27.842565    58.275614    40.108914 
132336000    272.00543    335.20526    267.23961    -29.22185    27.855029    67.965647    40.108622 
132340000    278.85705    303.72978    297.14481   -27.009304    25.264421    6.5849739     40.10677 
132344000    276.59214    319.98796    288.85029   -27.141453    25.989007     31.13768    40.108629 
132348000    285.00884    333.22817    304.28749   -26.445782    26.566097    28.940678    40.108333 
132352000    267.46856    305.00983    278.08638   -26.282017    25.940038    26.923454    40.107576 
132356000    271.08302    343.13267    264.53905   -27.345882    26.810709    78.593618    40.107741 
132360000     269.0116    314.13416    274.35951   -25.779899    26.815471    39.774645    40.108123 
132364000    278.81042    328.59054    292.92708   -26.641539    25.943186    35.663461    40.108773 
132368000    274.85855    312.00062    272.82391   -26.137885    27.187659    39.176714    40.108256 
132372000     284.5616    350.49021    271.09005   -28.681161    26.537751    79.400164    40.108444 
132376000    273.53413    322.19954    286.56756   -25.437148    25.382583    35.631982    40.109474 
132380000    281.32219    323.00352    289.88969   -26.531474    26.106406    33.113827    40.109531 
132384000    280.92358    351.72596    287.88192   -26.617225    26.113003    63.844044    40.110344 
132388000    272.15749    304.54716    287.48908   -24.302802    25.319663    17.058078    40.109764 
132392000    274.89843    345.23024    271.07565   -26.388066    26.308849    74.154585    40.109632 
132396000    272.53155    309.63508    287.14957   -24.627207    25.637976    22.485504    40.109102 
132400000     277.6103    307.93461    299.71368   -24.499045    26.282113    8.2209316    40.109192 
132404000    269.57821    325.33429    271.35846    -24.80812    26.962135    53.975833    40.109122 
132408000    271.55579    332.82941    286.04517   -26.322384    26.913491    46.784239    40.110008 
132412000    263.83322    300.53031    271.51104   -25.699049    27.019827     29.01927    40.110997 
132416000    278.39596     323.2099    286.35863   -26.431204    26.331621    36.851267    40.111256 
132420000    261.75411    317.08001    243.99622   -26.153191    29.743828    73.083791    40.110571 
132424000    277.66242    337.78897    292.13653   -27.122129    25.529052    45.652446    40.111862 
132428000    268.34734    327.91156    279.20355   -26.938647    26.822453     48.70801    40.110859 
132432000    268.45168    326.79965    271.89718   -25.937485    26.777679    54.902467    40.109119 
132436000     267.5815    284.98467    286.47349    -24.68472    26.444721   -1.4888264    40.107637 
132440000    271.24306    321.65683      281.653   -26.248564    26.636063    40.003834    40.108149 
132444000    277.63538    316.71862    282.35807   -26.878419    27.070564    34.360557    40.107809 
132448000    277.86817    348.14726     274.7909    -28.15782    27.428008    73.356363    40.107925 
132452000    277.46269     313.7174    307.99338   -25.634904    25.704186     5.724023    40.106672 
132456000    268.40774    314.69234    279.56256   -26.876116    27.564082    35.129781    40.105435 
132460000    269.72875    321.72524     282.3397   -28.270482    27.205045     39.38554    40.106224 
132464000    272.73391    326.69197    287.74984   -28.187322    26.975699    38.942131     40.10733 
132468000    272.43119    327.99288    293.89383   -27.748886    28.200366    34.099044    40.107148 
132472000    267.26969    314.83752    270.35913   -27.581677    29.162017    44.478395     40.10705 
132476000    276.82426    321.65593    283.77834   -25.945343    28.110068    37.877587    40.106776 
132480000    269.97338    330.48226    280.51712   -26.810091      27.1561    49.965144    40.106379 
132484000    269.12602    313.74345    268.14035   -26.033045    26.935191    45.603103    40.106059 
132488000    283.22215     323.3275    292.18048   -26.969473    26.696421    31.147017    40.106336 
132492000    275.59467    350.39664     275.6734     -28.2717    26.842802    74.723236    40.106882 
132496000    272.35109    329.80431    261.49329   -27.687871    27.845709    68.311021    40.107901 
132500000    273.00063    325.12937     262.6558   -28.110261    27.990154    62.473578    40.108105 
132504000    273.64274    330.80007    282.88505   -28.121071    26.459596     47.91502    40.107654 
132508000    283.50732    352.92068    287.74384   -29.641499    26.978459    65.176837    40.106769 
132512000    281.13684    356.07081    280.41812   -29.060017    27.908928    75.652691    40.106083 
132516000    274.12469     324.4508    270.02517   -27.312024    27.492422    54.425632    40.105461 
132520000     272.1377    319.23836    279.51328   -27.847419    27.535149    39.725082    40.105824 
132524000    271.54777    296.70876    287.11052   -27.423196    26.572525    9.5982383    40.106322 
132528000    263.97705    299.11705    262.40575    -27.64168    28.388519    36.711298    40.105791 
132532000    271.14677    305.96188     293.0366    -27.93013    27.086667    12.925283    40.104809 
132536000    282.37543    321.80851    288.67647   -28.812918    26.925206    33.132045    40.104918 
132540000    278.65956    335.72623    272.26844   -28.928898    27.385523    63.457793    40.103731 
132544000    276.00588    326.58344    282.18735   -28.974063    27.377465     44.39609      40.1034 
132548000    278.46388     329.0421    285.77227   -29.594714    26.719428    43.269835    40.102943 
132552000    288.72053    321.36356    320.19913   -30.617658    25.074061    1.1644263    40.103326 
132556000    271.48984    309.59007    279.48279   -29.490353    26.997476    30.107284    40.103937 
132560000    274.45901    313.13111    265.40612   -29.710375    28.040404    47.724988    40.104116 
132564000    271.59709    309.47024    267.96271   -29.296624    27.102796    41.507528    40.105855 
132568000    278.82801    292.86115    290.13568   -28.526157    27.587298    2.7254774    40.103804 
132572000     273.5253    308.51244    282.95815   -29.905153    26.923351    25.554289    40.102431 
132576000    276.05968    321.74444    279.16476   -30.466587     27.58458    42.579683    40.102245 
132580000    274.53059     320.4427    263.21797   -29.323142     28.99464    57.224735    40.102507 
132584000    278.88546     327.2137    288.67903   -28.969855    27.263355    38.534673    40.101757 
132588000    275.48544    311.06024    282.00913   -29.184796    26.432635     29.05111    40.102546 
132592000    272.77383    297.08687    289.83747   -27.873718     27.11314    7.2493933    40.102192 
132596000    286.60031    337.35096    278.02677   -30.299811    27.356288    59.324186    40.101548 
132600000     276.8324    319.44225    271.58439   -29.475205    28.306591    47.857857    40.101671 
132604000    278.20317     331.2869     276.6448   -29.883149    27.542381    54.642108    40.101319 
132608000    278.06243    307.85001    295.02316   -28.840882    27.143273     12.82685    40.102532 
132612000    275.63337    318.53625    291.85586   -28.754847    27.538278    26.680394    40.102366 
132616000     278.9928    323.64565    290.98971    -29.48431    27.414994    32.655942    40.099958 
132620000    276.20241    303.23772    268.62892   -28.870281    27.921922    34.608794    40.099305 
132624000    276.62624    321.33679    275.80046   -28.901666     27.40281    45.536328    40.099224 
132628000    279.25743    314.90418    283.30359   -28.611813    26.893936    31.600582    40.099588 
132632000     279.1036    325.20431    295.32066   -29.698129    26.846088    29.883649    40.099879 
132636000    276.15263    324.52513    265.04677   -28.831603    28.201292    59.478354    40.100645 
132640000    283.79222    329.30304    288.09188    -29.45558     26.79408    41.211156    40.101384 
132644000    272.41315    311.19952    279.03889   -28.097371    27.464796    32.160626    40.101829 
132648000    285.13863    324.28812    294.20475   -28.906448    27.221831    30.083366    40.100851 
132652000    278.19787    315.52705     288.8116   -27.948788     26.56845    26.715448    40.101283 
132656000    276.53742    323.59238    286.22134   -29.490548    27.263675    37.371039    40.100795 
132660000    275.75176    320.61259    292.28557   -28.313612    25.767239    28.327023    40.101668 
132664000    285.89193    326.02609    275.49833   -27.943348    27.666474     50.52776     40.10002 
132668000    276.51157    299.92583    290.70055   -27.607309    27.137545    9.2252827    40.098741 
132672000    278.34924    330.06827    280.18787   -28.944756     26.28718    49.880405    40.098096 
132676000     287.0714    330.59884    295.81646   -29.337378    26.086772    34.782379    40.097843 
132680000    274.91644    314.11511    261.86537    -29.03308    27.938652    52.249736     40.09847 
132684000    272.49281    280.70701    291.55675   -25.907773    26.043798   -10.849734     40.09902 
132688000    274.83267    330.63403    259.34578   -28.592179    28.079795    71.288253    40.100872 
132692000    285.42831    338.44294    288.32667   -29.278639    27.070632    50.116267      40.1017 
132696000    284.59168    321.61915    283.63807   -27.768703    26.629419    37.981081    40.101849 
132700000    282.95192    344.36324    272.87063   -28.958881    27.274698    71.492614    40.101431 
132704000     286.4337    335.28799    294.21416   -29.451283    25.827303    41.073833     40.10063 
132708000    275.47422    342.63966    281.23516   -29.039379    28.249923    61.404497    40.100134 
132712000    276.31611    313.40218    276.76038   -27.337627    27.379651    36.641804    40.100916 
132716000    280.68981    338.76629    264.95188   -28.788027    26.915986    73.814413    40.101466 
132720000    287.12462    338.93601    300.30774   -29.041277    25.926063    38.628268    40.102244 
132724000    275.69926    324.49925    291.74872   -29.101398    26.538809    32.750528    40.102181 
132728000    284.09775    319.31297    287.41721   -29.136727    27.416463    31.895761    40.103524 
132732000    282.11694    318.19644    303.16184   -28.709787    25.618232    15.034602    40.104343 
132736000    288.63062     341.0716    284.49753   -31.078189     24.73174    56.574074     40.10402 
132740000    279.04108    325.65225    287.89716   -30.249039     25.91564    37.755083    40.104017 
132744000    281.70715    325.80358    286.95589   -29.857611    26.562138    38.847691    40.103761 
132748000     280.8739    307.81567    290.46074   -29.263011    26.091758    17.354925    40.103818 
132752000    273.63343    305.66137    267.25557   -29.549351    26.684971    38.405809    40.104213 
132756000    283.19716    324.12855    281.89799   -30.788238    26.224163    42.230559    40.104019 
132760000    283.71813    322.98226    295.22656   -30.009435    24.890656    27.755702    40.103681 
132764000     282.3434    335.81727    266.73607   -30.109087    26.606421    69.081193      40.1035 
132768000       284.25    315.61625    279.51315   -30.073009    26.067611    36.103105    40.103081 
132772000    277.62727    314.64524    282.89367   -29.238842    27.071201    31.751566    40.104065 
132776000    275.78894    320.15201    268.01076   -29.359959    27.288878    52.141255    40.104262 
132780000    288.38871    326.50773    301.57244   -29.531476     26.18383    24.935293    40.103807 
132784000    280.10756    307.31366    272.42972   -27.209211    27.008348    34.883935    40.102962 
132788000    280.89792    327.57811    273.87073   -29.287669    27.515652    53.707377    40.103888 
132792000    284.38614    322.92329    289.45238   -29.426906    27.339137    33.470913    40.103951 
132796000    283.72342    330.11528    282.95704   -28.465704    25.819738    47.158238    40.104103 
132800000    284.54378    312.79251     296.8489   -28.510638    26.190269    15.943617    40.103764 
132804000    275.37963    315.68967    278.01811   -28.135424    26.969534    37.671559    40.105012 
132808000    283.30586     312.4577    284.77373   -29.151577    26.663284    27.683967    40.104644 
132812000    282.63216    329.98489    267.60231   -29.874397    27.118596    62.382581    40.104443 
132816000    278.12658    314.21614    267.88926    -28.94789    28.229604     46.32688    40.105214 
132820000    287.29879    336.30439     294.7887   -29.944736     25.65953    41.515694    40.105248 
132824000    274.95038    309.01142    278.90311   -28.789079     25.91739    30.108312    40.104662 
132828000     279.9396    312.55384     285.9682   -28.298267    26.472833    26.585635    40.102989 
132832000    274.08045    322.34555     279.4903   -28.937572    26.909965    42.855251    40.103377 
132836000    275.68391    315.59492    263.48811   -27.826143    27.720951    52.106808    40.103693 
132840000    280.23818    326.68817    291.51091   -29.987901    27.033384    35.177258    40.103452 
132844000    278.53688    324.22465    276.23771   -27.456393    27.065759     47.98694     40.10421 
132848000    276.50444    319.95277    290.61345   -28.708242    26.693956    29.339314    40.104465 
132852000    274.14397    288.64833     282.1912   -27.300662    27.818352    6.4571386    40.102827 
132856000    265.62706    307.99627    271.01824   -27.074972     27.61309    36.978027    40.103267 
132860000     273.5436    320.15281    268.15108   -28.344424    28.521222     52.00173     40.10523 
132864000    282.60404    311.81568    304.54995   -27.513551    26.547603    7.2657219     40.10416 
132868000    278.06286    321.20238    269.14105   -28.492486    28.933353     52.06133    40.105136 
132872000    281.39486    330.36915    269.79278   -30.375161    27.879097    60.576366    40.104527 
132876000    276.51523    309.65091    279.57741   -28.753542    27.074315    30.073503    40.104149 
132880000     279.4429    325.82187    280.87056   -29.055618      26.9575     44.95131    40.103223 
132884000    281.31364    332.48964    277.25186   -29.129131    27.594214    55.237779    40.104231 
132888000    287.06222    329.74793    287.12354   -29.426774    27.155574    42.624394    40.103345 
132892000    278.34098    322.74533    283.80715   -29.945485    27.586057    38.938179    40.103117 
132896000    277.15629    306.69866    289.09412   -30.191834    27.233574    17.604533    40.103209 
132900000    268.75836    297.52466    276.40361   -27.085877    27.648487    21.121055    40.104087 
132904000    285.93253    327.41996    302.55083   -27.985028    26.931095    24.869125    40.102919 
132908000    261.18808    302.41338    250.13211   -28.476101    29.179511    52.281271    40.102823 
132912000    266.46279    321.17171    270.85541    -29.26949    28.578772    50.316296    40.102107 
132916000      277.014    318.16813    277.35975   -29.496865    27.740968     40.80838    40.102222 
132920000    279.20946    327.36745    279.47817   -29.020805    27.873865    47.889284    40.102356 
132924000    283.96849    351.88876    268.06565   -30.120352    28.185555    83.823115    40.102511 
132928000    272.22824    313.28717    279.41278    -29.32291    27.147488    33.874386    40.103055 
132932000    283.97933    348.61954    280.16453   -30.048032    27.638666    68.455013    40.103402 
132936000    268.46694    301.43515    273.64574   -27.666066    26.951852     27.78941    40.103729 
132940000     278.9094    314.58492     269.2687   -27.729981    28.026646    45.316218    40.103912 
132944000    282.20896    315.21251    316.04525   -26.653741      26.5708  -0.83273596    40.102318 
132948000    273.99232    324.34042    270.96772   -26.569783    28.278767      53.3727    40.101612 
132952000     276.8551    321.06756    288.73918   -26.858932    27.022509    32.328381    40.101709 
132956000    275.42293    312.48686    276.59383   -26.580014    28.020001    35.893027    40.102543 
132960000    275.45407    326.04837    263.06105   -27.633877    28.009098    62.987316    40.102319 
132964000    277.18599    327.06653    278.35104   -28.350731    27.938565    48.715487    40.101008 
132968000    259.87033      301.532    260.63693   -26.832548    28.888427    40.895075    40.101747 
132972000    283.99014     330.9586    290.96781   -28.659228    26.514336    39.990789    40.101211 
132976000     264.5566    297.37187    265.33821   -26.426307    27.900341    32.033668    40.101903 
132980000    278.93045     329.0507    291.43278   -26.482845    26.662776    37.617918    40.101906 
132984000    282.20606    341.19606    280.49679    -27.33013    27.623556    60.699262    40.100705 
132988000    274.55683    311.73065    299.30351    -25.82789    26.317838    12.427142    40.100277 
132992000    273.17171    335.20601    280.25779   -26.253302    27.529259    54.948219    40.100341 
132996000    269.73199    299.79874    277.11835   -25.253195     27.19055    22.680387    40.100632 
133000000    285.81993    363.13797     303.4591   -28.454726    24.747723    59.678872    40.100078 
133004000     267.0568    324.85444    273.26189   -26.436853    27.473339     51.59255    40.098619 
133008000    278.28318     344.5142    297.89983   -28.706475    26.307954    46.614377    40.098786 
133012000     272.7903    307.66743    285.19327   -25.542141    27.142569     22.47416    40.099012 
133016000    277.22428    328.46101    297.23413   -26.601156     27.31466    31.226884     40.09816 
133020000    271.53121    313.01525    289.97112   -25.444393    26.869495    23.044132    40.098509 
133024000     277.6924    327.50404    285.12891   -26.258627    27.443514    42.375132    40.099147 
133028000    272.23491    332.61841    279.60248   -27.692361    27.555438    53.015931    40.100328 
133032000    270.31323     316.5634    287.27931   -26.504011    26.271165    29.284094    40.099813 
133036000    277.97539    336.56511    290.78792   -27.364797    27.589077    45.777187    40.098669 
133040000    276.81594    335.48029    283.94793    -27.76653    27.162618    51.532353    40.097802 
133044000    265.98481     309.8131    277.40372   -25.494956    27.369493    32.409383     40.09786 
133048000    264.98139    303.97549    290.47415   -26.075849    27.505748    13.501333    40.097731 
133052000    281.84844    355.12297    279.56388   -27.022271    26.964555    75.559087    40.098862 
133056000    278.39594     357.8745     261.8818   -28.401827     28.34336      95.9927     40.09962 
133060000    278.37732    331.24551    274.19477   -27.823642    27.261626    57.050736    40.100301 
133064000    275.08887    315.09079     295.4893   -28.161065    27.226468    19.601495    40.101601 
133068000    281.08376     335.3698    270.76343   -28.261672    28.227196    64.606365    40.101475 
133072000    273.81678    321.57129    276.61788   -26.786772    27.187522    44.953411    40.102935 
133076000    271.53186    307.69919     265.3641   -26.632343    28.211253     42.33509    40.103473 
133080000    278.20048    305.52617     317.1998   -25.998684    25.814918   -11.673634    40.103486 
133084000    280.03056    316.62284     293.1099   -27.852222    26.989096    23.512943     40.10338 
133088000    279.00872    313.58759    286.43641   -27.445506    26.792953    27.151175    40.102954 
133092000    278.89483    323.92567     280.2355   -28.399424    27.416272    43.690165    40.103107 
133096000    284.32564    330.18404    288.11978    -29.09145    26.493823    42.064259    40.102549 
133100000    272.24462    288.80735    289.46071   -27.270355    26.496884   -0.6533578    40.102161 
133104000    284.48089    315.93388    290.93978   -27.831456     26.89383    24.994102    40.100271 
133108000    274.63884    322.95649    277.38193   -28.850361    27.433382    45.574561    40.098892 
133112000    280.30771    321.82425    289.88272   -27.734333    26.836701     31.94153    40.099113 
133116000     279.1158    314.61023    284.33876   -26.899334    26.799931    30.271474    40.098522 
133120000    278.45994    319.29301    277.25587   -26.951128    26.963918    42.037136    40.098912 
133124000    285.53451    346.92515     272.1086   -28.308768    26.406301    74.816553    40.098409 
133128000    283.74853    320.84403    290.55296   -27.804911    26.218485    30.291073    40.100215 
133132000    274.30371    333.09809    270.90211   -29.246799    28.751279    62.195977    40.099696 
133136000    278.53435    300.13266     285.5668   -27.831299    27.013337    14.565861    40.099878 
133140000    280.45089    324.80359    286.81294   -27.694334    26.222189     37.99065     40.10125 
133144000    280.70252    310.82941    276.19624   -28.796257    27.140744    34.633172    40.101565 
133148000    281.14258    328.64056     288.1472   -27.891021    26.838362    40.493357    40.102629 
133152000    274.59827    312.28806    268.12253   -28.012711    27.439892    44.165532    40.102527 
133156000    277.53759    320.26532    269.32463   -27.357375    26.928107    50.940683    40.101472 
133160000    270.88961    314.97826    272.30809   -26.518723    26.918957     42.67017    40.100137 
133164000    285.34668    334.21964    272.97535   -27.741294    27.743846    61.244289    40.100056 
133168000    276.48428    315.44956    283.85725   -26.721371    27.105782    31.592314    40.099812 
133172000    271.87803    307.39964    288.63989   -27.049215     26.15997    18.759744    40.101105 
133176000    273.96613    325.43508    280.95624   -27.375521    26.248948    44.478838    40.101887 
133180000    275.03725     321.8947    274.82451   -27.154941    26.666949    47.070188    40.101952 
133184000    279.61181    329.24563    295.21372   -28.132185    26.917033    34.031911    40.101385 
133188000    275.66082    311.81894    276.86537   -27.065308    27.282995    34.953576    40.102052 
133192000     265.5314    307.44959    258.44406   -27.516191    27.400327     49.00553    40.102199 
133196000    274.87926    312.31905     287.0794   -26.933656    26.306982    25.239656    40.103862 
133200000    273.06691    319.90298    285.22975   -26.531271    26.572478    34.673232    40.103966 
133204000    271.55149    331.07766    278.60956   -27.500267    27.616583    52.468096    40.105251 
133208000    275.14447    330.25668    290.84068   -26.564938    27.170777    39.415993    40.103946 
133212000     278.3816    326.94322    291.48087   -28.517443    27.167547    35.462348    40.104401 
133216000    281.50254    347.94457    288.02517   -28.565287     26.58983    59.919398    40.103113 
133220000    270.08088    314.21403    275.28127    -27.26217    27.742571    38.932764    40.102306 
133224000      270.066    300.54245    286.89862   -25.132532    26.951826    13.643829    40.100875 
133228000    268.80755     303.7307    279.52554   -25.086447     27.89861    24.205159    40.100826 
133232000    276.84839    325.41267    283.96792   -26.439366    27.652138    41.444747    40.101946 
133236000    274.94473    307.09988    277.84704   -25.762432    26.895648    29.252838    40.100828 
133240000    276.72064    323.19929    275.87278   -27.340709    27.745581     47.32651    40.100656 
133244000    266.21445    299.65442    283.55875   -25.792218    26.244096    16.095671    40.099682 
133248000    280.00261     336.0177    278.40992   -26.646129    26.709345    57.607782     40.10114 
133252000    270.15938    311.57054     273.2257   -26.710997    27.927587    38.344835    40.099066 
133256000    269.87967    310.17927    274.11406    -25.36853    28.356731    36.065209    40.098452 
133260000    281.49722    345.11506    299.93893   -27.485106    26.666834    45.176139    40.097418 
133264000    285.99681    326.99798    289.26743   -28.054069    27.531888    37.730551    40.096827 
133268000    268.07492    317.83705    286.21179   -27.322898    27.701342    31.625256     40.09767 
133272000    271.02378    320.93545    262.85243   -26.609496    28.091818     58.08302    40.097363 
133276000    281.52937     351.5946     257.8186   -28.901205    28.031419    93.775996    40.097716 
133280000    268.32465    309.39466    265.14662   -26.959758    28.195913    44.248038    40.097785 
133284000    280.90195    322.53892    279.22418   -28.020999    27.558509    43.314742    40.098598 
133288000    275.57055      323.633    269.67066   -27.152806    28.785783    53.962346    40.097137 
133292000    269.93286    311.35222    288.96518   -27.313555    27.686424    22.387038    40.096718 
133296000    269.28218    309.91349    284.08031    -26.73752    27.456493    25.833181    40.094123 
133300000    276.00473    323.88333    280.97949   -26.786403    26.829658     42.90384    40.094758 
133304000     272.9519    299.38726    283.39589    -26.33933    26.177088    15.991374    40.095755 
133308000    278.67304    327.09955    292.17132   -28.630737    26.511886    34.928225    40.095989 
133312000    286.02225    356.42611    295.51061   -28.861183    26.050296    60.915498    40.097051 
133316000    273.23436    326.25973    274.02714   -28.018491    27.630063    52.232586    40.097199 
133320000    265.69186    288.58309    271.84947   -26.206323     26.96304    16.733622    40.097949 
133324000    268.66216    323.86033    262.52273   -28.924745    29.233873    61.337599    40.097186 
133328000    270.96765    300.15013    271.95567   -28.606875    29.221917     28.19446    40.097115 
133332000    269.25467    327.18004    265.08704   -28.497744    27.064744    62.092999    40.098534 
133336000    275.36725    320.99651    268.25049   -27.495441    28.548611    52.746016      40.0991 
133340000    272.12966     320.9441    273.38804   -28.015186    28.924737    47.556061    40.097324 
133344000    271.90937    299.05342    294.96605   -27.332641    28.003636    4.0873689    40.098098 
133348000    274.90029     335.1732    276.14005   -28.218832    28.167328    59.033152    40.098392 
133352000    273.58956    300.72212    302.79257   -27.572727    26.513045    -2.070444    40.098313 
133356000    278.28735    334.14166    284.56089   -29.183611     27.31293     49.58077    40.098028 
133360000    283.05398    319.18547    298.82663    -28.13212    26.565893    20.358841    40.097204 
133364000    280.66799    329.41758    283.13956   -29.843057    26.784423    46.278022    40.097454 
133368000    266.97853    322.67818    289.71827   -28.774477    27.962239    32.959905    40.096439 
133372000    272.57377    313.77947    268.23023   -27.870282    27.990328    45.549239    40.096728 
133376000    275.23669    312.23258    275.78527   -25.933812     27.59422    36.447314    40.097506 
133380000    277.94882    338.61186    287.12434   -28.063131    27.965397    51.487526    40.097677 
133384000    275.58336    310.69995    284.55484   -27.637713    27.861714    26.145104    40.097264 
133388000    277.58636    307.68315    297.66499    -26.99843    28.141162    10.018161    40.098321 
133392000    273.85735    316.48376    267.77666   -28.433804    28.730413    48.707101    40.098832 
133396000    271.71519    303.09258     271.1801   -26.737301    29.180982    31.912484    40.097401 
133400000    277.15266    348.48293    268.29485   -29.775248    28.606954    80.188081      40.0983 
133404000    280.88664    327.03254     299.4931   -27.942604    26.275341    27.539436     40.09837 
133408000    274.97909    327.24975    273.60268   -27.901554    29.056062     53.64706    40.098706 
133412000    292.50653     353.3415    285.42356   -31.057714    27.438614    67.917946    40.098322 
133416000    272.90884    316.85202    281.68548   -28.320011    27.301316    35.166536    40.098209 
133420000    274.71877    311.34468    298.55051   -28.158336    27.163937    12.794168    40.099025 
133424000    281.82975     345.9908     271.3944   -29.262111    28.843064      74.5964    40.100176 
133428000    269.56302    325.33298    268.78326   -28.644995    28.533926    56.549717    40.099257 
133432000    271.57207    321.43987     257.5472   -28.215187    29.523306    63.892678    40.099514 
133436000    274.25231    317.87453    265.10428   -28.268622    29.701261    52.770243    40.099047 
133440000    277.51929    312.77589    294.37577   -29.551878    28.100165    18.400123    40.097252 
133444000    278.79821    327.21328    297.11758   -29.561993    28.120553    30.095701    40.097351 
133448000    281.78889    337.05492    283.76416   -29.270158    27.598593    53.290755    40.096205 
133452000    277.66873    343.94882     266.8696   -29.527412    28.826709    77.079217    40.096148 
133456000    268.10857    339.74755    263.22579   -29.257722    29.557649    76.521754    40.095652 
133460000    273.82071    299.03726    279.75575   -26.349554    28.693652    19.281512    40.095129 
133464000    267.85164    297.41237    283.84311   -27.024082    27.544131    13.569262    40.094722 
133468000    276.36796    323.20574    273.75145   -28.568346    28.760699    49.454292    40.094729 
133472000    276.60904    337.50285    265.68592   -28.681792    28.962892    71.816936    40.094993 
133476000    267.67415    301.00076    259.97161   -27.524742    28.753731    41.029154    40.094478 
133480000    273.87786     323.5465     278.5131   -28.783853    28.508185    45.033402    40.093787 
133484000    278.99997    321.36031    280.55394   -27.928542    27.254324    40.806369    40.092503 
133488000    273.69876    307.18469     291.8459   -26.997303     27.80158    15.338791     40.09167 
133492000    278.99011    303.68212    314.85887   -27.761638    25.882021   -11.176752    40.091439 
133496000    276.90894     311.1663    288.20056   -27.575685    27.223674    22.965736    40.090273 
133500000    280.80062    338.45562    270.05268   -28.120838    27.729564    68.402939     40.08986 
133504000    278.62694    299.74592    293.18323   -26.431239    28.398534    6.5626909    40.089459 
133508000    274.83486    334.55587    281.78011   -28.448938     27.83017    52.775759     40.08881 
133512000    272.01078    316.13624    267.71287   -27.448844    28.248804    48.423367     40.08852 
133516000    272.18603    296.54059    277.70709   -26.950523    27.448752    18.833502    40.088487 
133520000    277.56215    334.49427    271.30314   -27.891649    27.514577    63.191126    40.089155 
133524000    284.56258    351.41696    293.49003    -28.05524    26.617846    57.926929    40.088346 
133528000    276.09175    313.97171    271.83093   -26.965313    27.843134    42.140779    40.087988 
133532000    270.78433     318.6782     267.0272   -26.542779    28.752082    51.651002    40.088366 
133536000    270.02694    312.05606    262.48228    -26.69735    29.489145    49.573784    40.090008 
133540000    280.55859    321.53871    275.32044   -28.324897    27.427534    46.218271    40.089647 
133544000    277.46128    328.85075    270.90536   -28.737686    27.935344    57.945387    40.089189 
133548000    285.37699    342.41075    284.21152   -29.796981    27.475146    58.199234    40.089002 
133552000    278.08121    334.54963    296.61005   -29.062037    27.420015    37.939574    40.087596 
133556000    280.31403    348.63825    275.11035   -29.008411    28.022088    73.527898     40.09006 
133560000    276.20467    312.29353    285.79148   -28.036509    27.758242    26.502058    40.090047 
133564000    275.45274    305.29146    276.83459   -29.728675    28.414614    28.456865    40.090422 
133568000    270.24149    301.34327    275.82693   -28.362796     28.04174    25.516347    40.090301 
133572000    270.42436    313.77259    270.66677    -28.41496    28.051403    43.105821    40.090195 
133576000    280.96249    325.39825    292.70105   -28.966442     27.60662    32.697199    40.091286 
133580000    275.61747    312.52533    277.29483   -28.888667    28.155127      35.2305    40.092832 
133584000    278.27553    313.29649     284.9767    -27.11398    28.390171    28.319795    40.093487 
133588000    270.52116    308.44566    268.99023   -27.375506    28.982195    39.455434    40.093296 
133592000    276.79051       354.11    274.28513   -30.278857    28.409627    79.824878    40.093161 
133596000    272.62498    325.49562    260.46265   -29.892674    29.699631    65.032973    40.093901 
133600000    275.57918    306.37558    284.17439   -28.427798    27.647243    22.201189    40.094378 
133604000    273.01214    331.46052    277.44424   -30.329488     28.66663    54.016282    40.094325 
133608000    272.33643    296.91722     278.7471   -27.701462    28.468238    18.170117    40.094243 
133612000    273.13124    319.34995    283.08134   -28.686731    27.649219    36.268611    40.094644 
133616000    282.46592    330.09524    309.08943   -28.820739    27.091704    21.005807    40.094962 
133620000    272.38628    325.60827    275.33181   -28.080026    28.684233    50.276461    40.094895 
133624000     277.7588    349.18058    269.72484   -29.567115    29.281781    79.455746    40.094587 
133628000    273.65151    307.78327     298.2859   -28.317255    28.224047    9.4973724    40.094868 
133632000     269.8796    310.63356    283.72496    -27.46617    28.646443    26.908604    40.094363 
133636000    274.37164     340.6736    277.87742   -29.725178    28.444942    62.796188    40.093529 
133640000    270.08298    320.71958     282.7415   -27.953209    29.296726    37.978078    40.092723 
133644000    277.85304    342.58268    288.10509   -30.695596    28.927661    54.477587    40.093088 
133648000    267.65317    324.45387    273.99143   -28.707609    28.910895    50.462438    40.092086 
133652000    272.75418    327.91036    283.82096   -28.773419    28.201921    44.089401    40.091507 
133656000    270.33037    306.58145    273.96297   -27.417986     29.00948    32.618478    40.091739 
133660000    277.36236    330.09555    281.04979   -27.998819    28.990951    49.045758    40.090843 
133664000    265.91727    314.38855    281.35872   -27.259411    29.187467    33.029823    40.091083 
133668000    271.70515    316.54108    296.12739   -27.749563    28.184477    20.413688     40.09128 
133672000    266.95405    330.44424    276.08279   -28.536747    28.566726    54.361455    40.091887 
133676000    268.74329     310.8458     289.3329   -26.560532     28.90647    21.512899    40.091408 
133680000    272.54127    335.41982    268.73885    -27.20873    29.758315    66.680971    40.092646 
133684000    273.16466    334.73134    289.12231   -27.630312    28.636772    45.609025    40.093235 
133688000    269.74896    304.68954    286.80364   -26.439033    27.582655      17.8859    40.092436 
133692000    269.17898    320.39218    284.10077   -26.853959     28.30491     36.29141      40.0931 
133696000    277.10101     313.3436    294.21427   -27.109318    26.687874    19.129331    40.093495 
133700000    279.07294    324.37154    298.30898   -26.675243    27.257508     26.06256    40.094189 
133704000    264.98908    324.26115    270.55271   -26.360338    29.273603    53.708437    40.095804 
133708000    275.96089    308.33639    305.44449   -26.005277    27.086606    2.8918913    40.095427 
133712000     276.6912     325.5821    285.00783   -27.835297    27.903017    40.574267    40.095301 
133716000    273.05051    319.07136     299.7463   -27.263846    27.664991    19.325065    40.095814 
133720000     269.0529    321.95068    277.91075   -28.165785    29.023972    44.039935    40.095632 
133724000    269.24746    333.91959    258.34814   -27.831076    29.997032    75.571447    40.095123 
133728000    273.86037    347.65846     279.9762    -29.21782    28.468317    67.682263    40.094402 
133732000    278.47794    331.34467    281.36201   -28.771273    27.782313    49.982659    40.093597 
133736000    286.27972    351.66885    311.06547   -30.049606    27.705815    40.603383    40.093647 
133740000    266.85536    316.76108    268.35973   -27.944396    29.630244    48.401355     40.09323 
133744000    269.86907    321.73698    283.11948   -27.321379    29.276503    38.617495     40.09291 
133748000    269.55231    334.54799    278.61611   -28.087736    29.610145    55.931879    40.093054 
133752000    270.08739    309.78937    296.51038   -28.124153    28.039907    13.278995    40.092505 
133756000    269.63334    325.63217    271.59878   -27.726356    29.530924    54.033387    40.093033 
133760000    273.93291    333.67345    281.01394   -28.837217    29.769993    52.659508    40.092169 
133764000     272.5449    321.68328    278.26542     -27.3966    29.546148    43.417852    40.093006 
133768000    269.51276    318.26087    278.34522   -27.126867     29.54595     39.91565    40.094245 
133772000    277.64056    332.32745    295.16392   -28.459997    28.836674    37.163529    40.094426 
133776000    271.14468    336.15458    271.51013   -28.009459    29.230259    64.644446    40.094542 
133780000    275.45676    325.31081    280.01633    -28.38853    29.656597    45.294477    40.095276 
133784000    262.68006     287.7335    293.08517   -26.718886    29.360476   -5.3516711    40.095017 
133788000    273.50044    318.55467    296.19368   -27.032667    28.928787    22.360992    40.095511 
133792000    269.88989    317.87837    280.06899   -29.100195    29.178968    37.809384    40.096202 
133796000    265.68375    309.98313    246.99313   -28.373865    31.987659        62.99    40.096618 
133800000    279.75851    330.86127    284.84903   -28.922755    29.468259    46.012243    40.097269 
133804000     278.9442    296.62883    301.67426   -27.978479    27.526371   -5.0454336    40.096662 
133808000    273.19714    322.99092    269.65793   -29.881571    29.624161     53.33299    40.097546 
133812000    274.61631    332.79519    266.93087   -29.483853    30.081788    65.864322    40.098663 
133816000    265.86383    314.69943    259.91247   -29.696031    31.495754    54.786961    40.098969 
133820000    268.98075    308.67909    275.81307   -29.250958    30.399688    32.866024    40.098283 
133824000    278.23754    325.91697    283.89397   -28.823901    30.206242    42.023004    40.098078 
133828000    278.54912    326.66444    288.51863   -30.419085    29.410508    38.145806    40.096421 
133832000     272.6924    344.43933    260.85342   -29.566523     31.07043    83.585907    40.096368 
133836000    275.53998    325.96896    286.45303   -28.855376    30.078058    39.515937    40.096068 
133840000    286.91463    342.18435    309.46651   -30.282898    27.904622    32.717845    40.097616 
133844000    274.66096    313.60789    282.08539   -28.457676     29.22643    31.522497    40.097307 
133848000    276.45946    330.95983    274.47803   -29.853693    29.670401    56.481797    40.097938 
133852000    272.15318    309.97181    303.78525   -27.294781    28.136994    6.1865673    40.097883 
133856000    274.66195    304.96317    289.09661   -27.924424    29.562027    15.866557    40.097493 
133860000    279.23406    323.34231    288.98706   -29.241206    30.140845    34.355254     40.09648 
133864000     274.5276    313.09006    296.63975   -29.193516    28.105121     16.45031    40.096601 
133868000    263.78877    312.05478     265.4163   -29.314054    30.169974    46.638478    40.095408 
133872000    282.54975    327.43665    283.02855   -30.214121     29.75011    44.408096    40.094901 
133876000    267.76878    320.82922    267.11922    -29.11811    29.247424        53.71    40.095455 
133880000    276.20109    304.38742    284.07933   -28.964374    28.986345    20.308091      40.0956 
133884000    273.55963    337.48704     269.4521    -29.72686    29.596626    68.034944    40.096507 
133888000    280.05494    307.46316    295.64897   -28.805415     28.17201    11.814182    40.095695 
133892000    276.58165    340.32222    289.61717   -30.162292    28.563642    50.705049    40.094497 
133896000    278.22989    308.45872    281.79365   -29.820299     28.37676    26.665074    40.093181 
133900000    275.30105    338.68878    281.25036   -31.853071    29.052682    57.438427    40.094162 
133904000    271.86784     308.0288    270.13443   -29.353834     28.85508    37.894365    40.093783 
133908000     284.3428    345.87799    293.45731   -31.813417    28.041015    52.420687    40.093545 
133912000    273.22778    328.71514     281.2474   -29.951332    28.903666    47.467748    40.093231 
133916000    277.02963    335.60761    275.24548    -31.26947    30.028712    60.362122    40.093891 
133920000    265.30291    284.20891    274.64011   -28.133776    29.869433    9.5688002    40.094428 
133924000    280.25245    333.86625    278.12767   -31.066813    29.592542     55.73858    40.094159 
133928000    275.39957    307.04341    277.38415   -29.941374    29.804634    29.659265    40.094582 
133932000    268.32116    309.99493    274.11677   -29.969668    28.863982    35.878153    40.094758 
133936000    272.41267    301.91106    268.97041   -28.185666    29.168405    32.940647    40.096183 
133940000    278.17119    311.69932    297.33021   -29.579924    27.867015    14.369114    40.096674 
133944000    287.74638    334.68519    297.74266    -31.20903    28.073137    36.942525    40.097144 
133948000    275.42031    324.74865    292.19867    -29.61651    29.071109    32.549982    40.096259 
133952000    281.11044    332.15145     290.3813   -29.747428     29.14003     41.77015    40.095954 
133956000    276.78397    304.41393    293.40511   -27.663708    28.061923     11.00882    40.095868 
133960000    269.79479    319.07505    281.09418   -29.968418    29.799474    37.980868    40.095968 
133964000    282.41457    313.18535     304.4767   -29.220767    28.351448    8.7086522    40.095246 
133968000    267.38797    319.21356     276.5036   -28.609711    29.622393    42.709962    40.095494 
133972000    274.44334    325.27444    293.51423   -29.932098    29.284943    31.760205    40.094969 
133976000    276.46302    313.26644    280.79679   -28.730842    29.383376    32.469643    40.095008 
133980000    274.92633      302.706    288.47659   -28.202725    29.747528    14.229409    40.094266 
133984000    268.95983    311.43359    273.06112   -28.275503    30.734985    38.372464    40.093327 
133988000    275.60954    341.51402    269.02071   -29.855473    30.793112    72.493305     40.09488 
133992000     277.1577    329.65067    287.32497   -30.046925    28.743175    42.325703     40.09431 
133996000    275.60931    335.77536    258.65012   -30.433279    30.754069    77.125236    40.093459 
134000000     276.0393    320.28904    294.63986   -28.852619    28.798868    25.649181    40.092731 
134004000    273.24777    321.90648    278.26876   -28.985087    29.912551    43.637722    40.091866 
134008000    273.01773     328.2421    277.97642   -29.741081    29.502958    50.265675    40.092319 
134012000    276.71504    318.17797    283.89809   -28.765653    30.022982    34.279878    40.094011 
134016000    279.05762    338.95704      287.469   -30.703294    29.216917    51.488037    40.093258 
134020000    281.37952    324.84825    281.37322   -28.865197      28.7666    43.475035    40.094018 
134024000    267.55641    318.88778    260.40372   -29.779251    30.550364    58.484054    40.095305 
134028000    275.54153    316.55633    290.07887   -28.262241    28.870491    26.477466    40.095734 
134032000    275.44843    313.33241    270.78589   -27.960187    30.609863    42.546519    40.095493 
134036000    276.75394    312.62853    278.78189   -28.435886    30.638766    33.846642      40.0958 
134040000    274.71926    317.78164    270.73158   -29.658012    30.441745    47.050054    40.096445 
134044000    268.47492    317.88107    274.64619   -29.230694    30.323113    43.234879    40.096183 
134048000    269.63394    307.38323    278.22254   -27.981182    30.129628    29.160689    40.094696 
134052000    275.24191    328.80581    276.40285   -30.162258    30.205222    52.402955       40.095 
134056000    272.14311    327.89231    273.52876   -29.745201    29.569262    54.363544    40.093205 
134060000     258.1994    294.97052    259.36647   -28.960416     30.47983    35.604052    40.091843 
134064000    270.25158    319.69803     284.4156   -28.501718    29.994542    35.282435    40.090814 
134068000    268.28289    314.62421     280.8714   -28.879268    29.499657    33.752814    40.089919 
134072000    279.28279    326.40029    289.08008   -28.977844    30.097148    37.320213    40.089752 
134076000    277.76729    332.66834    275.48075   -28.346756    31.554427    57.187594    40.089428 
134080000    265.96171    307.23521    278.25871    -28.79566    30.411304    28.976498    40.089323 
134084000    273.26013    320.65737    275.29917    -28.71553     30.04024    45.358204    40.088581 
134088000    278.66382    330.88361     289.0646   -30.472659    30.009743    41.819011    40.087633 
134092000    276.00829    325.86134    288.04699   -29.371057     29.67531     37.81435     40.08802 
134096000      274.025    317.30744    295.30732   -28.096631    28.731201    22.000116    40.087152 
134100000    284.46023    346.49255    293.14018    -30.89461    31.101951    53.352371    40.086513 
134104000    273.55121     335.7598    274.08988   -29.435501    31.932398    61.669925    40.085715 
134108000    282.77474    355.31445    276.14956   -31.565938    30.569562     79.16489    40.086188 
134112000    272.50257    331.70609    274.34368   -31.570356     30.64964    57.362408    40.086817 
134116000    280.41817    346.00759    290.93562   -30.399167     29.17131    55.071971    40.086706 
134120000     270.0115    322.25057    272.79184    -29.72859    30.136011     49.45873    40.086219 
134124000    277.23172    315.58732    301.48696   -29.906707    29.044757    14.100357     40.08535 
134128000    280.82809    322.97807    278.57066   -29.797033    29.763122    44.407415    40.083551 
134132000    278.90677    336.58876    288.94474   -31.154985    29.315897     47.64402    40.082509 
134136000    271.47943    325.25507    269.18222   -30.776809    31.906632    56.072853    40.082603 
134140000     276.1987    338.60089     283.8923   -31.382435    30.848532    54.708592    40.082801 
134144000    269.74213    330.66137    261.07772    -31.28537    32.140415    69.583653    40.083654 
134148000    264.04901    315.89297    266.24974   -30.303677    31.053816    49.643233    40.084273 
134152000    282.91039    337.79713    292.61402   -31.109522    29.370577    45.183116    40.084463 
134156000    272.42577    323.41704    269.17431   -29.455115    30.372525     54.24273    40.084739 
134160000    268.87202    303.61489    298.27297    -28.53289    29.193833    5.3419124    40.084781 
134164000    275.21815    326.08245     287.1867   -29.118643    30.068026    38.895747    40.086311 
134168000    269.85417    326.62065    284.15448   -29.787959    31.266589     42.46617     40.08724 
134172000    269.20375     300.5827    280.52829   -28.550346    31.524872    20.054411    40.086639 
134176000    274.68575    323.27962    276.61903   -30.471645     31.38765     46.66059    40.087942 
134180000    266.89396    293.51972    290.50154   -28.684623    30.500113    3.0181761     40.08763 
134184000    272.70272    329.87499    273.33465   -29.368684    31.791358    56.540343    40.087072 
134188000      281.972    335.88932    294.64956   -29.365367    30.945866    41.239759     40.08694 
134192000    268.95979    308.91593    273.99084   -29.238551    31.433244    34.925087    40.086797 
134196000    277.05257     333.6726    292.64042   -29.979946    29.451544    41.032176    40.086051 
134200000    277.83598    343.46017    284.55268    -31.19101    31.485771    58.907493    40.085782 
134204000    257.77297     310.9172    264.57896   -29.260425    32.729359    46.338238     40.08753 
134208000    269.56624    337.46443    285.13717   -29.499775    31.118992    52.327261    40.086465 
134212000    269.78263    320.90719    275.02452   -29.398513    32.080926    45.882671    40.088043 
134216000    272.03157    309.46033    281.97934   -29.235029        31.29    27.480996    40.088418 
134220000    273.13607    333.94219    272.04802   -31.229673    32.885092     61.89418    40.088886 
134224000    277.42529    314.29935    278.15355   -30.262806    31.703118    36.145791    40.089856 
134228000    273.13489    325.55229    283.13841   -30.693342    31.259963    42.413886    40.090737 
134232000    272.91974    316.96055    279.62288    -30.30425     31.06134    37.337671    40.090519 
134236000    273.34277    319.94172    289.55247   -30.862017    31.117646    30.389244    40.090337 
134240000    267.92023    300.86491      279.689   -29.402156    31.987313    21.175906    40.089839 
134244000    265.87717    314.65076    274.39585   -30.409978    32.879913    40.254915    40.089207 
134248000    261.55635    304.80432    262.84138    -30.09027    33.123082    41.962942    40.089193 
134252000    273.12334    322.43431    279.56752   -29.600835    32.288264    42.866787    40.087903 
134256000    271.06568    337.19938    289.07497   -30.175021    30.485828    48.124417    40.087266 
134260000    280.94941     323.5639    299.09561   -29.320224    30.567518    24.468291    40.086469 
134264000    264.19101    297.16497    278.26047   -28.749962    31.943454    18.904497    40.086236 
134268000    274.85144    335.77433    271.17421   -31.520214    31.697892    64.600125    40.086833 
134272000    275.10602    329.94019    276.13237   -31.870416    31.029159     53.80782    40.086272 
134276000    275.33541     329.4238    281.52631   -30.292995    30.993281    47.897495     40.08643 
134280000    277.20768    315.94601    290.38784   -30.250105    30.207741    25.558169    40.086401 
134284000    272.00358    311.76436    286.65634    -29.56382    30.012237    25.108024    40.087542 
134288000    269.29184    323.77204    269.87078   -29.972476    31.130912    53.901259    40.087395 
134292000     270.2526    313.27142    260.85779   -29.915596    31.903226     52.41363     40.08765 
134296000     269.8691     320.0045    278.10637   -30.913693    30.484305    41.898126    40.088239 
134300000    271.07284    309.47251    295.97573   -28.234132    29.965104    13.496784    40.088423 
134304000    273.96486     307.1735    294.94091   -29.707874    29.944067    12.232589    40.088055 
134308000    263.82304    308.47531    262.10326    -28.81566     32.25683     46.37205    40.087284 
134312000    265.11666    283.77849    295.85009   -28.093063    30.207037   -12.071603    40.086345 
134316000     273.0519     297.3477    287.51019   -28.135581    28.844315    9.8375043    40.085584 
134320000    278.07551    334.37385    263.94269   -31.492823    31.046192     70.43116    40.085107 
134324000    276.45973    331.09377    279.39997   -31.402354    31.456936    51.693805    40.085002 
134328000    273.15955    316.30303    275.74717   -30.488485    31.020312    40.555863    40.085008 
134332000    274.99207    332.06372    283.56377   -31.643009    31.695822    48.499952    40.085505 
134336000    272.36103    328.43999    259.55959   -30.936103    31.906154    68.880402    40.085645 
134340000    274.98661    314.66719     287.0616   -30.402525    29.876936     27.60559    40.086223 
134344000     275.1955    326.36115     288.5678    -30.34345    30.504681    37.793354    40.086786 
134348000    265.91269    328.15029    275.28887   -30.256515    31.601417    52.861414    40.085866 
134352000    266.12385    319.79298    271.98902   -29.688059    32.780172    47.803966    40.084739 
134356000    272.16019    320.95824    287.35207   -31.203456    30.937442    33.606173    40.085508 
134360000     268.3706    308.64294     255.6536    -30.61039    32.319239    52.989342     40.08446 
134364000    285.36678    336.86636    314.56801    -31.21481     30.19669    22.298354    40.083347 
134368000     275.1134     308.5395    288.52033   -30.834339    30.942016    20.019174    40.083591 
134372000     283.2236    333.50652    282.34479   -32.933502    32.175469    51.161731    40.082759 
134376000    268.83186    308.16178    286.41382   -31.222694     31.36822    21.747955    40.083155 
134380000    272.97332    340.08948    281.90532   -33.083988    31.826071     58.18416    40.083097 
134384000    276.35252    316.03291    285.53631   -29.749773    32.234236    30.496597    40.083486 
134388000    273.40969    316.00634    288.44809   -29.860523    31.902214    27.558252    40.083508 
134392000    267.32488    298.88086     288.3146   -29.357134    31.966457    10.566256    40.082224 
134396000    275.09639    330.26381    285.38315   -32.487759    29.986416    44.880664    40.082374 
134400000     276.1851    331.52628    302.55981   -31.505358    30.116618    28.966469    40.082229 
134401000    273.80056    319.07772    282.72778    -30.97557    31.273862    36.349942    40.082229 
Loop time of 21295.9 on 4 procs for 16000000 steps with 1498 atoms

Performance: 16.228 ns/day, 1.479 hours/ns, 751.318 timesteps/s
99.6% CPU use with 4 MPI tasks x no OpenMP threads

MPI task timing breakdown:
Section |  min time  |  avg time  |  max time  |%varavg| %total
---------------------------------------------------------------
Pair    | 10629      | 14707      | 18889      |3303.2 | 69.06
Bond    | 64.99      | 102.41     | 137.79     | 347.1 |  0.48
Neigh   | 117.61     | 117.66     | 117.69     |   0.3 |  0.55
Comm    | 276.94     | 4215.5     | 8232.8     |6043.7 | 19.80
Output  | 7.6879     | 7.7166     | 7.8024     |   1.8 |  0.04
Modify  | 1133.8     | 1650.1     | 2196.2     | 969.7 |  7.75
Other   |            | 494.9      |            |       |  2.32

Nlocal:    374.5 ave 714 max 35 min
Histogram: 2 0 0 0 0 0 0 0 0 2
Nghost:    2373.25 ave 4252 max 496 min
Histogram: 2 0 0 0 0 0 0 0 0 2
Neighs:    13084 ave 25898 max 312 min
Histogram: 2 0 0 0 0 0 0 0 0 2

Total # of neighbors = 52336
Ave neighs/atom = 34.9372
Ave special neighs/atom = 0.518024
Neighbor list builds = 28701
Dangerous builds = 0

write_restart FINALCONFIG
WARNING: Using a manybody potential with bonds/angles/dihedrals and special_bond exclusions (../pair.cpp:218)
Neighbor list info ...
  update every 1 steps, delay 0 steps, check yes
  max neighbors/atom: 2000, page size: 100000
  master list distance cutoff = 16
  ghost atom cutoff = 16
  binsize = 8, bins = 3 3 23
  4 neighbor lists, perpetual/occasional/extra = 4 0 0
  (1) pair lj/cut, perpetual, skip from (4)
      attributes: half, newton on
      pair build: skip
      stencil: none
      bin: none
  (2) pair morse, perpetual, skip from (4)
      attributes: half, newton on
      pair build: skip
      stencil: none
      bin: none
  (3) pair eam, perpetual, skip from (4)
      attributes: half, newton on
      pair build: skip
      stencil: none
      bin: none
  (4) neighbor class addition, perpetual
      attributes: half, newton on
      pair build: half/bin/newton
      stencil: half/bin/3d/newton
      bin: standard

#and everyone lived happily ever after, THE END
Total wall time: 6:12:43
