LAMMPS (16 Mar 2018)
#lammps script for united atom polymer simulation (full-scale run)

# 1. INITIALIZATION
#allows pair, bond, bending and dihedral interactions
atom_style molecular

  # periodic (video game) boundaries in all cartesian directions
boundary p p s

  # uses real units (instead of units based on pair potential parameters).  List of units used in manual
units metal

###########
# 2. ATOM DEFINITION
##########

   ##
   # Read in data from starting configuration file
   ##

#read_data lammps-AT-config

 #use to restart
read_restart RESTART
  orthogonal box = (0 0 -29.1214) to (20 20 152.979)
  1 by 1 by 4 MPI processor grid
  1498 atoms
  197 bonds
  96 angles
  95 dihedrals
  2 = max # of 1-2 neighbors
  2 = max # of 1-3 neighbors
  4 = max # of 1-4 neighbors
  6 = max # of special neighbors

   ##
   # Specify the nature of the bond interactions
   ##

bond_style harmonic
bond_coeff 1 19.51 1.54
bond_coeff 2 22.45 1.82
bond_coeff 3 10000.0 2.0
special_bonds lj 0.0 0.0 0.0 angle no dihedral no

angle_style harmonic
angle_coeff 1 2.683 114.00
angle_coeff 2 2.683 114.40

dihedral_style opls
dihedral_coeff * 0.06071 -0.011743 0.1363628 0.0

mass  1   14.00
mass  2   32.06
mass  3  196.97
mass  4  196.97


pair_style hybrid lj/cut 14.0 morse 14.0 eam
pair_coeff 1 1 lj/cut 0.00395 3.95 14.0
pair_coeff 2 2 lj/cut 0.01594 3.62 14.0
pair_coeff 3 3 eam Au_u3.eam
Reading potential file Au_u3.eam with DATE: 2007-06-11
pair_coeff 4 4 eam Au_u3.eam
pair_coeff 1 2 lj/cut 0.0000 3.785 14.0
pair_coeff 1 3 lj/cut 0.00258 3.44 14.0
pair_coeff 1 4 lj/cut 0.00 3.44 14.0
pair_coeff 2 3 morse 0.879 1.47 2.7 14.0
pair_coeff 2 4 morse 0.000 1.47 2.7 14.0
pair_coeff 3 4 lj/cut 0.00 2.934 14.0


group freeze type 4
100 atoms in group freeze
fix startend freeze setforce 0.0 0.0 0.0



################
# 3.  Simulation Settings
###############

neighbor        2.0 bin
neigh_modify    every 1 delay 0 check yes



# Define some variables
variable Lx          equal xhi-xlo   # Ang
variable Ly          equal yhi-ylo   # Ang
variable Lz          equal zhi-zlo   # Ang

variable dz          equal ${Lz}/30  # Ang
variable dz          equal 182.100820164041/30  

variable zzlo        equal zlo  # Ang
variable zzhi        equal zhi  # Ang
variable vol         equal ${Lx}*${Ly}*${Lz}  # Ang^3
variable vol         equal 20*${Ly}*${Lz}  
variable vol         equal 20*20*${Lz}  
variable vol         equal 20*20*182.100820164041  
variable TEMP        equal 300.00 # K
variable TThi        equal 320.00 # K
variable TTlo        equal 280.00 # K
variable dt          equal 0.00025 # ps

timestep     ${dt}
timestep     0.00025

variable zlo1      equal -26.0
variable zlo2      equal -11.0
variable zhi1      equal 135.0
variable zhi2      equal 150.0

# heat layers

region          hot  block  INF INF INF INF ${zlo1} ${zlo2}
region          hot  block  INF INF INF INF -26 ${zlo2}
region          hot  block  INF INF INF INF -26 -11
region          cold block INF INF INF INF ${zhi1} ${zhi2}
region          cold block INF INF INF INF 135 ${zhi2}
region          cold block INF INF INF INF 135 150
compute         Thot all temp/region hot
compute         Tcold all temp/region cold


# Second Equilibration
fix             1 all nve
fix             hot all langevin ${TThi} ${TThi}  0.005 59804  tally yes
fix             hot all langevin 320 ${TThi}  0.005 59804  tally yes
fix             hot all langevin 320 320  0.005 59804  tally yes
fix             cold all langevin ${TTlo} ${TTlo} 0.005 287859 tally yes
fix             cold all langevin 280 ${TTlo} 0.005 287859 tally yes
fix             cold all langevin 280 280 0.005 287859 tally yes
fix_modify      hot temp Thot
fix_modify      cold temp Tcold

variable        tdiff equal c_Thot-c_Tcold
thermo_style    custom step c_Thot c_Tcold f_hot f_cold v_tdiff
thermo            4000
run             800000
WARNING: Using a manybody potential with bonds/angles/dihedrals and special_bond exclusions (../pair.cpp:218)
Unused restart file peratom fix info:
  fix style: STORE, fix ID: layers_COMPUTE_STORE
Neighbor list info ...
  update every 1 steps, delay 0 steps, check yes
  max neighbors/atom: 2000, page size: 100000
  master list distance cutoff = 16
  ghost atom cutoff = 16
  binsize = 8, bins = 3 3 23
  4 neighbor lists, perpetual/occasional/extra = 4 0 0
  (1) pair lj/cut, perpetual, skip from (4)
      attributes: half, newton on
      pair build: skip
      stencil: none
      bin: none
  (2) pair morse, perpetual, skip from (4)
      attributes: half, newton on
      pair build: skip
      stencil: none
      bin: none
  (3) pair eam, perpetual, skip from (4)
      attributes: half, newton on
      pair build: skip
      stencil: none
      bin: none
  (4) neighbor class addition, perpetual
      attributes: half, newton on
      pair build: half/bin/newton
      stencil: half/bin/3d/newton
      bin: standard
Per MPI rank memory allocation (min/avg/max) = 10.93 | 11.62 | 12.31 Mbytes
Step c_Thot c_Tcold f_hot f_cold v_tdiff 
50401000    306.43786    300.11432           -0           -0    6.3235393 
50404000    337.36703     259.0447   -1.4885051    2.4596093    78.322322 
50408000    336.27353    261.41172   -1.0707402    1.8623125    74.861803 
50412000    322.15139    286.30621   -1.5732894   0.75361255    35.845178 
50416000      317.596    280.08095  -0.67046296   0.69466927    37.515045 
50420000    306.02289    309.20217  -0.74361206  -0.82051782   -3.1792803 
50424000    327.97959    269.42614   -1.7649237   0.69999294    58.553453 
50428000    326.13281    291.64557   -2.1360704   0.42085196    34.487238 
50432000    337.99365    286.14542   -3.5624826    1.0490979    51.848231 
50436000      340.758    272.24805   -2.0341519    1.2574613    68.509953 
50440000    327.36766    267.75999    -2.908439    2.5262957    59.607668 
50444000    329.04434     282.2741   -2.0449477    1.7538494     46.77024 
50448000    337.25011    284.35715   -1.9438962    1.1980505    52.892958 
50452000    324.48769    267.70241   -2.0565895    1.6515724    56.785286 
50456000    307.15112    269.99358   -1.0018154    1.6734089    37.157538 
50460000    313.82303    270.48876   -1.2198027   0.88100946    43.334269 
50464000     324.3028     300.7704   -2.1707305   0.70397609    23.532396 
50468000    315.53346    273.59931   -2.4573307    2.5643038    41.934145 
50472000    325.69684    270.28815   -2.8356737     2.706889    55.408687 
50476000    330.32357    274.95205   -1.9027432    1.6438189    55.371522 
50480000    302.73357    272.89439   -1.6300303    1.5139813    29.839177 
50484000    324.03746    297.73014   -1.3041212   0.54942875    26.307325 
50488000    329.67151    263.52881   -1.7595415    1.9324689    66.142708 
50492000    300.69384    288.17878  0.054622428    0.6081524    12.515062 
50496000    329.46795    278.08741   -1.6947984   0.17907427     51.38054 
50500000    307.30959    279.32762  -0.24648276   0.26719523    27.981974 
50504000    326.16543    275.67776   -2.2322048    1.1405112    50.487673 
50508000    337.29055    290.60366  -0.36626712   0.70039592    46.686888 
50512000    338.11572    264.09162   -1.2248924   0.42686718    74.024094 
50516000     326.4727    287.10022   -2.4109285 -0.031225705    39.372481 
50520000    308.56039    273.73175  -0.13033222     1.895564     34.82864 
50524000    295.11291     267.8994  -0.17932609    2.1301516    27.213507 
50528000    290.23412    273.03983   0.41548974   0.97131213    17.194293 
50532000    334.48304    266.09642   -1.6423095    1.8312966    68.386628 
50536000    306.01151    297.70701   -1.5953664  -0.82064716    8.3044962 
50540000    322.95918    292.39857   -1.4050526    0.5970299    30.560615 
50544000    317.62852    291.48676   -2.2659734    1.6703036    26.141765 
50548000    344.51665    269.90304   -3.4664982    1.6436407    74.613609 
50552000    316.27972    248.76002   -1.1368556     2.985903    67.519701 
50556000    301.98145    279.63249   -1.1940427   0.57549801    22.348954 
50560000    306.58175    279.97628   -1.2900715    1.1103007    26.605471 
50564000    322.68993    298.02032   -1.8167402   0.79481421     24.66961 
50568000    331.83059    295.31435   -2.2711025    1.6970111    36.516245 
50572000     334.2607    252.89427    -2.674053    3.0508573    81.366431 
50576000    333.14942    262.07479   -1.8721212    1.6806877    71.074629 
50580000    331.88729    284.73761   -2.4786345   0.75102262    47.149681 
50584000    317.15562    271.52829   -1.2164484   0.96995151    45.627327 
50588000    300.60522    304.11525  -0.13508561  -0.55549164   -3.5100261 
50592000    351.65349    279.70724   -3.3547036    1.7403887    71.946251 
50596000    347.80052    287.21252   -3.7641332 -0.033105164       60.588 
50600000    304.93355    292.03113   -1.0712417   0.11355459    12.902412 
50604000    290.74421     276.7217 -0.091666709    -0.588316     14.02251 
50608000    315.14506    278.20662   -1.0820069    1.2223718    36.938441 
50612000    310.97293    275.72527  -0.77922928    1.4178005    35.247657 
50616000    311.71398    283.31584  -0.28031629  -0.25380881    28.398132 
50620000    282.90266    278.98416   0.48037596   0.19513669    3.9185067 
50624000    343.26885    270.47742   -2.8485001   0.14840011    72.791426 
50628000    315.36153    264.32194  -0.44490794    1.6792616     51.03959 
50632000    338.76749    267.68023   -1.8502048    1.8228092    71.087262 
50636000    310.41086    278.39437    -1.067629   0.12270932    32.016483 
50640000     301.4944    287.49002  -0.17103898  -0.36137084     14.00438 
50644000    312.99382    271.75278    0.4802261   0.17558654    41.241044 
50648000    315.94798    288.20202   0.22962439  -0.34229336    27.745965 
50652000     331.2202    299.93412    -1.976908   -1.0328487    31.286078 
50656000    307.72233    277.93822  -0.44710811    1.2096934     29.78411 
50660000    322.09464    274.57433   -1.2841357   0.87782727    47.520306 
50664000     345.3449    264.97008   -2.3576222     1.578999    80.374816 
50668000     321.9294    267.56952  -0.78732265    1.1146381    54.359878 
50672000    341.54339    278.88529   -2.3513867   0.49144453    62.658102 
50676000    309.64721    272.70687  -0.85047935   0.93848989    36.940341 
50680000     309.9673    279.96791    -1.675347   0.65185327    29.999394 
50684000    301.41897     292.9345   -1.6052169   0.58686842    8.4844704 
50688000    346.61041    279.96111   -3.3258424    2.4430285    66.649298 
50692000    326.94186    274.20508   -1.0407743    1.8745165    52.736786 
50696000    319.05321     267.5762     -1.13992    1.4191471    51.477014 
50700000    328.47861    280.46338  -0.87675265   0.19258102     48.01523 
50704000    308.78263    276.92653  -0.73244149  0.018210619    31.856097 
50708000    316.41609    266.71081  -0.73029709    2.2639023    49.705273 
50712000    319.80933    279.96842   -1.0027801   0.94105348    39.840906 
50716000    330.54592    280.57716    -1.475664    1.3799809    49.968765 
50720000    317.80889      284.184  -0.72953298    2.1201426    33.624884 
50724000    308.37334    280.55182   -1.2017626     1.342388    27.821526 
50728000    339.24083    273.43737   -1.2814075    1.9897944    65.803459 
50732000    336.07527    266.09391   -1.6492428    1.8159924    69.981357 
50736000    333.98787    284.28335   -1.1050454    1.8783405    49.704527 
50740000    318.15872    276.86552   -1.5870813    1.7514571    41.293197 
50744000    319.62886      287.624  -0.90902786   0.76892169    32.004854 
50748000    315.16862    272.95186  -0.82491947    1.6686813    42.216759 
50752000    329.52569    278.35985   -2.3479756    2.2050272    51.165838 
50756000    313.00305    283.13131  -0.97800409    1.7619666    29.871737 
50760000     327.8982    276.26056   -1.4837242     1.474855    51.637633 
50764000    324.56546    282.77584   -1.8464409   0.22648541    41.789618 
50768000    307.07678    297.67257   -1.5142437   0.68725135    9.4042138 
50772000    318.78858     279.2454   -1.4948044     1.604333    39.543176 
50776000     296.0437    307.71014 -0.023129622    1.3264763   -11.666441 
50780000    331.61282    268.27876   -1.9890919    3.0771435    63.334059 
50784000     318.3282    265.92765  -0.90101654    2.3196182    52.400553 
50788000    316.57081     274.9098   -1.8704028     1.634319    41.661008 
50792000    299.26825    271.79055  -0.36497887    2.7429072    27.477702 
50796000    328.80536     272.5635   -1.5569115    2.1033822    56.241864 
50800000    317.34251    286.27902   -1.8968889   0.83150614    31.063487 
50804000    325.59979    284.43596   -2.4869844    1.1006126    41.163831 
50808000    314.43387    284.02548   -1.5938358    2.0731339    30.408394 
50812000    321.07567    272.51494  -0.84099394    1.8845815    48.560733 
50816000    324.02851    292.81166  -0.20573989    1.8833575    31.216847 
50820000    317.25667    280.18983    -1.073357    1.6641032    37.066843 
50824000    322.99146    288.06167   -1.6402658   0.68276411    34.929791 
50828000    312.89888    297.03646  -0.84603969    1.1680476    15.862419 
50832000    320.97554    301.38326  -0.69391037   0.13157492    19.592284 
50836000    307.45245    281.85253   0.38224906     1.280923     25.59992 
50840000    304.31919    282.37929    1.2085017    0.6581464      21.9399 
50844000    305.02891    275.64244  -0.30765697  -0.46537414    29.386471 
50848000     315.9524    283.82425  -0.78232938     1.604698    32.128146 
50852000    306.51744    286.81974 -0.045684325   0.96959986    19.697695 
50856000    323.89121    260.49071   -1.3621222    1.3582982    63.400497 
50860000    327.63034    301.16421   -1.6197913   0.34596365    26.466133 
50864000    321.90883    305.25033   -1.6971245   0.66465891    16.658496 
50868000    299.95763    298.78698   -0.1783551   0.69621733    1.1706433 
50872000    304.20951    297.68589  -0.28765008    1.2033305    6.5236218 
50876000    304.21157    306.17749   0.63983142  -0.49137118   -1.9659197 
50880000    302.57974    269.14106  0.089342942     1.888182    33.438683 
50884000    344.62771    282.79595   -3.3175083    1.1779405    61.831755 
50888000    330.25827    285.19663   -2.7708723   0.37865117    45.061634 
50892000    303.24718    281.36127    1.1138104    1.6335669    21.885916 
50896000    353.04583    284.26601   -2.6269237    1.4155827    68.779818 
50900000    338.45809    285.61794   -1.1487652    2.2943661     52.84015 
50904000    325.82355    277.43365  -0.72873058    1.0799742    48.389898 
50908000    325.79133    287.87893  -0.92516921  0.034717716    37.912401 
50912000    337.33454    294.13985   -1.0277129    1.9431472    43.194693 
50916000    325.11741    271.63241   -1.7233135    1.8985837    53.484993 
50920000    326.32432    274.53016   -1.6540045    2.7400595    51.794163 
50924000    341.57976    286.62815   -2.1209146    2.4348977    54.951608 
50928000    310.60547    286.42658  -0.94251756    2.1679566    24.178892 
50932000    318.77288    286.13778 -0.019422583    1.1545615    32.635093 
50936000    305.32379    291.57416   -1.0315633    1.8971294    13.749632 
50940000     326.7736    290.34802   -2.0795162    1.6650867    36.425582 
50944000    325.32407    271.82067   -1.0699986    1.7416357    53.503405 
50948000    334.16013    284.88114   -2.3776039   0.99917561    49.278994 
50952000    306.49796    267.07963  -0.48045454    1.6097778    39.418327 
50956000    350.12333    291.56164   -4.5051387  -0.16112894    58.561689 
50960000    317.46159    264.39922  -0.83062923     1.263287    53.062365 
50964000    309.18174    277.89962   0.27782951   0.69828063     31.28212 
50968000    310.75169    268.86377   0.43624312    1.4690514    41.887922 
50972000    316.48377     278.2138   -1.6246406    1.7253694    38.269962 
50976000    320.72138    291.42794   -2.2445009    1.0027198    29.293439 
50980000    299.96752    294.51946   0.86683301   0.72140847    5.4480604 
50984000    308.48891    287.14826  -0.74965333   0.73793069    21.340656 
50988000    334.36839    273.04147   -1.6440436   0.68517907    61.326922 
50992000    313.01072    305.68053  -0.26310841  -0.40269044    7.3301883 
50996000    337.92907    279.29591   -2.0871493   0.41088388    58.633162 
51000000    307.71411    279.82538  -0.27549877   0.97218825    27.888733 
51004000    334.88311    291.41107   -1.9183297    1.0932414    43.472039 
51008000    346.82694     293.1922   -2.4968404   0.14583592    53.634734 
51012000    320.02868    294.12968    -2.188985   0.64599539    25.898996 
51016000    334.48627    269.29222   -2.0877307    2.6196734    65.194051 
51020000     313.9467    286.47389   -1.5240389    1.2719788    27.472807 
51024000    343.78086      306.472   -2.7009825    1.3639215    37.308858 
51028000    322.09812    284.29705   -3.0872953    2.3102022    37.801069 
51032000     326.8533    278.48834   -1.6617665     1.853583    48.364957 
51036000    337.79379    276.36774   -1.9427502    1.6574142     61.42605 
51040000    323.48032    271.66857  -0.90678262    1.5112653    51.811755 
51044000    318.84841    279.61403  -0.39058363    1.2659747    39.234374 
51048000    358.86985    300.75646   -2.7602812    1.3182104    58.113382 
51052000    300.28275    290.43343   -1.3085427    2.2826346    9.8493221 
51056000    306.00372    282.80262   0.39375208    1.7240213    23.201095 
51060000     310.0884    269.77429   -1.2936528    2.2133447    40.314112 
51064000    319.78195    271.61574   -2.9138651    3.2187294    48.166205 
51068000    309.53881    280.11393   -1.4998469    2.4587236    29.424882 
51072000    314.79306    275.41425   -2.6244111    2.4869386    39.378803 
51076000    318.29373    295.47027   -3.8718984    1.6509922    22.823468 
51080000    312.60114    267.16901   -1.6392287    2.7842232    45.432136 
51084000    332.09415    296.27539  -0.95746691    2.2878639    35.818764 
51088000    335.50223    281.69479   -2.1162888    2.8904825    53.807443 
51092000    323.79661    286.99235    -1.971097    2.5950215    36.804256 
51096000    314.13137    282.93237   -1.2351991    2.1725585       31.199 
51100000    302.66947    287.60678   -1.7812259    1.5811186    15.062682 
51104000    320.42946    279.82408   -1.1227252    2.1693856    40.605386 
51108000    337.92864    282.82326   -2.9000398    2.0333403    55.105377 
51112000    337.90979    276.20946   -1.7752606    2.8053754    61.700325 
51116000    332.32799    284.90631   -2.7683998    2.9512127    47.421687 
51120000     317.6911    271.26954   -2.7722801    1.8104208    46.421557 
51124000    317.47363     279.8533   -1.7261987    2.5636953    37.620324 
51128000     331.4673     284.4888   -2.6994612    1.6095606    46.978498 
51132000     327.1348    271.28672   -2.9964418    1.5687376     55.84808 
51136000    301.58563    289.27516   -2.1152776    2.2863509    12.310463 
51140000    325.83933    275.49557   -2.7660186    2.2138023    50.343759 
51144000    323.36244    300.24232   -2.2416988    2.2980336    23.120117 
51148000    323.54471     272.8777   -4.4496865    2.6459466    50.667014 
51152000    311.85645    292.03928    -2.630248    1.0840705    19.817166 
51156000    313.34844    290.06531   -2.6799862   0.60820367    23.283126 
51160000    309.86743    288.51144   -1.0612052   0.67188484    21.355987 
51164000    324.43093    283.89033   -2.6803064   0.34724714    40.540602 
51168000    324.20018    281.11649   -3.6727485    1.3849489    43.083694 
51172000    348.37172    270.91323   -3.9871095    2.0309524    77.458495 
51176000    344.60506    284.80596    -3.248674    1.0682716    59.799107 
51180000     332.1764    265.22409   -3.4092316    3.0101686    66.952316 
51184000    325.09005    278.35404   -3.3607511    2.0566147    46.736002 
51188000    332.73111    269.65066   -3.1860454    2.1562095    63.080442 
51192000    314.89365    280.33701   -2.7907679    1.8047391    34.556644 
51196000    322.90445    271.63011   -1.9416821    1.7271432    51.274344 
51200000    295.36407    268.44842   -1.6928694    2.4258797    26.915652 
51201000    340.34608    293.98139   -2.4767597    1.6569339    46.364683 
Loop time of 1105.54 on 4 procs for 800000 steps with 1498 atoms

Performance: 15.630 ns/day, 1.535 hours/ns, 723.629 timesteps/s
99.5% CPU use with 4 MPI tasks x no OpenMP threads

MPI task timing breakdown:
Section |  min time  |  avg time  |  max time  |%varavg| %total
---------------------------------------------------------------
Pair    | 552.98     | 763.88     | 980.24     | 747.7 | 69.10
Bond    | 3.4742     | 5.3461     | 7.1374     |  77.4 |  0.48
Neigh   | 5.9753     | 5.9782     | 5.9796     |   0.1 |  0.54
Comm    | 14.065     | 216.91     | 424.43     |1374.1 | 19.62
Output  | 0.0042978  | 0.014661   | 0.024543   |   5.9 |  0.00
Modify  | 58.744     | 86.869     | 116.64     | 228.4 |  7.86
Other   |            | 26.54      |            |       |  2.40

Nlocal:    374.5 ave 714 max 35 min
Histogram: 2 0 0 0 0 0 0 0 0 2
Nghost:    2385 ave 4277 max 496 min
Histogram: 2 0 0 0 0 0 0 0 0 2
Neighs:    13044 ave 25855 max 312 min
Histogram: 2 0 0 0 0 0 0 0 0 2

Total # of neighbors = 52176
Ave neighs/atom = 34.8304
Ave special neighs/atom = 0.518024
Neighbor list builds = 1400
Dangerous builds = 0
unfix 1


# PRODUCTION

fix             1 all nve
fix             hot all langevin ${TThi} ${TThi}  0.005 59804  tally yes
fix             hot all langevin 320 ${TThi}  0.005 59804  tally yes
fix             hot all langevin 320 320  0.005 59804  tally yes
fix             cold all langevin ${TTlo} ${TTlo} 0.005 287859 tally yes
fix             cold all langevin 280 ${TTlo} 0.005 287859 tally yes
fix             cold all langevin 280 280 0.005 287859 tally yes
fix_modify      hot temp Thot
fix_modify      cold temp Tcold

variable        tdiff equal c_Thot-c_Tcold
thermo          4000

dump gigo all atom 4000 dump.cords_xyz.dat
dump_modify gigo scale no
dump vfgigo all custom 4000 dump.velo.dat id vx vy vz fx fy fz

# thermal conductivity calculation
# # reset langevin thermostats to zero energy accumulation
#
compute         ke all ke/atom
variable        temp atom c_ke/1.5/0.00008617333262

fix             ave all ave/time 100 40 4000 v_tdiff ave running
thermo_style    custom step temp c_Thot c_Tcold f_hot f_cold v_tdiff f_ave

#compute         layers all chunk/atom bin/1d z lower 0.05 units reduced
compute         layers all chunk/atom bin/1d z lower ${dz} units box
compute         layers all chunk/atom bin/1d z lower 6.07002733880137 units box
fix             2 all ave/chunk  100 40 4000 layers v_temp file profile.langevin

run             16000000
WARNING: Using a manybody potential with bonds/angles/dihedrals and special_bond exclusions (../pair.cpp:218)
Neighbor list info ...
  update every 1 steps, delay 0 steps, check yes
  max neighbors/atom: 2000, page size: 100000
  master list distance cutoff = 16
  ghost atom cutoff = 16
  binsize = 8, bins = 3 3 23
  4 neighbor lists, perpetual/occasional/extra = 4 0 0
  (1) pair lj/cut, perpetual, skip from (4)
      attributes: half, newton on
      pair build: skip
      stencil: none
      bin: none
  (2) pair morse, perpetual, skip from (4)
      attributes: half, newton on
      pair build: skip
      stencil: none
      bin: none
  (3) pair eam, perpetual, skip from (4)
      attributes: half, newton on
      pair build: skip
      stencil: none
      bin: none
  (4) neighbor class addition, perpetual
      attributes: half, newton on
      pair build: half/bin/newton
      stencil: half/bin/3d/newton
      bin: standard
Per MPI rank memory allocation (min/avg/max) = 12.22 | 12.33 | 12.44 Mbytes
Step Temp c_Thot c_Tcold f_hot f_cold v_tdiff f_ave 
51201000    271.04058    340.34608    293.98139           -0           -0    46.364683            0 
51204000    265.44992    335.62683    259.28216  -0.43576427    1.8184405    76.344668            0 
51208000    273.16335    333.87333    267.94836   -1.0732248   0.70292627    65.924975     34.68183 
51212000    275.16873    317.28836      298.726   0.55507376  -0.98660109    18.562363    37.429661 
51216000    267.42459    302.29478    277.80002   0.10351659     -1.45237    24.494757    39.254439 
51220000     277.0528    321.39288     294.0157  -0.86550569  -0.74554099    27.377186    38.880343 
51224000     265.2232    313.42257     264.0345   0.11029116   0.34848608    49.388075    39.585138 
51228000    279.06312    328.50414    292.69627  -0.73184838  -0.96184588    35.807869    39.559438 
51232000    276.98294    328.55327    271.24648  -0.88375181   0.67124039    57.306797    39.669157 
51236000    279.38092    342.29732    275.84277  -0.75164643  -0.67548345    66.454549    40.172069 
51240000     269.1094    308.42238    269.36076   -1.1138288   0.12797736    39.061622    40.028595 
51244000    267.61057    314.38897    270.06563  -0.56615978   0.55483529    44.323342    39.738828 
51248000     273.2602    330.31136    286.53886  -0.84367162   0.24604642    43.772491    39.967014 
51252000    270.04634    303.66936    284.76333    1.4865826   0.45957085     18.90603    40.070897 
51256000    269.54023    327.50091    260.37594 -0.043543569    1.0486238    67.124961    39.947983 
51260000    272.75576    329.21022    271.98313   -1.0466599  -0.12124312    57.227091    40.032931 
51264000    271.20281    313.39684     277.3033  -0.42585059  -0.98658846     36.09354    40.283838 
51268000    282.01695    333.83088    292.97627  -0.85629678   -0.4233228    40.854602    40.241674 
51272000    271.33536    307.07585    288.49075  -0.93749452  -0.49438978    18.585108    40.346058 
51276000    272.44344    318.48819    279.37292  0.042820736   0.68911419    39.115271     40.06219 
51280000    271.48529    327.00499    282.26656  -0.81728598  -0.02701907    44.738433    39.975335 
51284000    276.43298    330.94154    279.87396  -0.68947445   0.20375563    51.067574    39.923183 
51288000    275.50656    333.85515    279.99582   -1.1031967   0.96634877    53.859326    40.102605 
51292000    273.55205     313.3638    290.68827    1.2874419   0.20512982    22.675533    40.216666 
51296000    279.85483    341.24626    289.14728  -0.98993036  -0.50094424    52.098979    39.960571 
51300000    275.40091    321.11584    305.75658   0.35184993   -1.0663785    15.359259    40.116878 
51304000    272.69402    328.82464    287.13895  -0.14835471  -0.12507892    41.685698    40.104864 
51308000    278.53431    357.73851    278.75925   -1.2971748  0.090813177    78.979261    40.186015 
51312000     271.3458    339.81554    253.52956  -0.90052135    1.3271385    86.285989    40.155653 
51316000    276.56156    330.41878    282.73414   -1.4814978  -0.26935213    47.684648    40.214523 
51320000    282.40034    333.80173    286.59319  -0.43020856   0.88103706    47.208537    40.325642 
51324000    269.15262    304.77031    282.79874    1.0680421   0.90226535    21.971567    40.235842 
51328000    275.97626    306.70443    301.80877   0.56825563  0.017186151    4.8956632     40.18861 
51332000    277.20875    348.95405    265.18524   -2.4988059    1.3800113    83.768809    40.224907 
51336000    271.68966    311.69286    291.43746   -1.5171426   0.32362831    20.255408    40.241465 
51340000    283.48343    335.01293    302.37653   -2.0037459   -1.2562191    32.636401    40.208004 
51344000    274.10101    319.87935    276.74925   -1.8607091  -0.19209434    43.130104    40.281896 
51348000    271.78231    327.16492    263.22662   -1.6512594   -0.1504988      63.9383    40.274841 
51352000    274.05959    314.72554    299.10936   0.94196011  -0.53104988    15.616181    40.257473 
51356000    269.42158    327.15307    267.62605  -0.34296055   0.58733399    59.527015    40.334709 
51360000    269.57037    288.91029    301.40286    1.8223736   -1.4062563   -12.492577    40.335009 
51364000    270.03766    318.39102    272.10499   0.71567051   0.21778408    46.286026    40.340111 
51368000    272.66843    319.31031    278.11777   0.14901287  -0.18857358    41.192538    40.372297 
51372000    267.01461    317.13142    257.05864   0.43933294   0.71582832    60.072779    40.440016 
51376000    269.91486    314.11048    279.11445    1.4725319  -0.43526269     34.99603      40.3471 
51380000    274.51471     320.1415    283.53403    1.2231752 -0.078219416    36.607476    40.446286 
51384000    266.93224    304.83718    286.68818    2.5722333  -0.91214949    18.148998    40.339317 
51388000     269.0588    336.96734     283.3829   0.32920327   0.51092423    53.584438    40.267534 
51392000    274.00659     333.9091    277.92309    0.4872795    1.1018721    55.986007    40.214911 
51396000    273.71106    338.17148    292.61926   0.30704533   0.47766516    45.552219    40.264499 
51400000    273.02712    317.16999    292.42117    1.6419601   0.81207028     24.74882    40.102766 
51404000    270.26491    324.15011    275.54281    2.0372713   0.81160124    48.607291      40.0278 
51408000    277.09649    329.75554    291.20733   0.80739945   0.89906783    38.548203    39.999662 
51412000    268.52069    315.05437    264.43231   0.49322505    2.7701804    50.622059    40.062063 
51416000    277.19098    344.15728    277.11153  -0.74863489    1.2764334     67.04575      40.0772 
51420000    261.00409    303.43073    273.30278    1.2458665   0.56995518    30.127946    40.108141 
51424000    269.08498     329.1417    268.97933   0.89713673     1.361346    60.162364    40.069333 
51428000     273.8327    332.62953    280.52706   0.25729741    1.0098799    52.102467    40.178156 
51432000    272.38744    339.96802    248.63275   0.48145963    2.3750671    91.335265    40.198284 
51436000    253.64388    299.02652    249.35185    2.3386617     1.278851    49.674672    40.182336 
51440000    272.49524     325.0545    279.48747    1.2983291 -0.054156708    45.567038    40.159774 
51444000    271.48806    327.78596    275.99232   0.69560902    1.0410935    51.793648    40.134158 
51448000    268.67012    320.83606    277.55161   0.83699605   0.35036041    43.284453    40.135259 
51452000    276.62071    326.03839    278.51247   0.64760329  0.074184023    47.525918    40.157711 
51456000    267.49824    325.27524    273.18456   0.98674177   0.89812198    52.090672    40.224752 
51460000    263.11872    305.71141    273.32088    2.1652362    1.6219055    32.390523    40.350807 
51464000    274.25779    325.30848    295.14348   0.59545992  -0.80980429    30.165001    40.293472 
51468000    272.93846    316.70867    294.54588  -0.56433908  -0.54528827    22.162795    40.339709 
51472000     271.4401    328.33363    279.65327  -0.60341004     0.325929    48.680359    40.335244 
51476000    268.44631    303.97353    292.56109    1.1452196  -0.69827444    11.412438    40.332087 
51480000    277.69691    337.77775    282.14009  -0.44177169   -0.1901783    55.637669    40.349938 
51484000    267.58074    317.35012    276.01141   0.77662084  -0.46265072    41.338709    40.339056 
51488000    274.74431    322.71673    271.91783    1.1126884   0.61691999    50.798898    40.359531 
51492000    276.43726    331.36266    297.45577   0.17367135   0.22558781    33.906892    40.413756 
51496000    272.46088    321.76654    276.05037   0.23381166    1.6972088     45.71617    40.373069 
51500000    269.67377      321.345    282.07093    1.7949373  -0.71525506    39.274066    40.330383 
51504000    259.53717    295.75853    282.02139    2.4026978  -0.44851102    13.737138    40.413621 
51508000    270.32379    326.54495    277.07685   0.41663593   0.96912269      49.4681    40.459473 
51512000    275.24988    327.77834    286.68182   0.52833219   0.77165491    41.096516    40.429282 
51516000    267.23021    321.31872    263.37603   0.48533771    2.1270781    57.942685    40.398269 
51520000    272.43066    344.75426     258.0691   -0.6913192    1.9085895     86.68516    40.439471 
51524000     277.4104    328.95833    291.45415   0.28718191   0.55378481    37.504188    40.485607 
51528000    264.38666    328.27306     261.8133  -0.75937787   0.62589755    66.459759    40.473473 
51532000    275.14804    320.35317    287.63742  0.059152968  -0.19064841    32.715755    40.518794 
51536000    273.51567     318.9888    278.52759     0.186844  -0.10966153    40.461207     40.53048 
51540000    271.80839     300.8015    294.37019    1.0766666  -0.70391312    6.4313128    40.547819 
51544000    275.08802     317.7189    282.65259   0.56689241 -0.069875756    35.066306    40.583205 
51548000    277.87476    334.63789    281.26767  -0.75505947    0.4248209    53.370216    40.539057 
51552000    281.89201    326.61256     288.5257   -1.0352735  -0.86939272    38.086867    40.536888 
51556000    274.57876    314.53219    284.60012    1.3056673  -0.27023339    29.932062    40.564521 
51560000    280.55468    328.88906     288.4774   0.46864869    -1.877531    40.411667     40.58133 
51564000    278.59018    329.55405    281.25799  -0.86559967  -0.42334636    48.296067    40.565714 
51568000    273.94437    302.57348    290.18621    1.1227459   -1.2595774    12.387276    40.541034 
51572000    270.16184    319.71205    270.77247    0.9826426   0.52196244    48.939587    40.562599 
51576000    261.61165    299.20594    273.52648    1.1365989   -0.3270291    25.679465    40.548721 
51580000    276.83384    327.02251    289.44941  -0.23148782  -0.78789935    37.573099     40.54167 
51584000    268.95374    298.53443    276.41633    1.4030584  -0.79778605    22.118095    40.529956 
51588000    271.71095    327.18831    276.63167  -0.93242979  -0.50410254    50.556636    40.564109 
51592000    279.81819    330.77893    287.40917  -0.95372046  -0.49247825    43.369752    40.569194 
51596000    275.26586    322.65248    286.87473  -0.86845894 -0.037749735    35.777746     40.51267 
51600000    273.22414      300.433    272.09288   0.53354899   0.24164959    28.340119    40.518058 
51604000    283.14303    326.13908    280.56747   -0.9832753   -1.3544628     45.57161    40.501836 
51608000    281.40064    312.92508    297.93773   -1.8608113    -1.498069    14.987344     40.45994 
51612000    271.92767    307.18139    277.72371  -0.66653524   -0.3872241    29.457676    40.445236 
51616000    271.81174    319.94076    269.66124  -0.40999367    1.3365099    50.279519    40.448395 
51620000    281.03052    334.15145    281.96092   -1.1867727   -1.2234571    52.190528     40.45039 
51624000    281.38247    318.92474    298.72828   -2.0165051   -1.2165882    20.196461    40.403686 
51628000    271.63158    303.66818    280.37775  -0.48093534  -0.32216503    23.290428    40.438047 
51632000    279.92609    310.12059    292.94253  -0.18075688  -0.70750558    17.178061    40.383432 
51636000    272.70155    300.38656    267.80805   0.44147929   0.84550045    32.578513    40.327214 
51640000     280.3723     302.5755    282.95565   0.35893383  0.090441703     19.61985    40.321264 
51644000    275.32212    324.44486    286.47206  -0.97138919  0.067698664    37.972792    40.295553 
51648000    276.50749    318.83589    280.92421  -0.76841617    1.2346055     37.91168    40.314549 
51652000    268.76447    309.58523    273.08613     0.238243    1.0244263      36.4991    40.286261 
51656000    269.35528    322.29924    278.56462  -0.66739415   0.33150106    43.734622    40.287162 
51660000    278.28354    331.75888    295.85921  -0.27921219  -0.83426389     35.89967    40.314749 
51664000      282.051    344.39988    283.83037   -1.4658352   0.52803282    60.569512    40.308427 
51668000     266.6366    304.33144    274.46502   0.12090852    1.2138858    29.866424    40.268221 
51672000    266.01559    303.88554    261.03797  -0.18032383    2.0577559    42.847569    40.308326 
51676000     267.8341     292.8858    306.16994   0.49690373  -0.34151075    -13.28414    40.276801 
51680000    267.35545    315.93625    258.60909   0.39524753    2.0970257    57.327163    40.190992 
51684000    284.47779    345.63927    298.62475   -2.4341175  -0.12688879    47.014523    40.201857 
51688000    272.63006    317.14449    293.46844   0.11865463  -0.44455948    23.676056    40.203129 
51692000    265.61213    307.64602    252.20438 -0.013424686     1.895441    55.441637    40.222117 
51696000    279.92527    327.17588    288.37073  -0.52108903  -0.47017201    38.805147    40.266389 
51700000     273.9678    327.01205    276.59137  -0.78590409   0.73126442    50.420685    40.259852 
51704000    276.52255    320.08656    282.06162   0.52325234   0.41513023    38.024939    40.244926 
51708000    276.55746    317.86298     284.0774   0.20418422  -0.83059666     33.78558    40.222021 
51712000    275.96917    312.60147    301.46031  -0.22170093   0.49443144    11.141154    40.196906 
51716000    271.92774    330.37334    270.42343  -0.42855827   0.75629084     59.94991    40.227148 
51720000      269.886    326.00471    275.07968   -0.5617765    2.5085315    50.925037    40.213273 
51724000    278.97493    321.03107    284.10137  -0.78725717    1.3360482    36.929697    40.216862 
51728000    276.41888    320.04824    288.44223  -0.83858442    1.3143136    31.606007    40.203089 
51732000    269.25894    323.29143    280.54304  -0.20768935    1.7729014    42.748392    40.226146 
51736000    275.86883    314.41499    293.27075   -1.0808924   0.82420459    21.144247    40.222197 
51740000    280.10633    323.47262    289.73189  -0.79925932    1.2855016    33.740726    40.193545 
51744000    270.49524    319.87069    262.09637   -1.0365413    2.1333317     57.77432    40.182447 
51748000    270.71876    319.92096    284.69377  -0.73209219    1.2817663    35.227188    40.146736 
51752000    268.17859    307.88544    275.54861   0.46676734    1.2009249    32.336826    40.126058 
51756000    275.68607    328.06554    289.17759   -1.3751696   0.25726693    38.887952    40.119234 
51760000    270.68839    323.18374    264.30661  -0.57131508    2.2607935    58.877132    40.139056 
51764000    276.92551    329.72805    275.59216   -1.2548285    1.0173646    54.135884    40.137276 
51768000    272.51094    302.15946    260.28623   0.76378271    1.5470189    41.873228    40.195052 
51772000    266.81789    321.71549    264.87222   -1.4822304    2.0908215    56.843272    40.197569 
51776000     265.3988    298.06077    279.70525   0.72119834    1.0375732    18.355518      40.1858 
51780000    270.60023    301.79629    289.32215   0.64439637    1.2717699     12.47414     40.19437 
51784000    271.88734    327.58571    277.57287   -1.0679301    1.5956413    50.012846    40.177762 
51788000    272.06073    340.96145    279.52668    -2.134803    1.1737675    61.434769    40.189458 
51792000    272.11529    308.91597    300.29707   0.05340026    1.2526976     8.618906    40.159877 
51796000    272.57338    310.51019    291.24541   0.29898473    1.0827712    19.264776    40.198502 
51800000    264.82515    305.57534    265.90084  -0.14780189    2.4095998    39.674496    40.197087 
51804000    287.60984    336.94724    316.52512   -1.4190416   0.35194143    20.422119    40.172937 
51808000    273.03767    324.08612    293.44124   -1.1373709   0.60178422    30.644878    40.138345 
51812000    275.45959    329.16974    292.19876  -0.89986512   0.84300017    36.970985    40.122688 
51816000    272.45049    318.87834    280.49976  -0.72200796     1.725685    38.378575    40.118204 
51820000    269.99155     319.4895    268.50139  -0.71007831    2.8246511    50.988108    40.106785 
51824000    280.84754    344.17955    300.57088   -2.4214751    1.3621037    43.608662    40.109007 
51828000    273.28435      321.618    271.39782   -2.8192511    2.5933152    50.220182    40.117605 
51832000    278.69804    331.65534    293.75835   -1.9259367   0.81851028    37.896994    40.133651 
51836000    279.24382    346.22824    286.24982   -3.1085098    1.1778116    59.978425    40.150036 
51840000    273.81215     321.2667    292.88701   -1.7575489    1.3764261    28.379688    40.146824 
51844000    271.38417     303.7784    286.92189   0.31385114    1.7602528     16.85651    40.172672 
51848000    281.28808    352.43071    281.83662   -1.9602735   0.26028576    70.594086    40.195314 
51852000    273.30535    312.00981    287.23631  -0.40258695   0.99608465    24.773497    40.200777 
51856000    272.16834      312.137    292.49531  -0.94836755    2.0072282     19.64169    40.205321 
51860000    271.16309    311.16843    276.73168   -1.2253751    2.6076323    34.436755    40.195154 
51864000    271.10906    318.46909     273.9495   -2.6224594     2.481949    44.519587     40.17894 
51868000    271.43125     311.0051    296.76333 -0.092412438    1.2737749    14.241771    40.187662 
51872000    264.52968    299.11399    263.59088  -0.25495635    1.6221744     35.52311    40.195629 
51876000    276.73247    322.78477    287.75404   -1.5900589    0.6239427    35.030733    40.202694 
51880000    269.09679    306.19689    270.38762  -0.21088855    2.0663764    35.809268    40.211132 
51884000    278.85377    331.35287    290.42766   -1.4216217    1.2703113    40.925216    40.204601 
51888000    274.13441    349.92621    264.66801   -2.1406115    1.4664359    85.258203    40.227676 
51892000     275.0965    319.55212    290.89664   -1.8956499   0.96437557    28.655475    40.201786 
51896000    263.74119    295.59967    289.06849   0.22052777   0.43199012    6.5311784     40.17942 
51900000    279.47769    334.12144    284.17763   -2.0024332   0.59957391    49.943807    40.183958 
51904000    268.45438     325.8157    268.43249   -0.1242807    3.0501507    57.383213    40.173554 
51908000    274.96372    324.19098    272.12634  -0.28804565    2.2986154    52.064645    40.176073 
51912000     270.4977    311.99159    274.40222    1.0003376    2.3784962    37.589367    40.177305 
51916000    275.47185    320.70966    290.82391   -1.5626803   0.37144822    29.885752    40.148297 
51920000    272.65261    323.42212    270.81809  -0.74644739    1.2685265    52.604034    40.150973 
51924000    275.81729    326.22379    277.95652   -1.6888044   0.44619502     48.26727    40.143163 
51928000    276.58393    332.56956    285.35037   -2.5503621    1.2912941    47.219195    40.141064 
51932000    274.12817    327.50555    277.05874   -1.6347261   0.83185036    50.446805    40.148218 
51936000    272.28095    334.54441    279.92505   -3.1872577   0.43170355    54.619361    40.169708 
51940000    271.49647    321.94207    262.87525   -1.3617461    2.2845926     59.06682    40.180383 
51944000    277.57581    332.61643    283.79889   -2.0448291       2.6083    48.817545    40.183145 
51948000    272.12182    320.30797    278.81945   -2.1756118    1.4267984    41.488518    40.185718 
51952000    278.42474    316.56405    275.20937   -1.6905309    1.1132363    41.354683    40.197058 
51956000    272.88322    325.92376    290.19242   -2.9499067    1.3249688     35.73134    40.192933 
51960000    275.78396    325.14886    290.80735   -2.7994822   0.55291113    34.341508    40.193005 
51964000    274.88798     336.5969    273.19477   -3.6419251    1.7626674    63.402127    40.197392 
51968000    275.62839    333.78076    276.89321   -3.4993748     2.269064    56.887551    40.188005 
51972000    267.97179    327.27783    261.48496   -2.0331975    3.3353751     65.79287    40.184265 
51976000    278.21186    323.39749     306.5786   -2.3147159   0.25627174    16.818889    40.165302 
51980000    274.41421    321.91824     284.3291   -1.8676178     1.807001    37.589143    40.180181 
51984000    274.19465    315.25402    292.07661   -1.9381236   -0.5610398    23.177413    40.173088 
51988000    275.32573    329.14815    282.94045   -1.9009189    1.1401502    46.207698    40.185235 
51992000     265.5981    311.07741    270.95867  -0.65534597    1.3620018     40.11874    40.179081 
51996000    268.39435    308.64499    259.36626  -0.72839384    2.7483966     49.27873    40.175271 
52000000    275.71445    317.05346     275.0492   -1.6642333     1.933185     42.00426    40.193817 
52004000    271.46527    318.03947     278.7271   -2.5300263    1.1846101    39.312372    40.184481 
52008000     283.7152    319.18593    301.15864   -2.5727756  -0.36340499    18.027293    40.187293 
52012000    273.96101    308.81379    282.68347   -2.2024312   0.57188263    26.130319     40.19982 
52016000    269.36503    300.38473    282.79434   -1.9311351    1.3533579    17.590388    40.172674 
52020000    279.48154    331.45457    271.71762    -3.631284    2.0404189    59.736956    40.184744 
52024000    281.15693    310.19048    302.21449   -1.8024263    0.4422496     7.975992    40.190623 
52028000    273.54223    327.94445    265.58959    -1.781621    1.3207531    62.354858    40.191109 
52032000    275.88641    357.07773    267.35667   -4.6831302   0.33981918    89.721053    40.203337 
52036000    281.47536    326.96241    296.18647   -1.7187192  -0.90138302    30.775939    40.198295 
52040000    277.56477    326.62747    271.00411   -1.1227597   0.71498217     55.62336    40.191282 
52044000    271.05513    316.67735    264.60599   -2.1015859    2.0692664    52.071361    40.164081 
52048000     279.9393    322.32674    285.17162   -1.6091137   0.50933148    37.155119    40.159558 
52052000    283.96374    338.70902    287.91312   -2.5747318  0.096476755    50.795904    40.168044 
52056000    270.55329    308.40715    270.45503   -1.8935111     1.446491    37.952112    40.170002 
52060000    275.07938    328.38231    266.11243   -1.1949572    2.9657022    62.269886    40.177015 
52064000    269.76751    317.98711    281.59529  -0.61394647   0.56884456    36.391819    40.155655 
52068000    273.51468    313.68069    271.24382   -0.4149966    1.9940979     42.43687    40.129294 
52072000    276.07866    324.51777    281.48085   -1.6361787    1.7655543    43.036918    40.126695 
52076000    274.60981    307.95695    293.35402  -0.38485065  -0.32179953    14.602928    40.127547 
52080000    272.71162    323.05453    286.28474   -1.5377916   0.30672063     36.76979    40.093866 
52084000      267.485    304.73454     282.9168  -0.21551387   0.45797245    21.817735    40.094274 
52088000    279.53053    334.10343    285.90123   -1.1022744   0.32811044    48.202205    40.097843 
52092000    272.90329    310.69569    276.89914  -0.31826316   -1.1859027    33.796556    40.118575 
52096000    270.24965    293.33298    273.24904   0.65884059  0.064202563    20.083942    40.122676 
52100000    276.77269    323.60207    277.14791   -1.0334321  0.018576178    46.454152    40.125836 
52104000    270.56954    321.48505    252.34693   -1.2181966   0.30862401    69.138121    40.129866 
52108000    266.80463    322.22289    273.66854  -0.33329518    1.2171018    48.554353    40.121017 
52112000    278.56009    321.21155    281.26367 -0.045234856   0.50665406    39.947881     40.11731 
52116000    280.60176    329.58506    293.34716 -0.019687132  0.012046632    36.237902    40.124264 
52120000    276.67893    337.87754    277.97426  -0.85598756   0.61790064    59.903281    40.129266 
52124000    268.44692    292.17801    261.09927    1.4636129   0.43038695    31.078742    40.146573 
52128000    281.87984    355.01878    287.63483   -1.0940316   0.06424412    67.383948    40.138508 
52132000    267.88907    305.22873    273.77797  -0.11717453   0.56690641    31.450763    40.114573 
52136000    273.43426    320.47481    275.96533  -0.21085587    1.0124683     44.50948    40.106547 
52140000    279.58913    336.62916    275.09203   -1.4153078      1.28263    61.537131    40.108062 
52144000    271.80782    324.47239    280.16946   0.17329104   0.61185762     44.30293    40.116566 
52148000    270.28916    314.78649    279.40912  -0.77822354    1.6054354     35.37737    40.108139 
52152000    269.69652    318.64657    276.63944   -1.4270701   0.93303525    42.007136    40.115893 
52156000     284.4931    357.25924    285.15408   -1.6670608     0.502899    72.105154    40.124032 
52160000    264.85936    303.88656    288.45386  -0.19359937  -0.67614821    15.432706    40.121348 
52164000    270.20488    318.86227    277.37563 -0.048881688   0.53679075    41.486643    40.108805 
52168000    261.59347    291.69278    269.50628   0.91417833    1.6128026    22.186496    40.111174 
52172000    269.93298    318.62907     270.4345   0.72281139   0.38118421    48.194577    40.104252 
52176000    277.18414    311.39806     306.0884  -0.17990714   -1.6220841    5.3096663    40.106546 
52180000      269.022    309.89365    288.76739   0.29459815   0.33008404     21.12626    40.127627 
52184000    269.39361    313.73424    282.39892  -0.34323606   0.85165199    31.335325    40.120358 
52188000    278.59031    331.65518    282.18295   -2.0111027   0.86043081    49.472233    40.128392 
52192000    276.06702    335.79915    279.56887   -1.4798031   0.23680365    56.230279    40.149971 
52196000    277.64884    331.85044    285.14899   -1.2467801    1.2225409    46.701447    40.148647 
52200000    273.60088    316.28361    289.95419   0.40353539    1.4689146    26.329418    40.130574 
52204000    272.11834    319.98765    269.37994  -0.28566648    1.9134687    50.607706    40.133353 
52208000    276.15803     343.5957    260.75826  -0.93259463    2.2095048    82.837431    40.127855 
52212000    262.59496    300.80043    264.23576   0.70216712    2.0086814    36.564669    40.125605 
52216000    273.14966      324.175    284.96098  -0.58193986    1.3539365    39.214014    40.118328 
52220000    262.71358    306.63305    263.68671  -0.41136816    2.6190196    42.946341    40.117539 
52224000    277.29708    329.78493    285.63873   -1.0778713    1.9346358    44.146197    40.122416 
52228000     275.1847    336.22643    281.68835   -1.5334201    1.9182104    54.538079    40.120733 
52232000    274.73971    338.95474    281.59002   -3.0150736    1.7958611    57.364728    40.129542 
52236000    277.39853    325.77996    277.99254   -1.2046424    1.7790436    47.787411    40.130873 
52240000    274.09288    312.38255    273.83395   -1.4193488    2.7851605    38.548594     40.12884 
52244000    273.50083    318.54303    275.44501   -2.3195958    2.5329188    43.098027    40.129918 
52248000    262.98651    317.56495    265.72433   -1.2641144    2.2149187     51.84062     40.11923 
52252000    269.86371    339.02383    251.93416    -2.071957     2.976347    87.089677    40.129314 
52256000    271.45908    311.99315    278.62139   -0.8599632    1.7453922    33.371761     40.12363 
52260000    271.80844    314.96919     271.5451  -0.24976253    1.4073666    43.424086    40.135949 
52264000    266.54473    325.82136    264.59163  -0.55553143    3.0367596    61.229726    40.135347 
52268000    268.35719    321.20429    264.54379  -0.53821787    3.0816644    56.660498    40.135538 
52272000    274.21978    342.71446    275.15519   -1.7448248    2.1774687    67.559273    40.136922 
52276000    265.40897    317.00386    269.23843  -0.91881523    2.1165716    47.765437      40.1432 
52280000    269.34114     332.9961    272.22113   -1.2067258    1.6866834    60.774965    40.132082 
52284000    268.98455    302.72311    277.45495   -0.1187381    2.1451331    25.268167    40.113306 
52288000    275.50551     320.2176    293.00461   -1.5569156    1.3805561    27.212997    40.114876 
52292000    281.56883    347.38968    288.69404   -1.2101805    1.3887104    58.695636    40.111153 
52296000    278.93371    326.36384     298.5916    -1.768742    1.0359107     27.77224    40.106139 
52300000    265.43797    321.26679    274.42669   -2.7213875    2.2975465    46.840104     40.10481 
52304000    269.08373    326.98198    268.86133   -2.4434904    2.2967916    58.120648    40.095825 
52308000    271.13153    333.12093    271.21665   -1.3054403    2.5354175    61.904284    40.087746 
52312000    267.29833    310.83166     281.6942   0.23051762   0.54128717    29.137462    40.095004 
52316000    260.30122    313.81431    238.76078   -1.2793441    4.2529869    75.053531    40.089901 
52320000    275.67422    324.88821    296.15011   -1.8362063   0.92435581    28.738109    40.094684 
52324000    267.63142    317.37755    278.78175  -0.67338176    2.3813737    38.595808    40.110834 
52328000    266.63277    314.13167    278.73903  0.091889274    2.3421798    35.392639    40.103759 
52332000    268.71378    326.93755    282.29663   -1.7871221    1.9699974    44.640913    40.117483 
52336000    266.32396    288.75013    285.24434    2.0950867    2.1220434    3.5057825    40.116321 
52340000    259.59657     306.6337    249.65655    0.7038764    2.8652435    56.977153    40.142501 
52344000    271.65927    309.84768    279.44449  -0.43522549    1.5266025    30.403197    40.157943 
52348000    277.33026    302.01756    301.08445   0.08280756   0.44964387   0.93310151    40.138788 
52352000    273.56443     316.9591    281.58926   -1.2627275    1.1664723    35.369845    40.130722 
52356000    276.81193     353.8549    251.02805   -3.1147194    2.8173574    102.82684    40.112371 
52360000    274.31621    319.49803    288.41102   -1.5740432    1.1743424    31.087005    40.107412 
52364000    273.03861    335.44801    244.57471    -1.491073    3.3307828    90.873307    40.130199 
52368000    274.19648    345.39712    276.63799    -1.589179   0.95956185    68.759133    40.143863 
52372000    270.76169    311.79788    280.01198  -0.17598546    1.2979223    31.785907    40.152645 
52376000    270.03591    300.86674    278.40167   0.30072237    2.0690459    22.465066    40.170092 
52380000    275.77034    316.61759    296.25517   -1.4206878    1.6884939    20.362418    40.174171 
52384000    266.29655    292.43857    274.72144  -0.11119252    2.4115108    17.717122    40.179668 
52388000    276.71757    321.98543    292.52754   -1.2678288   0.88956747    29.457892    40.180788 
52392000    273.84186    318.91711    283.79797 -0.0082388071    1.9714398    35.119144    40.170277 
52396000    272.38957    326.62809    285.46247  -0.72855765    1.1880874    41.165617     40.17543 
52400000    265.74162     286.3164    286.82641   0.17121502    1.9215081  -0.51000578    40.160181 
52404000    277.51916    337.43325    280.43042   -2.6887725    1.9638765    57.002831    40.161484 
52408000    280.87432    328.59637    295.96383   -1.5721182    1.3275398    32.632538    40.159043 
52412000     275.4086    312.94099    275.56917    1.3739081    2.3120817    37.371817    40.149649 
52416000    273.66938    325.55968    296.08543   0.51007216    1.6625942    29.474251    40.146503 
52420000    278.44273    331.41071    295.09359  -0.21371815   0.52373209     36.31712    40.137426 
52424000    263.41742    316.73494    268.64696   0.42687437    2.6975444    48.087981    40.165332 
52428000    266.72287     327.0345    264.00242 -0.022308112     3.139492    63.032081    40.178633 
52432000    271.74732    326.44359    282.61902  -0.62970468     1.966616    43.824576    40.183949 
52436000    271.04583    301.75326    288.93546    1.0484039    1.1520304    12.817794    40.179937 
52440000    271.42693    311.26089    294.83807   0.29130118    2.0373922    16.422813    40.180928 
52444000     267.7391    307.12059     274.3998   0.40611794    1.7613768    32.720792    40.177085 
52448000    272.13636    324.49858     272.6504  -0.23486916    1.9587938    51.848183    40.160368 
52452000    267.74722     321.5586    275.16954   -1.3138395    1.8621053    46.389061     40.15297 
52456000    275.02481    330.87934    280.62171   -1.2781732   0.18014377    50.257637    40.160845 
52460000     264.2365    309.23836    280.03326   0.56277986    1.3700559    29.205106     40.15754 
52464000     274.8916    318.94092    270.57473  -0.44087861    1.5420516    48.366188    40.149607 
52468000    264.59228    308.50336    290.87291    0.1227818   0.63317268    17.630447    40.144608 
52472000    265.69224    308.95224    268.74102   0.01774403    2.6423804    40.211212     40.13264 
52476000    266.21258    313.53279    271.06081   -0.9463771    2.7827782     42.47198    40.129862 
52480000    267.95092     322.6761    268.46493   -1.0852484    2.9093262    54.211176    40.136795 
52484000    258.70158    292.01298    261.40048   0.59436236     2.472152    30.612496    40.115791 
52488000    265.05405    312.54787    279.73902  -0.86297237    1.0952199    32.808845    40.109496 
52492000    275.34114    336.56299     280.5985   -2.8625228    2.7617619    55.964489     40.11982 
52496000      266.117    312.93019    268.92587  -0.38570404    3.1027022    44.004317    40.115958 
52500000    274.09358    308.07038    290.74432  0.049519592    1.8981641    17.326056    40.105272 
52504000    276.66366     325.4918    293.06585  -0.52329102    1.3592801    32.425948    40.098684 
52508000     279.3122    331.76658    285.97154  -0.40496974    1.7895211    45.795044    40.100969 
52512000    274.86356     329.6793    276.68577   -1.9838183    1.6642594    52.993527    40.117356 
52516000    273.55456    317.13736    282.44004  -0.79926753    1.1274133    34.697328    40.120592 
52520000    276.90392    324.50883     277.2712   -1.3171729    1.8031318    47.237636    40.110657 
52524000    275.51394     324.6254    280.39192   -2.2186972    1.3845912    44.233471    40.113658 
52528000    278.52898    325.55524    294.21328   -2.0900938    1.2490267    31.341956    40.113248 
52532000    279.39054    315.32866    281.05369    -1.346033    1.0666242     34.27497    40.109807 
52536000    276.21375    314.69611    289.59024  -0.19905936   0.89521371    25.105862    40.105719 
52540000    271.55074    303.32378    285.58996   -2.1619048    1.4038278     17.73382    40.084893 
52544000    273.59559    309.48664    283.21191   -1.0225996    2.1050782     26.27473    40.078095 
52548000    276.28021    322.10474     284.6682   -2.6000754    1.8033841    37.436549    40.079235 
52552000    276.68491     327.0421    273.31501   -2.6193813    1.1744988    53.727084    40.080318 
52556000    276.50158    324.87195    292.72575   -1.7041232   0.90904864    32.146199    40.085493 
52560000    275.45366    319.65682    274.39544   -2.4846198  -0.40709103     45.26138    40.087615 
52564000    274.47888    322.25855    281.87747    -2.144314   0.48681712    40.381084    40.084212 
52568000    274.09415    293.02668    271.07624  -0.40708355    1.4631862    21.950439    40.088886 
52572000     271.5175    301.64243    272.33378   -1.9219652   0.75796241    29.308654    40.083211 
52576000    280.77256    320.60147    288.32093   -2.4668731   0.47580244    32.280538    40.074072 
52580000    276.53283    326.14991    267.22274   -2.5158659    1.6329902    58.927175    40.066431 
52584000    280.94338    308.77602    303.50567  -0.79889041  -0.43087604    5.2703549    40.074101 
52588000    277.15874     324.0681    290.62891   -2.0560818   0.79729678    33.439195    40.063478 
52592000    279.11224    321.44558    290.78055   -2.5490897   0.46284486    30.665022    40.067255 
52596000    275.86059    299.32139    292.24743  -0.94775234   0.25369947    7.0739585    40.060808 
52600000      274.525    297.06563    280.34896   -1.3231029    1.2565385     16.71667    40.061513 
52604000    274.35267    327.18649    265.25305    -1.522426    2.2124214    61.933445    40.061926 
52608000    270.54016    310.04617    281.36621   0.32717309    0.3041295    28.679962    40.063566 
52612000    276.99805    325.84997    280.00095  -0.72956362    0.7460066    45.849018    40.048169 
52616000    277.93681    322.76737    290.83745   -1.8175883   0.45286186    31.929919    40.039724 
52620000    271.39874    311.82895    267.45433  -0.29573738   0.90354832    44.374622    40.034939 
52624000    265.97993     304.3869    262.26398  -0.41371879   0.99675257    42.122924    40.018534 
52628000    278.17018    336.03513    275.01893   -2.6671041   0.49018732    61.016205    40.014121 
52632000    280.11748    317.09844    298.10619  -0.54154561  -0.36702661    18.992248    40.003686 
52636000    275.92445    329.80925    284.46303   -2.6158116   0.69937241    45.346227    39.999209 
52640000    281.92495    307.20231    308.58436  -0.63779126  -0.12485605   -1.3820444    39.999632 
52644000    266.78725    303.13615    280.66285  -0.56063866    1.1058864    22.473302    39.993639 
52648000    269.02019    308.25441    274.46294   0.10962324    1.5594563    33.791476    39.982825 
52652000    278.25544    342.57614    276.01425  -0.95107528     1.631518    66.561893    40.003411 
52656000    282.91936    339.53158    280.80787   -1.6982188    1.6053343    58.723711    40.010032 
52660000    269.56034    319.96805    264.40719   -1.6097259     2.009938    55.560864    39.998297 
52664000    274.32183     330.4502    282.42561   -3.9103221    1.0644389    48.024598    40.001885 
52668000    270.60489    327.78704    278.66537   -1.9389571    2.3451745    49.121673    40.002114 
52672000    270.99707     329.8853    267.45131   -1.8449986    2.0240397    62.433992    40.005101 
52676000    268.71602    321.85557    283.80271  -0.90209867    1.7847691    38.052863    40.006086 
52680000     270.3399     305.0358     285.6472  -0.36316912    2.4096589    19.388609    39.997414 
52684000    276.35117    342.35639    277.23416   -2.7670401    1.7439024    65.122229    39.984252 
52688000    271.41788    329.23198    266.16041   -3.3039293    2.7062248    63.071568    39.990082 
52692000    273.95119    335.58236    276.19535   -3.8399781    2.4670504    59.387004    39.983309 
52696000    272.69527    321.84527    267.62861   -2.6254718    2.8141241    54.216662    39.990581 
52700000    276.50917     328.9447    301.26377   -2.8639409   0.94506086    27.680929    39.990975 
52704000    267.51723    308.09502    272.10835   -1.9585726    4.0803109     35.98667    39.985476 
52708000    283.52453    344.72664    294.27943   -3.9765594     2.172692    50.447212    39.989873 
52712000    271.41593    325.49626    283.27173   -3.4197941    3.1714628    42.224524    39.993521 
52716000    276.23903    334.11324    276.02983   -3.5760403    3.7564291    58.083407    39.988358 
52720000     282.1531    339.92613    306.10905   -2.5935816    1.1949758    33.817079    40.012006 
52724000     281.4773    320.88524    298.91228   -2.0615204    1.6032443    21.972969    40.009397 
52728000    272.78238    314.76186    266.61879   -1.6440081    2.8274151    48.143065    40.013636 
52732000    268.27961    321.23145    276.19159   -2.6515286    2.0034602    45.039859     40.01625 
52736000    274.62136    324.33693    282.74088   -2.8474146    1.4921659    41.596052    40.020555 
52740000    269.64187     322.1304    278.39179   -2.3436842    3.5980659    43.738616    40.022977 
52744000    281.55233    333.17006    293.20391   -2.3139243    2.6762898    39.966154    40.028748 
52748000    270.68809    342.17987    266.52718   -2.8149688    3.2573663    75.652692    40.032312 
52752000    277.68662    346.23414    283.19429   -3.3035602    2.4631554    63.039857    40.045784 
52756000    271.88352    320.24834    267.18203   -2.8754446    3.0337037    53.066306    40.045994 
52760000    274.14205     322.3552    266.77441   -3.1491411    2.4250045    55.580787    40.045811 
52764000    258.77377    281.60889    263.39052   -2.1535217    2.8595262    18.218367    40.037058 
52768000    274.54334    321.42697    282.91178   -3.6018914    2.6236768    38.515184    40.035254 
52772000    271.54138    329.30125    266.21318    -2.850901    3.5345001    63.088064    40.039995 
52776000    273.45484    334.56544    264.97438   -2.7981942    3.7519295    69.591055    40.049548 
52780000    281.87475    337.21729     278.8297   -2.7410477    3.5531865    58.387586    40.054336 
52784000    270.16613    308.46766    262.37376  -0.29887181    4.3371502    46.093902    40.053135 
52788000    281.34463    318.02558    294.54249   -0.9502135    2.5978592    23.483098    40.046123 
52792000    280.03833    334.06395     281.8539   -2.6492722      1.97766    52.210051    40.057338 
52796000    266.59575    324.24198     255.6537   -2.4916609    3.2837084    68.588284    40.052368 
52800000    274.39585    323.65563    292.64904   -3.6072542    1.9173246     31.00659    40.044173 
52804000    282.81647    340.64523    292.07439   -1.9301832    2.4034795    48.570833    40.046453 
52808000    280.71213    316.12488    305.12864   -1.8538858    1.7306112    10.996245    40.041792 
52812000    275.96143    325.29243    291.94973   -2.5469205    1.7341973    33.342698    40.042805 
52816000    277.07482    330.22703     299.7369   -2.5872026    1.8932066    30.490125    40.039854 
52820000    278.99031    330.71374    265.21349   -3.1362632    2.8481835    65.500253    40.039208 
52824000    283.58306    327.57719    281.23261   -3.0173791    2.8876138    46.344577    40.040997 
52828000    282.28637    326.60135    283.12404   -2.5023995    2.3516709    43.477308    40.040675 
52832000    279.03045    314.18889    286.50641   -2.3411824    2.5742014    27.682476    40.034294 
52836000    273.95552    318.58635    274.03725   -2.2501212    3.4420283    44.549102    40.030023 
52840000    273.28659    331.23618    273.14829   -3.1609398     3.412585    58.087894    40.027303 
52844000    273.94343    306.90966    285.07069   -2.6462854    2.6063392    21.838973    40.042553 
52848000    281.95942    346.27899    267.16343   -5.0778071     3.504032    79.115563    40.039577 
52852000    269.42314    303.60578     277.7961   -2.0375759     2.853251    25.809682    40.040213 
52856000    278.90272    343.94071    261.18116   -4.8422775    3.2316789    82.759542    40.050623 
52860000    279.77914    335.32716    279.15872   -3.9437814    2.4491563    56.168443    40.063016 
52864000      273.484    333.57081    266.78589    -4.676723    2.1542759    66.784925    40.062846 
52868000    281.05811    325.49856    297.63709    -3.738369    1.5146314    27.861476    40.081134 
52872000    274.17852    282.29581    299.83633   -2.4225704    1.6852741   -17.540525     40.08516 
52876000    277.49147    322.38442    277.13334   -3.9795164    3.6576953    45.251073    40.086021 
52880000    273.29292    303.39122    282.88808    -4.002285    3.5596802    20.503146    40.071924 
52884000    273.43813     305.6745      278.239   -3.3522344    3.7767666    27.435499    40.071472 
52888000     284.7471    340.70495    275.29126   -5.3777461    4.1588146    65.413683    40.078172 
52892000    273.65929     312.3822    270.66973   -3.4105829    4.7264517    41.712465    40.077814 
52896000    285.94274    341.69334    286.00506   -5.3279236     2.452362    55.688271    40.083767 
52900000    284.07089    313.64989    295.39821    -3.233874    3.4307323     18.25168    40.093785 
52904000    267.24852    297.62044    273.04284   -2.2035213    3.9392577    24.577596    40.094027 
52908000    269.48114    320.02701    277.55995   -4.6051527    3.8665581    42.467059    40.102801 
52912000    269.39158    313.96163    281.92423   -4.4862478    3.2219928    32.037402    40.107161 
52916000    274.96924    330.72564    264.77241   -5.5143721    3.6439759    65.953224    40.120854 
52920000     264.8919    311.37212    273.02679   -3.6678816    3.4742392    38.345335    40.120012 
52924000    279.45345    318.99135     291.7836   -3.7066438    2.6672098    27.207756     40.12017 
52928000    275.91912    322.61182    277.36499   -3.5008103    2.7943368    45.246831    40.131697 
52932000    278.52761    323.94822    289.03634   -4.4680736    2.8341406    34.911887    40.122958 
52936000    273.01154    319.58933    256.52685   -3.8706502    3.6418732    63.062472    40.128521 
52940000    276.85811    308.11618    293.19696     -3.11835    1.1161258    14.919217    40.135094 
52944000    279.28187    339.32376     284.3424   -4.2239115    2.6144555    54.981368    40.128759 
52948000    277.32075    317.86395    286.98955   -3.1651115    2.9919084    30.874401    40.122085 
52952000    266.63785    323.55092    272.65495   -6.0581797    4.9915611    50.895976    40.121506 
52956000    270.66361    321.08454    284.00596   -5.8693922     4.001082    37.078587    40.113764 
52960000    267.55302    313.79122    262.33963   -4.2249085    4.9226692    51.451591    40.106605 
52964000    266.86834    309.55406    281.66302   -4.0965856    4.9416243    27.891041    40.110008 
52968000    272.05548    303.13004    291.28682   -4.1708784    4.7266918    11.843218    40.100846 
52972000    267.71684    306.91755    269.99752    -3.707919    4.6869868    36.920027     40.10845 
52976000    278.69342     336.4772    288.48349   -5.1459606    4.6657799    47.993709    40.102147 
52980000    271.01421    322.50629     271.9498   -5.1643103    4.4408306    50.556492    40.103486 
52984000     276.9824    311.73959    289.74141    -3.638132    3.2922595    21.998185    40.110553 
52988000    271.59872    326.40695    276.72738   -3.8602127     4.077129    49.679569    40.109476 
52992000    276.06907    321.75741    271.95008   -4.1739566    3.2759427    49.807326    40.108578 
52996000    272.86628    320.00696    304.02054    -3.467757    1.4304294    15.986416    40.096293 
53000000    276.24907     319.0064    281.94594   -3.3098581    2.7024706    37.060463    40.102536 
53004000    273.87051    333.65803    285.42127   -3.7864333    2.0025083    48.236754    40.101253 
53008000      261.945    297.12587    254.48684   -2.9942192     3.927232    42.639032    40.099802 
53012000    279.19877    326.71739    292.92463   -3.0250149    2.2428908    33.792764    40.103836 
53016000     255.5412    299.59231    267.20626   -1.2086035    3.2386444    32.386053    40.108888 
53020000    265.12474    304.28934    262.86855   -1.9980109    4.1643682     41.42079    40.108555 
53024000    272.62066    325.40801    287.93381   -3.0261955    2.7946026    37.474198     40.12982 
53028000    271.52881    325.96526    277.58242   -2.9269179    3.2185528    48.382845    40.130299 
53032000    272.51972    325.46456    271.77923   -3.3033669    3.5687575    53.685337    40.141961 
53036000    273.55724    316.12372    279.93146   -3.0374375    4.0976517    36.192255    40.142116 
53040000     270.0461    308.92693    290.31478    -2.778541    2.7737487    18.612151    40.135722 
53044000    273.01461    314.44298    278.70014   -3.0302875    3.6915078    35.742833    40.138091 
53048000    270.84506    329.92138    278.70916   -2.7398594    3.6321222    51.212216    40.140479 
53052000    276.18792    314.58699    285.36935   -2.6635079    2.8848512    29.217639    40.141306 
53056000    264.79137    298.41774    268.75425   -2.7312352    4.1614827    29.663498    40.149008 
53060000    276.46577     325.4371    276.96356   -2.6544542     3.777513    48.473538    40.139369 
53064000    265.72856    310.81224    248.86134   -2.1060195    4.8067381    61.950894    40.139567 
53068000    275.79666    322.02041    292.03671   -3.7241877    2.5012817    29.983695    40.139647 
53072000     272.4553    314.06503    275.72083   -2.8262189    4.0391709    38.344201    40.130743 
53076000     271.1512    320.64419    279.59934   -3.8876078    3.8040362    41.044855    40.126414 
53080000     279.5224    330.85306     298.3585   -4.0641285    2.7689985    32.494555      40.1232 
53084000    265.86435    320.06102    273.86256   -4.2666156    4.0579683    46.198459    40.136131 
53088000    277.27242    335.14078    289.04649   -3.3114339    2.8492731    46.094289    40.129208 
53092000    270.40055     308.4201     284.3029   -1.2446989    2.9102261    24.117197    40.131513 
53096000    277.26462    328.23455    282.19345   -2.4676912    5.5749841      46.0411    40.129784 
53100000    269.11148    303.76004    292.02463   -1.6609189    3.2533067    11.735413    40.126978 
53104000    273.86402    309.69652    286.52617   -2.0970577    3.6746987    23.170357    40.131135 
53108000    275.79963    321.85716    289.62242   -2.4011503    3.3692673    32.234739    40.125696 
53112000    278.97622    339.49788    292.81942   -2.9659698    2.5056058    46.678458    40.127954 
53116000    273.92379    299.10975    294.64728   -1.9802109     3.493707    4.4624729    40.129671 
53120000     266.6045    303.82521     275.7187   -2.4184891    4.2184811    28.106505    40.127543 
53124000    265.40567    292.36009    297.39211   -1.8780023    2.5328455   -5.0320267    40.125985 
53128000    268.15392     323.3768    281.72147   -2.9450453    3.0993099     41.65533    40.135164 
53132000    270.21727    309.67588     271.5327   -1.1161694    3.8501244    38.143179    40.129893 
53136000    273.81012     356.6851    271.40654   -3.9141229    4.5901852    85.278559    40.128259 
53140000    266.65885    317.36013    262.43928    -2.200618    4.2111746    54.920858    40.130992 
53144000    262.65388    302.80563    277.27302   -1.2585235    2.7609716    25.532608    40.127275 
53148000    267.89803    314.34036    289.39385   -1.9673236    2.4150025    24.946514    40.140973 
53152000    273.88964    331.77665    268.45877   -2.7718982    4.5946883    63.317887    40.125195 
53156000    267.06106    328.32804    282.24916   -2.2910104    3.9555523    46.078881    40.127349 
53160000    272.23389    325.81881    263.09365   -2.3651801    5.2823316    62.725156    40.124901 
53164000    269.88354    325.87427     277.6611   -2.3152908    3.8315327    48.213165    40.114484 
53168000    257.46453    299.61994    260.47444   -1.9930703     5.195314    39.145503    40.121393 
53172000    271.98551    325.71333    293.83774   -3.0740135     3.599226    31.875596     40.13322 
53176000    274.40377    332.37862    287.63027   -3.2315924    4.0433715    44.748352    40.141494 
53180000    267.69724    307.34067    293.39483   -2.6296027    2.8631266    13.945843    40.149928 
53184000    267.64907    313.59012    276.53082   -2.6827262    3.7474109    37.059297    40.148229 
53188000    272.59374    348.84976    273.07481   -4.0699259    4.5684356    75.774943    40.147932 
53192000    268.52475    324.43972    285.22907   -2.7614255    3.9552503    39.210649     40.14981 
53196000    269.55089    313.34687    274.92447   -2.1843776    3.5372214      38.4224    40.147206 
53200000    269.56291    316.21186    266.77021   -2.1877491    3.5909506    49.441656    40.145734 
53204000    284.29552    327.97746     294.8029   -1.9298997    2.1429072    33.174559    40.138667 
53208000    265.64427    293.47365    296.41233   -1.3330725     2.273641   -2.9386848    40.136064 
53212000    272.58095    305.92731    292.64579   -1.5716075   0.95083076    13.281521    40.142511 
53216000    268.41271    313.30506    267.36239   -1.8549063    2.7294879    45.942673     40.13923 
53220000    273.02308     317.3534    280.31945   -1.4297333     3.244498     37.03395    40.143088 
53224000    273.47952    318.85804    292.77594   -2.2448787    2.3343127    26.082106     40.14381 
53228000    264.65719    317.11093    255.57462   -2.0503453    4.0570416    61.536307    40.145065 
53232000    282.22605    332.37626    289.64511   -3.3955172    3.2845007    42.731155    40.142413 
53236000    272.27134    324.70277    276.06126    -2.000256    3.5157717    48.641506    40.150776 
53240000    280.55285    353.46495    286.38565   -5.0069867    3.3501314    67.079303    40.148621 
53244000    263.76045    309.78415    260.65558   -2.6007199    5.2307547    49.128569    40.144612 
53248000    270.29133    326.52618    280.11604   -2.6611389    3.9890766    46.410139    40.139935 
53252000    270.01467    313.12876    292.19536   -1.7932534    3.0500489    20.933398    40.150928 
53256000      270.225    311.58189    291.02655   -2.2220819    1.9851323    20.555344    40.160155 
53260000    272.08137    325.01325    273.10992   -2.4183255    2.3999991    51.903339    40.164429 
53264000    276.74299    361.52859    272.49584   -4.0802735    3.2748607    89.032753    40.170461 
53268000     275.9454    327.52163    291.71483   -2.4619486    3.3320108    35.806798    40.166908 
53272000    266.44567    299.47652    288.76062   -1.8512929    3.3864678    10.715905    40.163239 
53276000    267.19791     307.6299    264.53059   -2.2044925    4.8105941    43.099315    40.169536 
53280000    262.66346    317.27841    257.91328   -3.5232248    5.0470928    59.365131    40.169368 
53284000    272.20711    333.52424    261.32214   -3.4631099    5.5109853    72.202095    40.178027 
53288000    262.28231    283.73363    285.77772   -2.0970299    4.1968688   -2.0440954    40.175426 
53292000    263.74196    314.58552    258.65457     -2.73634    5.4174522    55.930948    40.179158 
53296000    267.72757     301.4068    262.10934   -1.6309584    5.1834806    39.297457    40.180402 
53300000    273.95452    309.06401     297.9135  -0.98266422    3.5431882    11.150504    40.186082 
53304000    278.46483    331.65451    292.95953   -2.5863846    2.7672056    38.694978    40.180007 
53308000    275.29449     339.9044    284.91729   -3.9781172    3.3413352    54.987111    40.178708 
53312000    274.28926    329.99369    276.16616   -3.3897833    4.1010562    53.827531    40.174819 
53316000     281.3797    331.19227    281.14874   -3.3185954    3.8752983    50.043526     40.17971 
53320000    276.72033    328.18212    285.95247   -3.7446313    3.7140581    42.229644    40.174315 
53324000    273.08972    313.11512    281.77538   -2.3392439    5.1541134    31.339738    40.173507 
53328000    290.60772    333.95348    320.67238   -2.9870958    2.8727411    13.281095    40.161779 
53332000    265.71616    308.24397    268.48272   -1.6519973    4.0146251     39.76125    40.157355 
53336000    270.61207    319.33128    267.91483   -2.2016023     3.904512    51.416448    40.167206 
53340000    273.84555    343.29935    279.76199   -2.9184545    4.6215774     63.53736    40.165097 
53344000    282.13953    354.48222    292.42357   -4.9233294    4.0718785    62.058644    40.170135 
53348000    257.53617    320.04157    254.94517   -3.1028657    4.5828522    65.096403    40.169537 
53352000    268.30008    319.04842    281.43617   -3.1451971    3.4164643     37.61225    40.165493 
53356000    272.40759    300.79264    275.57032   -2.9076964    3.9800007    25.222323    40.165974 
53360000    263.98917    304.13641    277.27742   -4.0830197     3.923846    26.858988    40.164942 
53364000    275.97675    329.41299     290.4966    -4.072629    3.1558994    38.916384    40.158276 
53368000    273.35086    316.05217    294.13894   -3.7068242     3.237624     21.91323    40.154557 
53372000    279.65042     327.8305    292.68789   -4.4799977    3.4953409    35.142606    40.155529 
53376000    267.92293    297.89239    268.44825   -2.0082845    4.9191023    29.444138    40.148136 
53380000    273.21684     327.1834    263.88794   -3.8915241    4.9163311    63.295466    40.142148 
53384000     267.1564     314.5272    268.55295   -3.2110555    5.2653957    45.974249    40.136247 
53388000    275.19119    339.40477    294.85904   -5.2000039    3.8101269    44.545729    40.134818 
53392000     278.4855    331.95349    280.53733   -3.7908866    4.0032036    51.416164    40.137249 
53396000    274.71491    327.81329    286.08137   -2.9618105    5.3701257    41.731918    40.140611 
53400000    268.81794     321.1388    274.28327   -2.7963917    4.3274121    46.855534    40.143927 
53404000    273.62578    325.73758     281.0469   -3.9104514     4.002562    44.690674    40.142433 
53408000    274.31397    327.16941    300.84075   -3.4169705    3.9610507    26.328657    40.140234 
53412000    256.46395    298.43755     245.5852   -1.5760561    6.3901335    52.852352    40.135931 
53416000    273.05308    331.74445      283.124   -3.3769748     3.866646    48.620455     40.13786 
53420000    273.36566    327.82846    263.61825   -3.8483624    5.3291335    64.210213    40.135318 
53424000      271.914    323.09194    279.72573   -3.7074928    4.0214787    43.366211    40.130785 
53428000    266.89845    324.44758    260.97589   -3.7446341    4.2748592    63.471691    40.135574 
53432000    270.52157    305.66981    282.76716    -2.804734    3.0673425    22.902651     40.13006 
53436000    275.58745    331.01959     268.9386   -3.9713131    4.2230817    62.080995    40.135059 
53440000     267.2246    304.91246    291.72956   -2.6811741    3.6292416    13.182906    40.137126 
53444000    272.60749    325.86232    271.49488   -3.6029524    4.8538515    54.367438    40.140487 
53448000    278.72784    333.26178    280.28422   -3.0004705    4.0443083    52.977558    40.145327 
53452000    275.68248     325.7852    279.44815   -3.8388023    4.4037112     46.33705    40.152174 
53456000    278.50393    327.34398     289.3318   -3.2904745    3.5883724    38.012181    40.145882 
53460000    270.68411    305.22884    273.64746   -2.6178083     4.458168    31.581386    40.143307 
53464000    275.73209    337.77129    269.81139   -4.3728691    5.6087178    67.959905    40.146959 
53468000    261.36664    309.97983    262.20957   -2.6051853    6.0381814    47.770257    40.150311 
53472000    281.03351    346.41274    281.06403   -4.5657366    3.9649137    65.348706    40.157634 
53476000    275.78626    326.70804    282.19086   -3.9543805    4.1649846    44.517178    40.152105 
53480000    268.22386    315.76816    264.67175   -3.5473237    3.2079735    51.096411    40.151055 
53484000    268.23786    314.40646    269.75745   -3.2206658    4.1564826    44.649009    40.158904 
53488000    267.72795    292.60799    302.87922   -2.3867032    1.6771146   -10.271229    40.156189 
53492000    276.27093    307.96578    273.15688   -3.2028205    4.2379985    34.808908    40.151561 
53496000    280.63725    335.95934    281.65647   -4.3140306    3.3101973    54.302869    40.158239 
53500000    268.44184    299.43003    274.90399   -1.5286023    3.7311268    24.526046    40.158911 
53504000     271.7666    312.22589    271.43567    -3.504566    3.0109297    40.790221    40.161706 
53508000     277.3917     316.1545    290.27062   -3.4198131    1.7090487     25.88388    40.164638 
53512000    279.58071    331.93819    289.37095   -4.1523943    3.2902366    42.567242    40.163397 
53516000    274.53433    333.57285    269.77727   -4.9812745    3.6753075    63.795575     40.17509 
53520000    278.60262    320.24468    298.21502   -2.9016998    2.8570824    22.029661    40.175078 
53524000    271.78192    315.33481    265.37451   -3.8715061    5.1283612    49.960303       40.186 
53528000    274.83791    314.91746    283.49867    -2.320754    3.2829311    31.418798    40.182709 
53532000    273.33855    341.58737    273.75681   -4.9755625    3.7709512    67.830554    40.183708 
53536000    267.39243    307.35631    291.43045   -2.5422828    4.1144432    15.925858    40.187498 
53540000    281.40173    339.90168     292.7169   -4.5251672    3.4037489    47.184778    40.189324 
53544000    270.23819    326.66159      265.782   -3.5130696    5.3247626    60.879594    40.190315 
53548000    278.13015    335.26303    287.18928     -3.34583    3.5664551    48.073752    40.184381 
53552000    268.69787    323.65977    272.12931   -3.0651761    4.1064974    51.530461     40.18915 
53556000    271.21014    331.48759    270.25747    -4.798138    4.9743301    61.230115    40.190467 
53560000    272.07121    313.22016    277.48425   -3.3560553    3.4030191    35.735905    40.196005 
53564000    275.13877    334.27828    269.33833   -4.1249114     5.074359    64.939951    40.194353 
53568000    275.01686    320.02121    292.26916   -3.8956507    4.2395037    27.752046    40.194723 
53572000    270.18238    319.75147    276.98512    -4.492139    4.1811486    42.766345    40.184915 
53576000    273.65912    328.43617    280.66787   -3.3020739    4.6205349    47.768294    40.181314 
53580000    270.66768     314.3172    274.40853     -2.85402    4.1935463    39.908667     40.17508 
53584000     262.5622    307.82511    264.51522   -4.0450472     4.601012    43.309887    40.176754 
53588000     274.8347    347.32613    264.12126   -4.5123412    4.8759576    83.204867    40.181832 
53592000    263.92094     315.8578    267.19739   -3.5264894    4.6480771     48.66041    40.178215 
53596000    280.20815    325.72654    274.57288   -3.5353862    4.4806399    51.153664    40.183797 
53600000    277.47792    340.68811    263.45851   -5.0536441    4.7154438    77.229594    40.182315 
53604000    275.91848    314.95004    285.37062    -5.222204    3.8273039    29.579417    40.189117 
53608000    272.47764    321.71319    259.29129   -4.8177268    5.1919796    62.421892    40.197087 
53612000     271.2681    301.62321    272.03512   -4.4785546    4.1793702     29.58809    40.200655 
53616000    277.14015    310.93835    301.70184   -6.5087143    2.6156756    9.2365128    40.191451 
53620000    277.16335     321.5526    274.46779   -5.3834389    3.9432262    47.084809     40.18678 
53624000    280.60092     347.9504    274.38401   -6.1783984    4.1967927    73.566393    40.187991 
53628000    278.39909    318.40929    286.20406   -5.3892728    4.4910645    32.205235    40.187036 
53632000    282.77289    315.68881    283.26992   -4.7775511    4.6763765    32.418884    40.187796 
53636000     278.0394    313.11467    285.52677   -3.3972169    2.6706513    27.587901    40.182559 
53640000    277.84183    323.44529    282.24027   -4.9118364    4.6075048     41.20502    40.186441 
53644000    282.93414    354.25688     272.8953    -6.317848    4.3418778    81.361587    40.189123 
53648000    275.72674    306.90932     276.7355   -4.2296567    5.6094166     30.17382    40.189243 
53652000    276.35164    325.98754    271.51349   -4.4814505    4.8708596     54.47405    40.184673 
53656000    275.73609    322.91043     288.5893   -4.5058866    4.3340706    34.321131     40.18426 
53660000     276.9281    302.82052    300.83659   -3.8779058    2.8935265    1.9839256    40.180108 
53664000    279.22968     309.6338    300.45691   -3.3889049    3.2712721    9.1768968    40.181875 
53668000    277.12394    331.49759    272.95593   -5.1164177    4.3418165    58.541661     40.18899 
53672000    276.98457    321.05905     282.1797   -5.8062014    4.7229834    38.879345    40.178266 
53676000    276.69571    323.35932    285.79338   -4.4514898    4.4799613    37.565941    40.177586 
53680000    277.39936    326.63638     286.0061   -5.9778564    3.7415991    40.630286    40.174421 
53684000    276.87122    315.08953    280.93323   -5.7944761    3.9338768    34.156305     40.17045 
53688000    276.03237    329.86552    293.25131   -5.6634033    3.8804045     36.61421    40.166252 
53692000    271.23239    302.41788    288.38505   -3.5072231    2.7801841    14.032828    40.174587 
53696000    274.54377    321.47274    290.29395   -4.1718833    3.1464352    31.178788    40.170114 
53700000     273.8645    316.33296    270.93696   -4.3333278    3.8959039    45.396004    40.169031 
53704000    277.66437    339.00841    296.86585   -4.4445461    2.9250078    42.142564    40.166394 
53708000    278.17345    337.78028    277.11892   -5.2557603    4.2760162     60.66136    40.167813 
53712000    273.75058     306.1437    278.44271    -4.107988    4.6674632    27.700996    40.172789 
53716000    271.07672     307.8336    282.93309   -3.3972449    4.7172478    24.900508    40.173269 
53720000     272.5212    321.57158    286.47411   -5.1875205    4.9523332    35.097469    40.169957 
53724000    284.79151    359.08707    278.85958   -6.6392867    3.1865401    80.227492    40.174399 
53728000    272.15708    307.46416    281.92374   -3.4492298    3.8889242    25.540423    40.172306 
53732000    282.15578    329.28851    295.34788   -5.0056016    2.7984293    33.940637    40.174373 
53736000    266.90457    289.62568    293.86049   -3.2541817    3.3787073    -4.234804    40.173931 
53740000    272.16172     312.8468    283.65739   -3.1130741    3.1593004    29.189413    40.179494 
53744000    272.64205     317.0748    287.52255   -4.9637195    2.9852677    29.552248    40.177797 
53748000     281.8075    328.31394    311.92073   -5.8456694    3.0799458    16.393206     40.17846 
53752000    267.58263    316.64221    267.97933   -4.5776007    4.4554058    48.662878    40.180175 
53756000     279.7519    334.31574    286.89653   -5.8322277    2.8109092    47.419204    40.180513 
53760000    273.30537    323.37064     267.5599     -5.49677    5.0611516    55.810733     40.17666 
53764000    276.72225     316.3139    298.48024     -4.21091    2.4396395    17.833654     40.17342 
53768000    272.16204     318.6271    282.40711   -4.9852267    4.5096348    36.219992    40.172772 
53772000    274.80253    326.40427     266.9957   -4.9183728    4.6223904     59.40857    40.172664 
53776000    275.34667    320.06599    277.84863   -5.2564988    3.5739012    42.217367    40.170341 
53780000    277.75394    319.24748    284.55794   -5.5402955    3.1819434    34.689531    40.173157 
53784000    272.95483    315.29052    277.62022   -5.4358908    3.5404572    37.670304    40.173382 
53788000    280.92654    307.44854     286.8972   -5.5249953    3.1118477    20.551345    40.173649 
53792000    269.52716    318.84824    255.25567   -5.8878971    4.4526328    63.592573    40.176239 
53796000    285.55399    325.83324    299.76149   -5.4905341    1.9318677    26.071748     40.17489 
53800000    278.27131    324.28057    292.98451   -5.6930914    4.1300463    31.296053    40.174454 
53804000    274.85956    321.52299    282.51665   -4.8429999    4.9560757     39.00634    40.171905 
53808000    282.72922    339.26056    291.58895    -7.679469    3.4344646    47.671607    40.167202 
53812000    269.89427    304.97731    254.95489   -5.2163623    5.0085177    50.022426    40.167425 
53816000    266.06534    289.55881    266.63939   -3.8931168    4.8589543    22.919422    40.167006 
53820000     278.0588    326.20128    289.24134   -5.6085638    4.4029921    36.959935    40.164829 
53824000    285.03153    342.54996    276.76227   -7.2580781        4.513    65.787696    40.174287 
53828000    278.30138    324.37032    273.45539   -4.8307538    4.5493128    50.914926    40.173157 
53832000    278.01912    332.85088    272.91598   -5.1276756    5.3110952    59.934902    40.182528 
53836000    276.42182     319.6943    282.18213   -4.6573564    3.8931175    37.512164    40.181994 
53840000    275.11162    309.16018    280.96154   -3.3535503    4.6295303    28.198641    40.177534 
53844000    280.33147     319.5517    282.42613    -4.354414    3.8153882    37.125565    40.178945 
53848000    272.60146    309.46585    274.55116   -3.9329526    5.0743301    34.914687    40.181132 
53852000    280.70002    329.76283    289.24131   -5.4351385    4.4569445    40.521519     40.18543 
53856000    273.33342    313.74646    283.02182   -4.7717875    4.6632143    30.724641    40.181868 
53860000    271.78121    303.02063    285.14875   -3.9516496    4.7969685    17.871871     40.17935 
53864000    272.42806    324.64264    284.05043    -3.458872     5.006788    40.592214    40.177135 
53868000    267.57054     307.6411    281.87365    -4.211024    4.8893839    25.767449    40.176842 
53872000    281.11003    321.82217    288.14272   -4.7229973    4.8820055    33.679454    40.176553 
53876000     285.8227    317.19685    306.52814    -5.322939    3.4294363    10.668709    40.179182 
53880000    276.72452    302.17176     298.8611   -4.7673843    4.6325045    3.3106642    40.182722 
53884000    271.62386     303.5708    274.23098    -4.724363    5.4986523    29.339814    40.181337 
53888000    277.80948    322.07961    304.13795   -5.6142797    4.0821937     17.94166    40.187341 
53892000    268.95063    304.94883    255.07777   -4.2308402    4.2349644    49.871065    40.187886 
53896000    287.52195    338.78871    303.12038   -6.7330958    4.3090826    35.668325    40.194369 
53900000    283.05817    331.02242    292.99997   -6.3862877    5.1258247    38.022449    40.188399 
53904000    277.17135    316.90842    269.51792    -5.078366    4.8724572    47.390501    40.185748 
53908000    280.30496    329.13073    266.91827   -6.9630314    6.1342159    62.212461     40.17887 
53912000    270.20102    307.60609    280.45031   -5.5132316    5.4004595    27.155788    40.176384 
53916000    276.46671    335.04303     275.2645   -7.5166161    5.6685938    59.778525    40.174597 
53920000    270.11158     322.4577    276.42701   -6.3521202    5.3067326    46.030692    40.176759 
53924000    267.04561    302.73132    281.08765   -4.0370799    4.9983624    21.643672    40.173178 
53928000    286.75312     361.6474    284.98472   -6.6282712    3.7606606    76.662683    40.176803 
53932000     274.5279    332.20964    282.28956   -5.3970259    4.1911794    49.920086    40.177298 
53936000    276.03308    323.80824    276.22829   -5.7305383    5.1879309    47.579946     40.17791 
53940000    276.42337    311.06041    283.65997   -5.8997017    3.9179553     27.40044    40.168401 
53944000    280.45328    337.66631    301.74026   -7.1266514    3.2567587    35.926053    40.167723 
53948000    275.73088    318.41443     291.5746   -5.4972892    3.3737065    26.839826    40.168736 
53952000    272.46677    325.05593    280.00371   -5.7091716    3.3311986    45.052217    40.169415 
53956000    271.91069    340.01921    260.14936   -5.4277841     4.018037    79.869849    40.167625 
53960000    283.43657    343.41597    281.45398   -5.7204539    4.4034515    61.961994    40.167707 
53964000    273.33066    320.32084    280.13106   -4.2417264     4.756878    40.189782    40.167698 
53968000    276.11933    306.21328     288.4628   -3.7517505    3.7192387     17.75048    40.171596 
53972000    275.39757    324.17144    262.41356   -5.4611366    4.8147154    61.757882     40.17823 
53976000    274.59102    314.49269    284.57078   -5.0401507    4.6507884    29.921916    40.173119 
53980000    271.40118    316.19883    288.49242   -4.8380407    3.8730313     27.70641     40.17104 
53984000    267.78025    319.36813     259.2249   -5.0486468    6.1974269    60.143231    40.169942 
53988000     260.9816    298.29127    265.81372    -3.652716    5.6650729    32.477558    40.172868 
53992000    275.32751    310.11514    289.13352    -3.805838    4.8979266    20.981622    40.173365 
53996000    275.10359    306.07404    278.71946   -4.1584402    4.9656993    27.354584    40.171823 
54000000    280.98381    350.48782    277.31921   -6.5037303    5.3000729     73.16861    40.170489 
54004000     265.5015    305.66768    266.88671   -5.2596201    5.5590208    38.780972    40.172935 
54008000     273.1569     315.7359    282.21422   -4.7808691    3.9334884    33.521675    40.172012 
54012000    281.51132    341.97575     278.1607   -6.3187282    4.5166156     63.81505    40.171655 
54016000    272.89248    341.82193    274.81431   -5.5311321    4.4198991    67.007621     40.16941 
54020000    277.36367    311.24258    278.48378   -4.2690367    4.9786269    32.758805    40.172249 
54024000    278.32212    334.00948     294.1717   -4.6091038    3.3944422    39.837777    40.174928 
54028000    283.26611    350.14223    283.96512   -5.1751401    4.0413813    66.177116     40.17735 
54032000    275.12973    332.25266    276.79483   -5.5619918    4.4032243    55.457831    40.180392 
54036000    282.87535    332.18426    277.74288   -4.8144928    4.5524843     54.44138    40.178982 
54040000    269.81915    293.70694    280.58351   -2.7683782    4.5919068     13.12343    40.177707 
54044000    273.63501    334.91556    295.51881   -6.2384838     3.557783     39.39675    40.181102 
54048000    277.03723    314.97019    290.37945   -4.9422713    3.2592307     24.59074    40.178016 
54052000    268.79362    315.85006    274.79622   -4.2050441    4.6641668    41.053838    40.184136 
54056000    279.46044    329.81058    271.13502    -4.383849    5.0848478    58.675561    40.188728 
54060000    267.72625    313.68845    275.80162   -4.2414068    5.4391515    37.886829    40.183237 
54064000    276.67647    343.86413    273.28125   -5.1868526     5.263153    70.582877    40.183176 
54068000     268.7647    325.69991    278.86458   -3.9203929    5.6228724     46.83533    40.180066 
54072000    278.67416    321.15494    300.60511   -4.6559366    4.6008043    20.549831    40.180097 
54076000    272.70304    314.91859    277.52208   -4.8061104     5.639638    37.396512    40.183845 
54080000    265.71204    301.29757    278.76839   -4.1768484    5.3976639    22.529177    40.187646 
54084000    276.38901    341.43914    283.55331   -5.2876501    4.2244549    57.885821     40.19025 
54088000    279.57203    320.83654    294.98209   -5.4070856    3.2544869    25.854453    40.185818 
54092000    273.61404    318.85706    274.54891   -5.1623963     4.524176    44.308154    40.186833 
54096000    274.75561    301.32319    286.72691   -4.4915161    4.0060145     14.59628    40.191277 
54100000    267.05126    327.69853    259.14058   -5.9165205    4.1798372    68.557953    40.194486 
54104000    271.72617    305.84133    252.70826   -5.5150444    4.9541096    53.133075    40.192337 
54108000    281.30082    342.38654    277.44649    -6.707522    3.2500223    64.940041    40.192773 
54112000    274.23823    312.23003    282.61325   -4.2786912    4.8003229    29.616777    40.195811 
54116000    277.08609    317.40119    292.20269   -4.4134521    4.0919615    25.198503    40.202682 
54120000     275.3306    316.27452    269.60275   -4.6659266    5.4611727    46.671768    40.205362 
54124000    278.16355    318.36754    286.84516   -4.6904199    4.6978101    31.522381    40.205146 
54128000    278.57671    327.50681    274.13005   -4.8580383    4.5648194    53.376766    40.205488 
54132000    276.36081    334.66258    268.05445   -5.2327759    5.6683611    66.608133    40.204991 
54136000    270.64569    316.02353    272.30212   -5.7994188    5.3836072    43.721405    40.206387 
54140000    265.98123    302.01282    280.53808   -3.6948269    4.6852575    21.474739     40.19948 
54144000    270.11362    321.72634    268.02766   -5.4522821    5.4676045    53.698683    40.202528 
54148000    281.62034    333.69764    287.83016   -5.0025709    4.7377497    45.867486    40.203873 
54152000    278.18064    330.01548    282.53861   -4.9515944    3.8996447     47.47687    40.208202 
54156000    272.17815    325.23288    272.36926   -4.6949281    5.7427873    52.863617     40.21505 
54160000    272.19014    301.00439     288.1354   -4.7722093    4.5773891    12.868986    40.214725 
54164000    269.50296    312.76352    275.03067   -6.0717836    5.8434058    37.732853    40.213486 
54168000    271.80215    328.50916    272.59624   -7.2621715    5.9234995     55.91292    40.210699 
54172000    278.30971    326.72722    284.96393   -6.1140798    4.1544522    41.763292    40.212016 
54176000    276.68237    326.71125    268.89706    -6.388948     5.421026    57.814188    40.208644 
54180000    276.75343    329.23307    289.03392   -5.0680307    5.0644117    40.199151      40.2057 
54184000    278.50004     337.9166    289.67353   -5.8374498    5.0604058    48.243068    40.206468 
54188000    268.68747     331.1564    273.87601   -6.0620893    5.2903562    57.280389    40.209583 
54192000      270.102    314.31864     285.1722   -5.6376765    5.4131212     29.14644    40.209175 
54196000    261.97864    314.36198    253.53317   -5.0965967    6.2215642    60.828811    40.207401 
54200000    278.26622    326.45363    313.48931   -5.5776188    4.0002644    12.964326    40.199616 
54204000     277.1943    322.00415    306.15103   -5.8791143    4.0820428    15.853125    40.194865 
54208000    268.60686    321.72645    266.70584    -5.705436    6.3438874    55.020602    40.198438 
54212000    272.88194    319.59659    280.36405   -6.1260195    6.0586646    39.232544    40.193548 
54216000    266.92478    316.58382    270.67724   -4.5153965    6.1315739    45.906578    40.189706 
54220000    277.37903    318.74865    299.59666   -4.5996106    4.8856961    19.151985     40.18501 
54224000    276.32076    346.37097    266.14738    -5.455202     5.953964    80.223585    40.185942 
54228000    259.12888    306.70179    243.16046   -4.0305301    7.1634066     63.54133    40.181737 
54232000    275.65683    314.03798    310.03242   -4.5220574    5.0384876    4.0055551    40.177549 
54236000    272.69293    314.51152     285.7079   -3.7127275    6.2479598    28.803613    40.171472 
54240000    278.39261    337.38069    286.57647   -4.3050046    6.4371298    50.804219    40.176465 
54244000     273.2853    318.33468    287.48664   -3.9734931    5.2146759    30.848043    40.176179 
54248000     275.7028    311.90415    297.57941   -4.6601514    4.9688894    14.324744    40.172704 
54252000    265.57334    295.80114    284.78608   -2.2459666    5.8793215    11.015064    40.172673 
54256000    264.99877    300.31048    277.59032    -2.352902    5.8318706    22.720157    40.169498 
54260000      265.086    307.54368    262.31995   -3.2528472    7.1029283    45.223723    40.167388 
54264000    269.63151    325.49859    277.09311   -5.0130571    5.9606649     48.40548    40.170386 
54268000    272.19719    311.97781    284.74845   -5.1971804    5.3579624    27.229356    40.163211 
54272000    266.16982    311.10644    259.03476   -5.1870338    6.5777486    52.071681    40.158607 
54276000    267.43488    305.66595    274.63503   -4.7466703    5.4531224    31.030919    40.152807 
54280000    266.68687    307.79504    286.67614   -4.9778343    5.2129616    21.118905    40.157487 
54284000    280.20192    336.41549    301.59817   -5.4868367    4.4697815    34.817319     40.15829 
54288000    259.29921    308.46734    253.74023   -4.5491195    6.4722438    54.727109    40.156292 
54292000     276.0005    341.70899    283.35112   -6.0159999    5.5823815    58.357879    40.162766 
54296000    270.11392    310.97061    288.82922   -4.9383647    4.9417491    22.141383    40.166295 
54300000    269.08411    323.53682    283.20455   -4.2365743    5.6737659    40.332272    40.166956 
54304000    257.61523    282.48477    268.62639   -1.3462957    6.0025251    13.858388    40.167457 
54308000    269.19003     296.7145    283.94224   -3.4799786    5.0452317    12.772262    40.160248 
54312000    272.53179    318.64469    270.08452   -4.4672235    6.3740683    48.560177    40.158241 
54316000    273.81489     323.1953    304.59484   -5.4382625    4.2729689    18.600456    40.158511 
54320000    273.80657    301.16112    283.53214   -2.9675246    5.4017924    17.628973    40.153041 
54324000    271.99328     313.0889    282.66486   -4.8577945    4.8882141     30.42404    40.155057 
54328000    267.91999    294.92337    288.64774   -3.0442309    5.9297483    6.2756312    40.146934 
54332000    273.46759     330.1035    284.30175   -5.7980644    5.3525372    45.801747    40.147971 
54336000    274.26062    333.80504    252.40644   -4.5549678    7.7425658    81.398605    40.151666 
54340000    272.01273    309.58121    284.43914   -4.1248808    6.0036367    25.142074    40.149858 
54344000    270.06266    310.90537    283.42887   -4.3547551    4.3322606    27.476493      40.1488 
54348000     263.1154    286.34626    268.32572   -4.1583353    5.1606486    18.020537    40.154886 
54352000    272.34303    329.34693    265.61383   -5.2446229    6.1664277    63.733097    40.152848 
54356000     270.5945    328.08556    257.81179    -5.661965     6.392551     70.27377    40.150852 
54360000    267.77695    318.87466    264.17751   -6.0812369    5.8893311     54.69715    40.150196 
54364000    273.56573    322.06802    298.86031   -4.7918157    4.0804162    23.207718    40.150186 
54368000    278.25716    311.73374    294.73489    -4.377842    4.7873974    16.998851    40.149592 
54372000    274.14456     329.1879    286.52868   -5.5481215     4.755353    42.659219    40.146382 
54376000    278.40399    321.19895     296.5929   -4.6550536    4.6145178    24.606055    40.153149 
54380000    273.60207    327.91174    282.76155      -5.6793    5.0924174    45.150192     40.15257 
54384000    277.11771    322.97528    281.87324   -5.0254766    5.1812261    41.102032    40.157041 
54388000    277.94729    309.80559    285.87254   -4.0216076    4.2199703     23.93305    40.149776 
54392000    275.08108     325.3751    288.79525   -5.6315473    4.9512035    36.579848    40.149548 
54396000    280.81673    355.93779    277.87297   -7.1639589    5.2688019    78.064819    40.149732 
54400000    276.31425    334.89405    282.91765   -4.7019503    4.6569089    51.976394    40.148113 
54404000    267.84622    315.92728    276.69401   -4.6183903    4.7285747    39.233267    40.145415 
54408000    269.89734    312.57714    276.86584   -4.4721743    5.8163298    35.711299    40.140522 
54412000    274.93716    344.49972    287.97984   -5.4374296    4.9899359    56.519882    40.135191 
54416000    278.72928     336.9547    300.45898   -5.1998876    4.1334646    36.495716    40.137138 
54420000     267.6108    310.74581    283.53504   -4.8856908    6.4649989    27.210772    40.145023 
54424000    276.72703    326.41349    295.36608   -5.1774317    5.4550714    31.047407     40.14261 
54428000    281.52306    336.71959    306.36242    -5.149628    4.1475276    30.357169    40.136701 
54432000    262.46384    329.62154    266.42256   -4.5007958    6.3472236    63.198981    40.136286 
54436000    268.01178    299.81443    283.77664   -4.0112684    5.1011396    16.037798    40.136428 
54440000    277.14364    319.40526     271.5921   -3.7990676    5.1547797     47.81316    40.139606 
54444000    277.19999    336.89847    283.61481   -5.5966882    4.4153231    53.283654    40.144645 
54448000    274.74042    342.68144    283.69776   -5.4738534     5.393309    58.983682    40.148204 
54452000    269.54729    327.57712    264.06054   -4.1952918    5.4038948    63.516583    40.151345 
54456000    272.23782    321.45772    269.15468   -4.1141066    5.5045867    52.303046    40.154279 
54460000    273.25406    329.99994    282.02384   -5.3344718    6.1951607    47.976103    40.154411 
54464000    275.79379    319.94463     280.5632   -4.3291646    5.6633705    39.381431    40.153959 
54468000    281.65879    340.05945    305.02943   -8.3361583    4.6055443    35.030012    40.153262 
54472000    270.08083    302.68708    285.65891   -5.0093056    6.0631061     17.02817    40.153623 
54476000    281.23459    335.40898     300.3466   -5.3936137    5.4626482    35.062379    40.155802 
54480000    270.99498    327.15738    284.87434   -2.7948484    6.8577639    42.283041    40.146058 
54484000    279.53483    328.73155    286.21233   -4.6252262      6.33534    42.519212    40.142274 
54488000    275.65763    331.80936      278.145   -4.1499461    6.8704469    53.664353    40.142922 
54492000    276.80059    332.38403    289.06786   -5.9967571    6.6466376    43.316176    40.149244 
54496000    270.44571    318.15304    303.57879   -4.1829717    6.4246448    14.574254    40.149957 
54500000    271.99169    322.82272     283.4404   -4.4240029    7.2879969    39.382327     40.14712 
54504000    265.62119    309.56654    277.68338   -2.9122139    6.8362855    31.883154    40.139919 
54508000    266.66209    321.03446    273.47204   -4.0525684     6.724407    47.562411    40.136639 
54512000    268.88684    316.98402    274.25095   -4.2722938    6.6035659    42.733073    40.140038 
54516000    269.77604    316.36634    283.74123   -5.2117883     5.945319    32.625113    40.138817 
54520000    268.09603    324.20387    287.98703   -5.1434184     6.772697    36.216834     40.14019 
54524000    267.82334    315.80768    283.57009   -4.7484957    6.8076168    32.237588    40.136926 
54528000    261.77605    300.14955    270.19461   -4.0968527    7.7908279    29.954946    40.134381 
54532000    268.76097    322.05981     287.8752   -6.0224672     6.024747    34.184613    40.129304 
54536000    273.99282    339.44047    280.77035   -7.5132194    6.6166869    58.670124     40.13769 
54540000    260.51054    308.59483    270.96193   -6.2756873    6.9084572    37.632899    40.136463 
54544000    274.33485     343.2759    269.06779   -8.1231095     7.322126    74.208117    40.139176 
54548000    266.64478     320.4547    287.69831   -6.4965839     6.864567    32.756389    40.133826 
54552000    275.25721    337.83291    273.59628   -6.8018891    7.0737672    64.236628    40.134458 
54556000    269.60069    324.40013    276.90035   -5.9894763     6.779664    47.499775    40.136655 
54560000     273.3658    339.55893     265.4498   -5.7141403    7.4611308    74.109128    40.132823 
54564000    273.99331    333.70831    262.80239   -5.0913452    7.0116095    70.905925    40.136291 
54568000    267.80397     330.3916    268.81719   -4.5725457    7.8748277    61.574416    40.133482 
54572000    269.67368    327.81801    275.57615   -5.4574053    7.1475027    52.241857    40.126934 
54576000    263.48581    322.07311    260.56376   -5.8846502    8.1699141    61.509356    40.132686 
54580000    275.02584    337.28165    285.35216   -5.6366961    6.0960676     51.92949    40.134766 
54584000    267.82389     311.6171    276.85552   -5.1298122    6.7459158    34.761584    40.140477 
54588000     256.8939    297.74332    271.35098   -4.9692236    7.8742155    26.392337    40.141849 
54592000    270.79582    319.36444    290.69476   -5.7475068    6.6163166    28.669684    40.135565 
54596000    265.55463    318.65357    271.21236   -6.2842452    6.9672606    47.441205    40.137995 
54600000    269.96485    326.17737    273.04959   -5.9692694    6.9786341    53.127784    40.142387 
54604000    264.99335    313.61524    265.14611   -5.2841012      6.71448    48.469129    40.142115 
54608000    267.96389    307.56651    283.83852   -5.1732738    6.2195694    23.727991      40.1405 
54612000    283.43801    343.58547    302.81091   -6.8952895     4.989332    40.774564     40.14208 
54616000    279.97191    348.77972    285.48743   -7.5374426    6.0532381     63.29229    40.143442 
54620000    271.79066     305.0122    275.28335   -4.5439724    6.5859116    29.728854    40.148483 
54624000    277.47574    317.50215    313.45208   -5.7083154      4.87013    4.0500643     40.14951 
54628000     271.2788     310.2969    276.86939   -5.1216367    5.9644717     33.42751    40.145307 
54632000    289.24904     372.5913    294.02848   -8.7785695    6.1573724     78.56282    40.146164 
54636000    270.95922    309.26765    278.84053   -5.0469669    5.9076672    30.427115    40.140636 
54640000    285.99586    353.31945    293.02716   -6.8907249    6.1947746    60.292288    40.143153 
54644000    272.80717    341.05128    269.21484    -6.241309    7.4016519    71.836437    40.144089 
54648000    279.87517    315.32398    306.12589   -5.6928969    5.2240559    9.1980871    40.145901 
54652000    273.85591    337.52178    270.89468   -7.0329336    7.0933952      66.6271    40.148064 
54656000    271.37208    329.49285    292.94862   -7.1042694    5.9756205    36.544231    40.150396 
54660000    269.83461    317.25528    273.05321    -6.152717    5.6338088    44.202066    40.154652 
54664000    267.74379    317.97154    272.84342   -5.6878359    6.5541633    45.128116    40.163122 
54668000    272.25553    326.73006    266.49508   -5.4666759    7.0308077    60.234981    40.163969 
54672000    271.91147    318.95703    279.24664   -6.5319461    5.2224882    39.710391     40.16699 
54676000    272.84376    329.50026    271.57054   -4.8430679     7.665806    57.929718    40.164319 
54680000    279.95118    324.42585    300.35707   -5.1089316    5.9373231    24.068781    40.164545 
54684000    263.51061    313.49832    273.29861   -4.1063497    6.1664171    40.199711    40.162667 
54688000    268.16279    317.05498    269.08709   -5.0641817    7.2168472    47.967882    40.163847 
54692000    273.18882    352.61485    286.92831    -7.133079    6.9155029    65.686533    40.159148 
54696000    270.62919    331.74711    274.73539   -6.5813326    6.5764264    57.011721    40.157261 
54700000    263.00576    307.02434    279.05669   -4.3820424    6.8718338     27.96765    40.161021 
54704000    273.09458    323.99548    289.20205   -5.0236518     5.903944    34.793433    40.160019 
54708000    265.01776    301.93753    282.21389   -4.3861151    6.9569722    19.723639    40.153126 
54712000    273.01433    338.53472    267.50438   -6.3874134    7.1780165    71.030337    40.149635 
54716000    269.69902    342.84726    264.26982   -5.2662438    7.1064616    78.577443    40.146468 
54720000    270.82096     322.1913    273.21825    -4.416162    6.9692997    48.973046     40.14825 
54724000    265.97759    321.61433    281.00453   -5.1540254    6.7980184    40.609802      40.1473 
54728000    262.90432    312.60229    283.17718   -5.1315517    6.2204101    29.425114    40.147828 
54732000    265.39721    275.41832     305.2103   -2.6433676    4.6587217   -29.791978    40.146531 
54736000    268.38613    318.60978    268.24237   -4.4262887    6.7227206    50.367407    40.148715 
54740000     275.1468    321.10311    284.84014   -4.7747277    4.9084917    36.262978    40.148299 
54744000    272.52924    319.95154    285.10329   -3.4478534    5.5340044    34.848248    40.144792 
54748000    265.43524    303.42335    255.28946   -3.7750976    7.0310228    48.133891    40.143696 
54752000    272.80585     338.8292    267.74299   -5.1132302    6.1586588    71.086211    40.141044 
54756000    270.10979    323.51407    280.34502    -5.526263    5.2495852    43.169052    40.142475 
54760000    271.94943    317.56632    289.75362    -4.889577    5.8025396    27.812702     40.14182 
54764000    267.30682    312.10781    285.37739   -3.5963863    5.9534467    26.730425    40.143991 
54768000    268.03895    327.60947    269.90507   -5.3549657    6.5012141    57.704397    40.142595 
54772000    279.38841    306.56431    324.46062   -4.4200546    3.8872714   -17.896304    40.143672 
54776000    280.30046    334.10069    271.01985   -5.2028542    6.4987911    63.080844    40.142994 
54780000    276.02406    336.30917    272.83165   -6.8415572    5.5180711    63.477512    40.139972 
54784000    272.94591     329.3156    277.15337   -5.8773656    5.7675435    52.162237    40.143126 
54788000    271.39818    320.31205     277.6158   -5.5698151     5.774547    42.696253    40.139438 
54792000    283.87513    325.11081    281.07596   -5.4809729    5.1727586     44.03485    40.135313 
54796000    275.76968    321.09541     288.9801   -6.0401989     5.272799    32.115305    40.136157 
54800000    264.37916    303.44942    264.87358   -6.0995041    6.3163218    38.575838    40.136294 
54804000      268.872    319.25686    297.59075   -5.9480903    5.3266382    21.666102    40.132491 
54808000    269.05931     313.7615    275.48174   -5.7140612    6.1460373    38.279762    40.132574 
54812000    267.53322    337.09248     266.6496   -6.4864806     6.719896    70.442879    40.135255 
54816000    273.96074    334.42918     281.8636   -5.5686857    4.7837341    52.565576    40.137537 
54820000    270.67078    312.13419    294.48661    -5.312301    5.9988062    17.647584    40.139134 
54824000    267.57787    320.09196    275.80278   -4.8651874    6.9196731    44.289182    40.137998 
54828000    273.06933    319.68939    295.39075   -5.2932091    6.3436772    24.298638    40.143126 
54832000    272.03368    325.67775    278.76682   -6.0144102    7.4058188    46.910934    40.148446 
54836000     269.1908    325.38237    277.44901   -6.8054185    8.1606706    47.933356    40.146061 
54840000    268.13093    309.40203    289.90196   -4.6203769    6.9038517    19.500073     40.14305 
54844000    272.55354    326.72754    278.60238   -5.1175154    7.5216213    48.125155    40.143138 
54848000    264.52657    297.51333    280.85776   -2.6799058    6.0437103     16.65557    40.140005 
54852000    277.05283    353.22614    276.07854   -6.1884549    5.7094884      77.1476    40.137214 
54856000    267.01454    325.27575    281.87198   -5.0420734    5.7710343    43.403775     40.13955 
54860000    263.73115    305.33889    270.73885   -6.0636701    5.8623297    34.600039    40.138777 
54864000     272.1489      317.682    279.95062   -6.0810167    6.9673855    37.731379    40.147225 
54868000    260.82202     328.6575    257.51921   -5.8781763    7.1217779    71.138289    40.144909 
54872000    264.71633    325.58043    280.65195   -6.0816436    7.1196964    44.928479     40.14541 
54876000    260.66556    302.27426    274.42905   -5.7442275    6.5649306    27.845215    40.140015 
54880000    262.49618    312.33429    280.03163   -4.4018701     6.747891    32.302654    40.139762 
54884000    266.58606    314.06808    272.66445   -5.8661945     7.940291    41.403639    40.136319 
54888000    262.21324    307.92549    277.22278   -6.2150829     7.515034    30.702714     40.14016 
54892000    276.46852    338.89537    274.80055   -6.8954251    7.7469667    64.094825    40.142587 
54896000    270.72439    306.49686    288.00888   -5.8546342    6.5888317    18.487976     40.14384 
54900000    266.47899    317.88013    274.09309   -5.9449932    7.4310338     43.78704    40.141953 
54904000    275.83318       323.48    292.29933   -7.0399404    5.7930705    31.180679    40.143137 
54908000    273.10217    317.68476    269.74954   -5.6584214    6.8041034    47.935228    40.147572 
54912000    267.30531    288.50702    297.63834   -4.1444062    6.2204622   -9.1313171    40.148415 
54916000    264.36362    306.31724    273.23676   -7.2666447    6.4492078    33.080475    40.151382 
54920000    277.17489    323.48942    271.59174   -6.0348242    6.2695794    51.897677    40.147305 
54924000    265.63049    295.39933    278.04713    -4.676406    6.5735497    17.352203    40.143528 
54928000    277.73633      332.992    288.36512   -6.5298564    6.2976629    44.626874     40.14207 
54932000    264.49182    325.31652    266.28386   -7.9035922    7.4178552    59.032665    40.137838 
54936000    274.11207    316.39963    308.19382   -6.5726756    6.4254209    8.2058101    40.139944 
54940000    270.75858    310.13331    283.32105   -6.6464632    6.5184827    26.812257    40.142352 
54944000    274.43288    341.90723    276.94186   -8.0915858     7.292072    64.965377    40.141714 
54948000    276.36048    344.40348    284.45612   -8.5029709    5.6816808     59.94736    40.143797 
54952000    272.85559    317.86918    286.05753    -6.720124    6.2673811    31.811655    40.140695 
54956000     272.0187     324.6009    279.43815   -7.0578184    6.2236586    45.162745    40.143665 
54960000    271.16394    324.48207    283.14791   -6.7057547    6.1382334    41.334157     40.14319 
54964000    262.16934    298.58961    278.69335   -5.0669528    7.6658871     19.89626    40.139704 
54968000    283.53861    342.42001    304.22866    -7.477364    6.3419221     38.19135    40.137985 
54972000    270.18504    323.88511    283.62642   -6.7412702    7.1306384    40.258691    40.136759 
54976000    285.39283    327.08907    315.73343   -7.4394748    5.9119121    11.355639    40.136647 
54980000    262.33918    305.56543    269.59959   -5.7410805    7.5924435    35.965846    40.133061 
54984000    275.31985    336.61589    265.86709    -8.059858    7.5389458    70.748796    40.134527 
54988000    285.19702    333.82951    307.48879   -7.3400198    5.7303756    26.340716    40.131298 
54992000    275.04013    309.40556    284.53515   -7.2627295    6.5350576    24.870408    40.129602 
54996000    273.24048    336.31793    275.62517    -7.386707    7.1124569    60.692758    40.134775 
55000000    277.94942    332.35176    296.10569   -6.7132902    5.4391677    36.246075    40.129506 
55004000    274.20308    306.97017    277.13326   -6.4496756    7.4311255    29.836904    40.128853 
55008000    279.13742    317.90487    291.86214   -7.4534199     5.712204    26.042736    40.128907 
55012000     272.3775    326.99503    283.67451   -7.0140576    6.3757798     43.32052    40.121543 
55016000    278.64713    339.00305    279.42733   -8.0805606     6.484828    59.575726    40.122694 
55020000    278.40384    307.88833    300.86752   -5.9961371    6.9566161    7.0208027    40.127421 
55024000    275.94789    342.57044    268.93899   -8.2575183    7.4352664    73.631454    40.123395 
55028000     280.4135    322.13712    290.22468   -8.1568289     7.356811    31.912434    40.129489 
55032000    270.35413    327.95384    273.43211   -8.6131055    6.9850769    54.521733    40.127137 
55036000    278.22531    348.07565     260.6628   -9.4590986    8.2393665    87.412848    40.132613 
55040000     268.2383     323.4987    278.54638   -8.1908346    8.5584418    44.952317    40.132909 
55044000     269.8627     316.2907    253.48047    -6.876354    9.2614835    62.810224    40.138617 
55048000    280.08478    323.72745    294.42303   -6.0203515    6.5245142     29.30442    40.134342 
55052000    279.62435    327.04124    287.02403   -7.2032561    7.2539092     40.01721    40.136071 
55056000    283.73576    317.70413    294.05071   -6.2524895    5.9612553    23.653423    40.135406 
55060000    268.82567    304.16329    289.63499   -6.0352459      6.46511    14.528303    40.136211 
55064000    276.40542     338.9727    263.92845   -8.0774417    7.3849091    75.044246    40.131357 
55068000    273.94013    327.19779     277.9514   -7.0943349    7.1512224    49.246393    40.123992 
55072000    276.00044    334.81423    276.55452   -7.6616796    7.8469709    58.259713    40.122141 
55076000      272.923    324.50445    279.63835    -7.713916    7.1860199    44.866094    40.120067 
55080000    270.69315    338.43711    260.93607   -8.3018877    7.2087974    77.501038    40.124881 
55084000    272.37547    335.27579     267.7465   -8.2768425    7.2315675    67.529294    40.119298 
55088000     288.3877    364.29388    282.70977   -9.9532931     5.555418    81.584115     40.11868 
55092000    274.34217    337.24094    260.43341   -8.2745864    6.8484919    76.807528    40.116788 
55096000    281.96929    327.91529    289.31282   -7.3351518    6.1992304    38.602464    40.114077 
55100000    276.68835    321.42333    298.34428   -7.6324199    5.6431723     23.07905    40.112161 
55104000    271.03444    314.86694    286.58089   -6.5453024    6.3201438    28.286056    40.111733 
55108000    279.56527     332.2141    296.75252     -7.16933     6.216907    35.461576    40.109022 
55112000    272.02066    313.40649    264.01482   -7.6923196    7.8219128    49.391667    40.110041 
55116000    267.68443    297.87615    278.95293   -6.0957154    6.4932376    18.923221    40.110648 
55120000    274.77322    329.91601    269.27785   -8.1414216    6.6954228     60.63816    40.109897 
55124000    279.36707    320.94937    276.96401   -7.6264807    7.3447969    43.985355    40.109543 
55128000    271.03383    327.92626    264.33318    -9.076263    8.4991748    63.593085    40.110043 
55132000     268.3949    296.57669    265.94223   -7.7343699    8.0903011    30.634456     40.11334 
55136000    278.67654    332.89069    293.25749   -7.9395539    7.4587351    39.633199    40.110404 
55140000    280.49883    310.76566    278.27939   -8.2341997    7.0459646    32.486265    40.105607 
55144000    274.42763    318.98156    262.86197   -8.7831383     7.824638    56.119588    40.112266 
55148000    278.47568    313.22265    296.08114    -8.865185    6.5062974    17.141516    40.118742 
55152000    276.02054    323.83287    277.90336   -10.315979    7.6486798    45.929505    40.120741 
55156000    282.64576    313.03104    302.72664   -8.6973988     6.712756    10.304391    40.117631 
55160000    276.62401    309.92088    287.88521   -7.7233397    7.1390938    22.035668    40.114889 
55164000    274.47555     314.2738    278.68939   -8.3939949    7.1811558    35.584407    40.116453 
55168000    275.86698    318.53347    300.91372   -7.3365762    6.5169844    17.619753    40.119052 
55172000    282.51664    332.32753      274.968   -7.9468059     7.805679    57.359529    40.117093 
55176000    283.15288    337.11929    292.59651   -7.8691237    6.6274263    44.522775    40.117794 
55180000    272.85027    301.21866    287.86319   -7.3176526    6.9354376    13.355466    40.116905 
55184000    279.31381    337.52593    288.89389   -7.7563754    6.9591339    48.632043    40.117548 
55188000    286.30879    321.90455    282.43608   -8.4967653    6.3339881    39.468468    40.123708 
55192000    285.93574    340.85193    279.71613    -9.424355    7.0880433    61.135791    40.122105 
55196000    281.50144    329.78113    277.37102   -8.3553964    7.0293237    52.410114    40.125937 
55200000    271.04911    315.14746    270.19108    -7.354143    7.6796839    44.956383    40.124269 
55204000    274.56108     329.6823    268.44279   -8.3427161    7.6377577    61.239511    40.120709 
55208000    272.56338    313.24578    279.68847   -7.7261371    7.2259195    33.557319    40.119309 
55212000    278.99315      321.048    278.04882   -9.4933831    7.9779035    42.999182    40.121629 
55216000     279.9678     299.0099    296.41237   -8.1206671    6.3879695     2.597529    40.116636 
55220000     274.3492    308.16703    274.88219   -7.9348687    7.2240349    33.284841    40.114373 
55224000    285.65924    317.95959    294.95744   -8.4376415    7.0115002     23.00215    40.113721 
55228000    272.79109    317.58577    285.93492   -7.7093508    7.3535445    31.650845    40.112617 
55232000    279.69978    327.35261    269.25935   -7.8031489    7.2798699    58.093265    40.117566 
55236000    277.60297    335.95298     287.1861   -9.6503638    6.9568844    48.766875    40.117875 
55240000    276.12388    314.01925    279.17857   -8.6389005    7.0937816    34.840681    40.117887 
55244000    283.87138    325.27992    272.89075   -9.1898553    7.1076799    52.389166    40.117129 
55248000    280.55338    316.48939    272.17823   -8.4019459     6.991723    44.311163    40.120137 
55252000    279.84481    339.45601    275.07561   -8.2042911    7.4403038    64.380402    40.121847 
55256000    271.31145    334.20194    251.39418   -9.9064774    8.9713755    82.807762     40.12236 
55260000    273.89145    300.87776    278.68221   -8.0892208    7.8009761    22.195552    40.123384 
55264000     273.9842    306.49244    295.05423   -8.1733011    5.9109872    11.438202    40.125423 
55268000    279.55249    319.12609    300.58859   -10.064155    7.2422014    18.537499    40.119604 
55272000    272.69666     315.8129    279.27218   -7.8776377    8.2251981    36.540722    40.119554 
55276000    293.71411      349.374    305.70466   -10.940216    6.0455172     43.66934    40.120423 
55280000     281.8301    330.44847    279.28135   -10.163305     7.477622    51.167121    40.123945 
55284000    281.87207     324.3182     301.7864   -10.058244    7.2709778    22.531792    40.122056 
55288000    274.59717    305.19343    276.32216   -7.9489778     7.912756    28.871273    40.123635 
55292000     287.2757     329.3877    299.43309   -9.4265786    6.6674864    29.954612     40.11984 
55296000    279.06585    319.83306    284.93094   -9.2641976    7.7739207    34.902114    40.123888 
55300000      279.498    320.60082    292.40832   -9.1115892    7.0070227    28.192502    40.122077 
55304000    281.17249    307.37798    290.08961   -10.482787    6.8686953    17.288371    40.121439 
55308000      276.108    326.70263    277.53777    -10.65511    6.8176234    49.164861    40.118294 
55312000     279.6837    322.17206    293.84683   -9.9680263    6.8951451    28.325223    40.119978 
55316000    265.24047     299.6164    253.16523   -7.7846699    8.1548587    46.451165    40.119453 
55320000    273.40543    303.95002    278.31512   -8.2934525    7.3063832    25.634897    40.120719 
55324000    278.11257    327.16372    257.80981    -8.697233    7.5515649    69.353909    40.120526 
55328000    279.31626    334.30365    261.72711   -9.9258899    7.8409748    72.576537    40.121843 
55332000    277.32369    324.98857    288.16297   -8.4497031    7.8193247    36.825601    40.125958 
55336000     263.3564    307.15597     248.6832   -7.9787151    9.2395374    58.472769    40.128957 
55340000    284.08696    334.06483    292.91469   -9.6152641    8.0315612    41.150143    40.130253 
55344000    283.19767    323.09291     289.0219   -9.4826418    7.3133716     34.07101    40.129559 
55348000     283.2512    311.81325    297.74857   -8.8949135    6.6621807    14.064685    40.123418 
55352000    279.08921    329.38695    262.43471   -10.567057    8.4799635    66.952237    40.126451 
55356000    278.09789    313.43423    289.08708   -8.9568203    7.0105508    24.347148    40.125173 
55360000    288.31287    333.41359     300.4348   -9.9418734    6.4638024    32.978792    40.125329 
55364000      277.994    319.45432    280.62175   -9.9271103    8.4815118    38.832573    40.128172 
55368000     273.0706    332.56121    268.76821    -10.81386    9.5810304    63.792991    40.130568 
55372000    273.30541    338.40498    286.23339   -11.161533    8.1765283    52.171593    40.131814 
55376000    273.94443    325.47446     285.1299   -10.234494     7.871219    40.344558      40.1315 
55380000    278.94723    336.42938    276.52104   -10.235552    8.9786312    59.908341    40.133173 
55384000      275.707    331.03942    280.53645   -9.0148749    9.4424009    50.502967    40.132114 
55388000    280.22513    332.33541    285.27665   -10.210689    7.8002641    47.058757    40.128924 
55392000    274.67351    291.96269    291.73711     -8.10911    7.3669481   0.22557734    40.130463 
55396000    277.80655    337.40308     275.1969   -9.6536371    7.9287999    62.206181    40.132036 
55400000    266.76081    285.64759    282.13119   -6.8773933    7.7411186    3.5164089    40.129474 
55404000    279.84039     304.7686    292.25005   -7.8901406    7.5457467    12.518552    40.123194 
55408000    276.04074    334.67056     282.6025   -8.3594641    8.6880038    52.068066    40.123429 
55412000    273.52415     297.0432    295.85103   -8.5128162    8.5766192     1.192167    40.117448 
55416000    275.66766    308.30708    284.67624   -7.3973023    9.4478141    23.630837    40.114727 
55420000    275.91817     313.8538     281.8471   -8.7249658    9.5341762    32.006696    40.113097 
55424000    269.46156    323.51253    266.32526   -8.2988575    9.7249815    57.187277    40.112288 
55428000    284.82954    337.76856    276.51682    -9.898886    9.2673006    61.251733    40.116691 
55432000    271.71145    316.34657    266.08211   -8.0249306    9.4427429    50.264459    40.114936 
55436000    274.65696    308.62675    292.94943   -8.5802401     7.942582     15.67732    40.115152 
55440000    281.76805    337.25816      277.902   -8.6842326    8.4868644    59.356164    40.119551 
55444000    278.65132    331.90845    282.49157   -9.2306209    7.6435081    49.416877    40.121339 
55448000    265.40907    331.63373     261.8393    -9.926754    7.6920355     69.79443    40.119448 
55452000    284.53058    329.13486    292.89854   -10.221681    6.6530771     36.23632    40.118735 
55456000    283.80782    344.86998    268.96783   -9.3227463    8.9631423    75.902152    40.117568 
55460000    270.49701    311.39386    280.36013   -7.9897931    8.2901071    31.033735    40.115195 
55464000    278.37694    307.67893    294.06941   -8.0399227    7.4202634     13.60952    40.113941 
55468000     270.3426     311.4808    283.38862   -8.6746283    7.5128349    28.092183    40.111196 
55472000    276.05808    315.35679    295.39748   -8.0807756    7.8168445    19.959308    40.108242 
55476000    281.57977    304.86519    317.27312   -8.0387771    6.1459759    -12.40793    40.107098 
55480000    270.39454    310.61874    277.50016   -8.9024597    8.5246286    33.118583    40.107932 
55484000    280.89017    328.89925    290.55446   -8.9559233    7.8231594    38.344794    40.103287 
55488000    284.82871     342.1767    280.61739    -10.20915    7.6553375    61.559305    40.101328 
55492000    277.87811    324.76299    269.28307   -8.9117101    8.4166723    55.479923    40.101409 
55496000    281.82721    337.80464    270.50722   -10.551675    8.4491723     67.29742    40.102757 
55500000    275.19422    314.69898    274.48797   -8.3882823    7.9405832    40.211005    40.099711 
55504000    271.54942    323.66795    255.94023   -9.4769182    9.0043401    67.727718    40.096589 
55508000    271.58647    326.19387    255.10831   -8.3659004     8.182684    71.085557    40.098479 
55512000    265.46359    301.29896    280.86827    -7.570789    7.2463449     20.43069    40.094149 
55516000    262.81445    309.87895    264.81353   -8.1150677    8.6937717    45.065417    40.088381 
55520000     273.4769    306.55743    291.41585   -8.1343949    7.2921694    15.141579    40.089715 
55524000    278.70902    339.29809    261.23276   -9.3877166    8.3027025    78.065332    40.089319 
55528000     278.7038    326.12762    297.77747   -8.1026579    6.9424763    28.350145    40.091787 
55532000    277.10538    325.76044    298.66095   -8.8575397    6.9055084    27.099491    40.087177 
55536000    276.69969    312.86264    277.72092   -7.7647185    7.5436618    35.141721    40.088967 
55540000    280.83069    320.91574    307.34556   -8.0216254    6.7837576    13.570175    40.086318 
55544000    275.28028    314.61908    269.02433    -8.373266    8.5726452    45.594754    40.085898 
55548000    274.40518    307.54482    296.69777   -7.4634639    6.4428558     10.84705     40.08479 
55552000    276.56804    327.98985    265.13825   -7.9770671    7.8438399    62.851599    40.088368 
55556000    271.47186    314.17023    280.24595    -9.086091    6.9213588    33.924282    40.083533 
55560000    271.66159    329.64856    276.56192   -8.1496244    6.7114788    53.086644    40.085388 
55564000    278.43196    328.60059    288.77601   -8.4170407     7.051877    39.824586    40.088373 
55568000    267.73533    317.29897     262.5867   -7.2988176    9.2519732    54.712262     40.08964 
55572000    267.14889    331.90121    262.51599   -7.4389467    9.2977797    69.385215    40.091841 
55576000    277.30707    327.27976    274.53827   -7.5871021    8.3124549    52.741486    40.089607 
55580000    275.42087    329.24451    292.91418    -8.267545    6.8147953    36.330329    40.088746 
55584000    279.74524    322.54493    288.31091   -8.5613008    5.6508025    34.234027    40.091399 
55588000    287.50792    336.43664    298.29722   -8.4480394     6.074556    38.139417    40.087695 
55592000    264.78346    304.69221    260.73032   -8.1137493    8.9013074    43.961895     40.09035 
55596000     268.0765    312.34741     276.5958   -7.3400304    7.2623227    35.751614    40.087731 
55600000    270.94695    318.62756    267.15879   -8.1473172    8.2068936    51.468764     40.08789 
55604000    268.15107    309.38587    269.47213   -7.3230667    7.7904027    39.913736    40.088441 
55608000    282.14713    332.41338    292.42877    -9.730697    7.1755416    39.984603    40.090145 
55612000     270.2899     325.3881    253.82915   -8.1727716    8.2525861    71.558953    40.089945 
55616000     279.3823    320.83283    292.19362   -8.2981731     6.553362    28.639209    40.092552 
55620000    282.96722     350.6551    278.17032   -9.9017226    7.0073347    72.484783    40.091281 
55624000    275.42047     318.1858    270.26168   -8.9836452     7.432384    47.924123    40.088881 
55628000    279.85855    324.56429    311.19872   -8.8876477    6.2109329     13.36557    40.084879 
55632000    280.15193    321.98684    295.36772   -9.4158591    6.9950891    26.619124    40.087277 
55636000    279.96704     313.6201    288.15785    -9.268826    7.8597451    25.462244    40.089071 
55640000    274.59617    290.64878    300.41067   -7.4502462    7.5832729     -9.76189    40.089103 
55644000    285.11855    334.00596    293.42117   -10.024165    8.3972168     40.58479    40.092138 
55648000    267.03994    313.45319    281.73589    -8.190756    8.6837582    31.717302    40.090025 
55652000    279.96284    325.82243    275.28594   -9.9792478    8.6487166    50.536495     40.08789 
55656000    276.71533    317.17084    280.12598   -7.3935289    8.7088665    37.044868    40.082423 
55660000    273.76901    321.39126    288.19796   -9.8792907    8.5919885    33.193299    40.079618 
55664000     273.4458    316.94217    274.63222   -8.5426257    8.9750133    42.309954    40.078771 
55668000    273.39442    332.41418    268.83445   -9.4347994    9.4359565    63.579726    40.081776 
55672000    277.72897     318.8213    272.11486   -8.7315533    9.1702846    46.706443    40.085416 
55676000    270.50232    313.48206    269.83339   -9.2704814    9.5092403     43.64867    40.085005 
55680000    266.47845    297.83965    282.39094   -7.9966917    8.7060581     15.44871     40.08388 
55684000    274.76676    309.15862    274.23135   -8.6574347    8.0296425    34.927266    40.084148 
55688000    269.26654    312.79611    266.36858    -8.849557    9.9579704    46.427525    40.085886 
55692000    270.40272    298.00403    276.86293   -9.2308774    9.5343686    21.141104    40.084292 
55696000    280.40678    311.79691    290.88982   -8.5699175    8.4095347    20.907092    40.085102 
55700000    282.79958    337.40817    287.58975    -9.526565    8.4637932    49.818426    40.080488 
55704000    279.91509    328.01003    270.72873   -9.0400575    8.8972781    57.281304    40.080141 
55708000    281.09119    338.16503    287.79631   -10.046544    8.5646868    50.368722    40.080497 
55712000    280.64445    328.15886    290.20896   -10.287892    8.2585697    37.949895    40.078662 
55716000    281.00792    318.99241    284.24962   -9.5263813    8.4348257    34.742788    40.078129 
55720000    289.14181    350.62214    300.68965    -10.20414    7.5026547    49.932484    40.082849 
55724000    273.48328    309.13585    281.48277   -7.5720997    8.6361334     27.65308    40.078739 
55728000    282.41419     348.0601    278.88789   -9.1063671     8.750501    69.172211    40.078814 
55732000    283.07416    354.11271    289.15463   -10.075815    8.4930108    64.958073    40.073781 
55736000    265.75002    304.49065    280.15843   -8.3572766    7.6559946    24.332213    40.072331 
55740000     278.9885     312.7902    289.64514   -8.2067714    7.3344758    23.145063    40.073834 
55744000    282.30056    340.58351     291.4726   -10.202962    6.6241922    49.110905    40.072609 
55748000    278.10883    330.86913    284.87954   -8.6235692    7.6943359    45.989592    40.072073 
55752000    275.28429    308.89096    296.11437   -7.3349865    6.4281243    12.776591    40.073478 
55756000    272.13282    307.42815    287.63755   -8.2363936    7.1640165    19.790607     40.07067 
55760000    280.67935    335.39343    281.90883    -9.290431    7.4014288    53.484601    40.069083 
55764000     274.1736    323.92407    267.45804    -10.08178    8.1493903     56.46603    40.071592 
55768000    268.76461    318.54257    265.54089   -9.5238751    8.1928233    53.001683    40.074276 
55772000    275.12772    313.77461    272.74785   -8.8234868    8.0040306    41.026762    40.076245 
55776000    276.21069    303.60675    314.65246   -8.4748532    6.6505839   -11.045707    40.077779 
55780000    285.16216    349.81689     273.0006   -11.988242    9.2426229    76.816293    40.079704 
55784000    272.41051    323.12038    270.16698   -8.8522957    8.1267592      52.9534    40.082082 
55788000    265.18228    290.93797    283.91611   -8.4668052    8.0283058    7.0218645    40.084524 
55792000    279.50389    333.66756    269.26052   -9.2481889    8.4693237    64.407039    40.086884 
55796000    272.82462    313.96789    271.22891   -7.1636366    7.7882309    42.738977    40.088207 
55800000    281.42522    334.68955    290.09723   -9.7407174    7.5781264    44.592324    40.086422 
55804000    281.21291    341.07074     285.7244   -9.5840219    7.0086768     55.34634    40.086029 
55808000    274.24729    337.18301    279.66934   -9.7133082    7.5523455    57.513664    40.087348 
55812000    273.10192    301.86093    281.30081   -8.6906022    7.0405809     20.56012     40.07804 
55816000    277.64232    328.75513    273.64478   -10.508453    7.1700958    55.110352    40.080094 
55820000    282.31061    321.04824    275.12322   -10.029945    7.4175827    45.925021    40.080367 
55824000    282.17279    326.61215    298.41152   -8.9089112     7.006314    28.200623    40.083366 
55828000    286.55466    314.69081    301.13436   -8.8812068    6.4101723    13.556457    40.082519 
55832000    277.86847    321.14476    284.09798   -8.6099548    7.5834724    37.046778    40.080514 
55836000     274.9994    311.90065    277.93791   -8.1749541    8.2486716    33.962745    40.079536 
55840000    269.33416    300.78429    275.88769   -8.9624349    7.6102143      24.8966    40.078745 
55844000    281.60049    329.22285    285.47164    -9.257609    7.5023221    43.751212    40.080369 
55848000    282.78013    323.44471    285.95905    -10.40006    7.8247093     37.48566    40.078824 
55852000    283.18989    341.81096    264.74743   -11.229552    7.5303285    77.063526    40.077356 
55856000    277.76163    321.06762     280.8479   -10.128571    7.6820959    40.219717    40.080571 
55860000    277.02417    333.36825     281.0979   -9.9547126    8.6845955    52.270345    40.082279 
55864000    282.01555    353.00843    279.46719    -12.19115    8.1221924    73.541244    40.080347 
55868000    274.52428    307.72738    294.92281     -8.95332    6.5800594    12.804571    40.078339 
55872000    288.35034    361.65566    274.40587   -10.689202    7.4180046    87.249787    40.077824 
55876000    272.19623    321.78616    281.75027   -9.1286496    8.1345534    40.035891    40.075723 
55880000    274.43777      321.271    291.49028   -8.3546855    7.2125427    29.780714    40.072352 
55884000    270.69493    319.54959    269.44374   -9.2556287    9.0984664    50.105846    40.069868 
55888000    288.53882    318.27803    303.78864   -10.211552      7.09299    14.489387    40.064939 
55892000    270.92658    278.36235    295.56433   -8.0916889    7.2442279   -17.201982    40.062697 
55896000    278.97791    334.82432    282.26257   -9.3307907    8.0613811    52.561745     40.05814 
55900000     280.4773    330.25645    270.97288    -8.849847    8.5458699    59.283573    40.059994 
55904000    274.78501    331.81022    264.13732   -10.488516    10.179267    67.672898    40.061131 
55908000    278.61582    319.85956    294.76845   -10.051954    7.1345586    25.091106    40.062764 
55912000    284.95202    354.55751     279.5214   -11.235702    8.2033097    75.036105    40.064734 
55916000    282.15775    311.22976     294.4681   -9.0037409    8.0839432    16.761653    40.062063 
55920000    278.09872    319.72035    280.50535   -8.5944714    8.4659319    39.214999    40.062728 
55924000     278.9025    316.01038    281.20119   -8.6418614    9.1859173    34.809183    40.065042 
55928000    276.84233    320.24092    292.93154   -9.1045685     7.647214     27.30938    40.064279 
55932000    278.51885    308.85043    279.20585   -8.9636327    9.4943262    29.644578    40.062223 
55936000    269.75187    309.61172    261.80687   -9.1804985    9.5505301    47.804852    40.061015 
55940000    277.53245    335.26832    277.39617   -9.6947489    8.6877977    57.872145    40.063896 
55944000    277.09602     319.5418    270.83507   -8.8508394    8.2175363    48.706729    40.066563 
55948000    273.57373    302.57717    284.30608   -8.6345915    6.7999118    18.271087    40.066078 
55952000    281.83913    340.81452     267.6363   -9.0648176    8.2395979    73.178217      40.0665 
55956000     278.5928    345.60362    268.15244   -9.0446353    9.4452818    77.451189    40.067213 
55960000     271.5134    291.07892    277.78082   -7.7588374    8.6315982    13.298093    40.063601 
55964000    277.47261    347.31379    270.61425   -10.716549    7.8728022    76.699533    40.062959 
55968000    278.02704     340.7377    297.55875    -11.17214    6.7299025    43.178953    40.061354 
55972000    267.46167    312.53835    263.83295   -9.3377279    8.2154693      48.7054    40.058336 
55976000    278.32978    323.53921    294.25711   -9.4874414    8.1540193    29.282102    40.060545 
55980000    272.46239    302.77308    285.89191   -9.0556217     8.108009    16.881167     40.05752 
55984000    284.56021    326.94619    308.09128   -10.555139    6.9224191    18.854917    40.060567 
55988000    272.84373    304.02749    289.65187   -7.5245767    8.6033929    14.375627    40.062716 
55992000    277.56158    328.53552    280.82552   -9.6642634    10.386096        47.71    40.063596 
55996000    264.05769    313.71709    253.49338   -9.2419063    10.200029    60.223706     40.06812 
56000000    271.10931    309.41512    284.03794   -9.2729405    9.0798557    25.377175    40.069264 
56004000    276.91834    330.67961    282.52574    -9.419425    8.4917714    48.153866    40.073008 
56008000    274.14403    318.14992    286.45417   -10.242152    8.7336328    31.695746    40.072532 
56012000    275.23327       323.13    280.41432   -10.511679    10.039971    42.715681     40.07716 
56016000     283.0373    328.92667    285.14854   -9.3431502    8.7136946    43.778137    40.078819 
56020000    280.85486      320.784    297.86213   -11.092232    7.9737154    22.921868    40.076028 
56024000    278.89777    315.79693     299.0077   -9.8757635    8.0801314    16.789234    40.072673 
56028000     281.4028    332.69753    290.44042   -9.7488337    9.0626145    42.257108    40.068535 
56032000    284.04387     328.4708    286.39662     -10.5455    8.3285798    42.074185    40.072919 
56036000    275.57034    311.30452     286.7778   -9.8487458    9.4561638     24.52672    40.075778 
56040000    276.88019    313.41166    286.40419   -9.7627613    8.6083877     27.00747    40.076954 
56044000    285.37273    331.79351    302.71689    -12.07542     7.522141    29.076618    40.080367 
56048000    270.65372    305.84167    282.96792   -10.021079    7.9705984    22.873752    40.081998 
56052000    273.93803    310.04656    259.87054   -10.487349     10.38344    50.176018    40.079939 
56056000    277.28165     321.3822    280.28094    -9.976282    8.0498325    41.101261    40.077968 
56060000    281.03499    335.77007    287.32846   -10.810586    7.8921549    48.441606      40.0801 
56064000    280.65173     336.8366    283.45923   -11.940573    8.9167573    53.377368    40.075976 
56068000    281.07156    329.00752    279.42619   -11.227854    9.6237763    49.581333    40.074795 
56072000    290.04379    354.12022    283.80862   -11.795637    8.8622693    70.311602    40.075206 
56076000    277.26234    317.97848    275.10757   -9.0519681    9.3402362    42.870913    40.077706 
56080000    278.91373    321.74711    280.04827    -8.915167      9.22963    41.698841    40.080285 
56084000    275.59922    331.10441    277.96968   -9.6097148      9.56227    53.134725    40.085889 
56088000    281.18561    344.33754    284.96126    -8.390272      9.71342     59.37628    40.084936 
56092000    273.35913    332.05118    290.56765    -9.977826    8.6465611    41.483537    40.086056 
56096000    278.86705    316.61942    292.51824   -7.9054762    8.8378114    24.101188    40.085522 
56100000    274.44235    325.13246    277.45796   -9.3715157    10.509187    47.674501    40.082913 
56104000    270.63371    306.12804    286.35473   -9.2133308    9.5004351    19.773306    40.080499 
56108000    267.03646    309.37663    269.60321   -8.9178862    9.2580374    39.773416    40.077614 
56112000    280.62866    347.58025    291.76173   -9.6028437     9.836518    55.818521    40.080517 
56116000    265.11308    323.56129    257.44678    -8.181945     10.06358    66.114513    40.082861 
56120000    278.15044    344.73292    277.23041    -9.463914    8.4483774    67.502508    40.082034 
56124000    263.73884    288.48681    277.91094   -6.5777927    8.6641848    10.575864    40.083137 
56128000    273.96132    312.22306    290.65524   -7.9703497     7.778656    21.567819    40.080514 
56132000    268.27719    303.83203    277.08016   -6.5496663    9.5471575    26.751869    40.078146 
56136000    264.99544    312.42717    263.67093   -7.8652916    9.2208439    48.756239    40.076842 
56140000    266.26575    310.90258    272.32181   -6.9824727    8.6678626     38.58077    40.075933 
56144000    268.67772    329.76766    264.41325   -9.4106739    9.5867139    65.354412    40.075422 
56148000    272.87012    333.02733    278.62645   -8.1936621    9.5647136    54.400877    40.072585 
56152000    277.72807    328.69981    275.39415   -9.3049599    9.3941498     53.30566    40.074947 
56156000    277.24834    321.74463     292.9786   -9.5680692    8.6140053    28.766027    40.075901 
56160000    274.79504    321.07723    287.83091   -8.8981363    8.8349889     33.24632    40.077667 
56164000    274.78438    312.86104    266.41223   -9.5322741    10.403306    46.448813    40.076343 
56168000    270.96712      318.222    264.97476   -8.7953532     10.25494    53.247237     40.07756 
56172000    267.01529     315.5859    261.91974   -8.6824878    10.263068    53.666169    40.076176 
56176000    272.79952    325.49321    254.17644   -10.118752    9.9916278    71.316766    40.074118 
56180000    269.68253    309.65155    289.38395   -9.3686423    8.8082026    20.267603    40.071214 
56184000    274.52958    306.42764    287.51349   -8.7859218    8.9008333    18.914148    40.072708 
56188000    282.34221    341.65464    304.27513   -9.9378505    7.1810827    37.379508    40.077765 
56192000    279.49019    317.35417    305.40031   -8.9189902    7.4898821    11.953851    40.078475 
56196000    279.72888     314.8311    303.04773   -9.4093675    8.9618471    11.783362    40.077694 
56200000    270.51875    325.61318    266.01267   -9.5255386    9.8770478    59.600518    40.079256 
56204000    267.24714    297.88132    282.58335   -8.5356071    9.7241527    15.297969    40.076799 
56208000    256.77228    295.45302    267.92306   -8.3803238    10.878121    27.529965    40.080878 
56212000    276.90725    349.27762     276.7763   -10.712776    10.162693    72.501315    40.082722 
56216000    278.81846     310.5084    288.22069   -8.2902886    9.8044713    22.287717    40.084457 
56220000    271.62491    314.22069     274.9384      -8.9204    9.7204671    39.282295    40.085253 
56224000    274.36875    336.96237    291.40079   -11.449865    8.5081856    45.561575    40.088431 
56228000    264.61824    307.02596    271.14786   -9.6876569    9.4276657    35.878102    40.087546 
56232000    261.70184    315.59478    269.47946   -8.3698122    9.8682173     46.11532    40.087037 
56236000    272.26442    327.31598    266.38723   -8.5360602     11.00701     60.92875    40.087943 
56240000    275.10881    332.76246    288.67574   -9.0460848    9.0444394    44.086729    40.086605 
56244000    275.34982    331.45736    294.57505   -8.8753602    9.8053247    36.882315     40.08493 
56248000    275.28267    331.91926    304.23264   -8.0141336    9.5484649     27.68663     40.08075 
56252000    271.54082    326.85811    282.36184   -9.2311309    9.2610534    44.496265       40.084 
56256000    269.47595     327.2243    284.29738   -8.8189999    8.8085977    42.926917    40.083522 
56260000    275.35887     320.0395    286.76214   -6.5929948     9.620156    33.277359    40.080979 
56264000     265.5312    296.73446    284.60069   -6.6516898    9.5692242    12.133771    40.081194 
56268000    261.46741    312.14412    264.53376   -7.8511496    10.424776    47.610362    40.080868 
56272000    272.56054    344.18976    269.49667   -9.6897079    10.554515    74.693096    40.084395 
56276000    270.81745    329.90285    277.00369    -8.431061    9.1623105    52.899159     40.08316 
56280000    271.07869    330.39433     271.0972   -8.8701714    10.118164    59.297131    40.083825 
56284000    275.40402    328.52033    296.48386   -9.0077633    8.1748616    32.036477    40.085813 
56288000    276.61714    344.47574    280.30123   -9.8074589    9.8489698    64.174507    40.087503 
56292000    276.32098    336.31951    299.11405   -8.8676444    8.5671198    37.205467     40.08182 
56296000    259.42146    303.26092    258.99883   -7.1166319    10.443297    44.262094    40.080668 
56300000     262.5661     315.3275    253.16027   -7.2231269    9.4809935     62.16723    40.080331 
56304000    270.09876     318.6293    274.95425   -7.8653167    8.3657891    43.675047    40.078857 
56308000    272.86577    334.64885    276.53188   -9.6860421    9.3081028    58.116966    40.075788 
56312000      275.859    355.33073    272.95216   -10.494138    9.2041645    82.378568    40.075373 
56316000    261.33097     303.5654    275.79812   -7.6681728    9.4511896    27.767279     40.07652 
56320000    277.17064     328.5247    293.65237   -9.6051466     8.259889    34.872332    40.079537 
56324000     257.9495    308.56826    259.25521   -7.7448608     9.392262     49.31305    40.077931 
56328000    264.86084    310.95247    267.71985   -8.0152247    10.548293    43.232622    40.082912 
56332000     262.9331    307.07274    279.27926   -7.2183878    10.838775    27.793478    40.084152 
56336000    278.92845    329.50184    282.36683   -9.0576326    10.118927    47.135006    40.082067 
56340000    269.57596    331.69707    261.22042   -8.9195007    11.157464    70.476647    40.088934 
56344000    268.45482    321.98136    286.28003   -9.2687712    9.0690259    35.701332      40.0883 
56348000    276.40085    335.19714    293.80976   -9.1992904    9.0679395    41.387385    40.085333 
56352000    266.45642    331.49929    279.62205   -7.4290077    9.8841436    51.877238    40.082633 
56356000     270.7328    324.50459    284.50667   -7.9581633    10.233326    39.997926     40.07958 
56360000    260.48983      301.615    280.18688   -6.8903422    9.7422651    21.428118    40.078867 
56364000    271.30014    331.22003    275.48356   -7.9307848    10.402823    55.736467    40.082921 
56368000    268.24421    316.82895    276.86969   -7.7346455    10.195879    39.959259    40.084571 
56372000    266.80029    313.45855    280.85173   -8.8018781    9.2964542    32.606817    40.085246 
56376000     266.5962    319.90363    269.71853   -7.9776333    9.9750943    50.185108    40.083812 
56380000     268.6738    305.86842    277.85049   -7.1457744    9.7605929    28.017935    40.086287 
56384000    278.12326    349.87714    274.01376   -11.643847    10.275795    75.863389    40.087718 
56388000    270.55283    334.89738    277.03958   -8.3077801    11.062926      57.8578    40.084752 
56392000    260.61718    308.08062    248.33978    -8.678548    11.154536    59.740842     40.08387 
56396000    266.85676    302.93383    290.89325   -8.1249368    9.5309917     12.04058    40.083339 
56400000    267.50672    295.53906    280.56432   -7.7508728    9.6587746    14.974739    40.081782 
56404000    273.03049     328.3217    276.14696   -9.5270353    10.170578    52.174734    40.082453 
56408000    269.71903    333.17254    282.28264   -9.3974363    9.8979572    50.889897    40.084692 
56412000    267.49452    311.55231     270.6778   -8.6642027    9.8083095    40.874517    40.085213 
56416000    268.69415    321.00833    279.52528   -10.038366    10.091245    41.483056    40.085266 
56420000    268.56456    314.97724    285.31209   -7.8725602    11.052717    29.665151     40.08555 
56424000    274.64346    333.06528    286.77268   -9.1656634    10.356812      46.2926    40.085029 
56428000    269.63976    336.44946    279.98495   -9.9104793    11.146082    56.464505    40.083136 
56432000    266.83534     309.2692    281.67727   -9.1711727    10.951441    27.591932    40.086359 
56436000    271.41395    305.00386    287.07691   -8.5103034    10.586542    17.926951     40.08753 
56440000    269.42345    307.65859    291.97526   -8.7380785    9.6251015    15.683323    40.084924 
56444000    270.63195    308.72014    278.24124   -7.7263455    8.2134099    30.478898    40.085349 
56448000     268.6137    329.67988    268.62359   -8.3738088    9.7009687    61.056295    40.086001 
56452000    267.06507    327.12228    283.94988   -8.5465401    8.7418342    43.172399    40.086896 
56456000    267.53155    297.40152    294.57357   -7.3646644    8.9551932    2.8279572    40.087022 
56460000     274.1114    335.69473    273.67294   -10.048842    9.2754098    62.021793    40.090257 
56464000    266.31178    309.08399    282.28856   -8.5433062    9.5247379    26.795427    40.091096 
56468000    267.98266    318.67281    274.26532   -8.9645247    10.403814    44.407492     40.09415 
56472000    277.19979    327.17367    281.63522   -9.6090346    9.7638678    45.538445    40.097397 
56476000    271.60333    307.98145    274.70181   -8.9787647    10.997149    33.279644    40.097885 
56480000    269.30298    347.96787    273.72417   -9.9000614    11.076115    74.243698    40.101637 
56484000    276.68697    330.67755    283.82653   -9.3419934    10.323518    46.851021    40.103392 
56488000    265.43605    307.93907    274.89119   -8.2895287    11.396567    33.047887    40.101024 
56492000    265.41509    324.46836     280.3073   -8.4410379    10.158127    44.161061    40.101147 
56496000    271.29788    320.89256    278.73838   -8.3572201    10.727675    42.154176    40.098218 
56500000    269.85579    316.77875    289.45612   -8.7523676     9.809758    27.322632    40.098751 
56504000    270.76907    307.94985    290.59256   -8.1352673    10.623266    17.357293    40.097321 
56508000    264.00831    306.08408    291.99579   -8.6372679    9.7152796    14.088283    40.095416 
56512000    263.34076    307.37115    281.16691   -7.6678808    10.457168    26.204248    40.092862 
56516000    265.67831    316.66656    306.34001   -8.0302915    10.515851    10.326542    40.094586 
56520000    268.82392    314.54586    294.53707   -8.7451931    10.310378    20.008785    40.094312 
56524000    270.43078    326.01751    302.43023   -9.2889958    10.724788    23.587283    40.093858 
56528000    262.37952    306.88189    273.92591   -8.8592874    11.955908    32.955982    40.093869 
56532000     272.5167    325.93405    290.95276   -9.4114644    11.197735    34.981299    40.096006 
56536000    264.07222    317.87185    257.51299   -9.5491802    11.724481    60.358867    40.094352 
56540000    263.44581    277.05152    282.44959   -7.5146948    10.657582   -5.3980701    40.096118 
56544000    265.34928    282.41353      286.205   -6.4553995    9.8154247   -3.7914694    40.092632 
56548000    271.41045     322.4768    289.16224   -9.0578323    9.8756309    33.314561    40.093471 
56552000    266.29942    314.88023    269.29331   -9.6156488    10.615672    45.586921    40.095137 
56556000    261.13523    316.18552    269.55436   -9.8394427    10.640538     46.63116    40.099222 
56560000    278.39482    332.03072    283.64649   -9.9965387    10.968562    48.384228    40.100781 
56564000    276.54926    324.02397    298.83957   -8.1815521    11.268819    25.184397    40.102019 
56568000    264.72241    321.30532    276.18471   -9.7802371    10.247513    45.120608    40.100621 
56572000    274.98527    323.16364    282.74873   -11.210517    9.9794361    40.414917    40.099972 
56576000     273.7138    315.26669    286.92662   -10.406413    10.543432    28.340072     40.09775 
56580000    273.89717     342.1815    257.96902   -10.592228    12.526359     84.21248    40.094664 
56584000    266.37393    328.57762    272.74576   -10.212051    10.722167    55.831859     40.09386 
56588000    274.20723    325.98493    291.86432   -9.9664405    9.0828628    34.120614    40.094458 
56592000    269.66044    325.04093    283.08517   -8.8810413    10.678112    41.955762      40.0958 
56596000    269.37842    336.17841     278.5304   -10.996648    11.676328    57.648011     40.09529 
56600000     274.2937    317.43425    289.96179   -9.4595569    10.701765    27.472457    40.093719 
56604000    273.12513    318.26249      299.273   -9.6483747    11.671261    18.989488    40.093341 
56608000    271.12801    323.46422    291.24146    -10.89211    11.397078    32.222758    40.090818 
56612000    263.32318    313.67863    271.14523   -8.7656069    12.774963    42.533397    40.093877 
56616000    271.28224    313.43029    277.63204   -9.5712468    11.712493    35.798247    40.091252 
56620000     276.2342    333.69115    291.63587   -10.077137    12.130245     42.05528    40.087626 
56624000    275.59204    329.00191    293.09906   -10.650726    11.401349    35.902853    40.090169 
56628000    256.47277    307.73794    263.13002   -9.8396659     13.57793    44.607923    40.086983 
56632000    271.85883    340.54681    284.02923   -10.841089    12.268286    56.517583    40.087165 
56636000    275.40152    320.53716    302.73246    -10.88705    11.063439    17.804697    40.083757 
56640000    267.48918     300.7477    289.29585    -10.18642    10.883393    11.451846    40.083078 
56644000     279.9365    331.53316    290.40271   -10.531432    10.652879    41.130447    40.080008 
56648000     273.4425    324.07505    283.26646   -11.374374    10.578613    40.808583    40.080896 
56652000    274.93823    328.76118    278.42748   -12.710869    10.194132    50.333692    40.084263 
56656000    267.83383    327.68635    258.01611   -12.274517    11.676494    69.670233    40.086749 
56660000    275.68339     302.3818    282.40646   -11.521153    10.663288    19.975334    40.087059 
56664000     269.3778    310.03342    279.16581   -10.977722    11.965834    30.867615    40.086118 
56668000    275.45952    324.28501    284.24144   -11.794946    11.079221    40.043577    40.088492 
56672000    270.28078    322.84239    275.82144   -11.179682    12.158749    47.020948    40.086295 
56676000    268.05924    327.00539    255.70415   -10.579268     11.60135    71.301248    40.085654 
56680000    268.89993    308.27291     276.6218   -8.7414688     11.65623    31.651105    40.085338 
56684000    268.40804    304.10161    272.43233   -9.9213694    10.918148    31.669281    40.085727 
56688000    280.25113    339.31021    297.04612   -11.632979    11.034743    42.264093    40.088809 
56692000    270.42535    327.66372    260.40404   -10.394273    11.949985    67.259677    40.093058 
56696000    273.13537    334.52462    273.01896   -11.457467    11.007692    61.505665    40.094261 
56700000    270.47164    294.08261    291.00798   -10.024786    10.259373    3.0746304     40.09708 
56704000     271.3932     313.4198    286.38774   -11.024537     9.658133    27.032063    40.096315 
56708000    269.59797    315.43052    290.33285   -9.4548042     10.59148    25.097672    40.097323 
56712000    274.66627    343.05057    274.65638   -11.681428    11.605563    68.394187    40.099195 
56716000    285.36901    346.28302    296.87814   -11.661878    11.045644    49.404882    40.099275 
56720000    272.87743    335.20818    262.33466   -12.208749    11.374172    72.873521     40.09774 
56724000    272.28547    316.91836    291.90281   -10.828381    9.9003967    25.015555    40.098521 
56728000    278.67976    310.45359    301.95037   -10.006445    9.3102943    8.5032203    40.095205 
56732000    277.98619    333.45769    282.30036   -12.212348    10.397926    51.157336    40.091354 
56736000    274.23891    324.83011    282.15784   -10.427207    9.7485878    42.672275    40.092291 
56740000    281.47167    325.97706    295.10703   -11.226815     10.47356    30.870039    40.095838 
56744000    271.80553    325.21666    264.96952   -12.631249    11.737914    60.247145    40.092407 
56748000    277.47055    326.57242    294.52537   -11.808485    9.7331789    32.047053    40.095795 
56752000    278.39174    333.28023    290.46099   -11.689947    10.289126    42.819242    40.095947 
56756000    269.18972    325.19083    262.88443   -11.846216    11.961106    62.306404    40.096178 
56760000     273.6438     314.1549    259.83679   -10.043484    11.867994    54.318116    40.096236 
56764000    275.69173    313.69339    272.15457   -9.5354574     10.25551    41.538815    40.096002 
56768000    276.21831    319.69386    301.73178   -9.4342334    8.7329625     17.96208    40.095337 
56772000    274.94771    307.53402    294.78307   -8.9929075    9.8029629    12.750955    40.097722 
56776000    276.59156    321.21712    302.72794   -8.7887813    9.6795279    18.489175    40.098159 
56780000    279.91327    345.40327    292.26182    -10.63316     9.288528    53.141447    40.095838 
56784000    268.69896    322.07257    270.75112   -9.6820356    10.260975     51.32145    40.092902 
56788000    271.77516    329.72037    284.49194   -10.373472    10.781118    45.228435    40.096937 
56792000    279.24367    344.24843    285.84578   -12.006205    10.023064    58.402648     40.09541 
56796000     265.6044     290.4118    288.07549   -9.1458593    10.929406    2.3363122    40.092804 
56800000    282.05623    326.58245    292.64694   -9.6374012    9.8477432    33.935512    40.093554 
56804000    268.90466    320.60672    283.18451   -9.2982081    10.029288    37.422216    40.089018 
56808000    275.84827    328.64097     284.5748    -10.64646     10.93821    44.066171    40.090504 
56812000    262.92984    317.03602     274.8276   -9.0529432    11.855941     42.20842    40.091997 
56816000    280.92712    355.28187    268.80814    -12.43125    11.388397    86.473731    40.093141 
56820000    269.69475    301.55067    273.44578    -10.68691    9.1959036    28.104891    40.092196 
56824000    281.60896    311.84676    301.52662   -9.8830709    8.7201809    10.320146    40.095139 
56828000    282.79162    327.77461    302.84451   -10.339902    9.4131282      24.9301    40.095353 
56832000    273.73529    327.58286    274.87298   -10.956082    10.462421    52.709887    40.098796 
56836000    272.68062    329.91925    273.17782   -10.628889    10.825119    56.741423    40.100566 
56840000    281.88289    322.70758    292.74035   -10.953317    9.7747645    29.967225    40.100918 
56844000     278.1476    333.33089     278.5045   -12.080848    9.4996858    54.826395    40.101665 
56848000    271.78759    300.88172    296.96663   -8.6064057    9.9622276    3.9150929    40.102426 
56852000    280.73239     331.6021     285.8412   -10.090235    11.336719    45.760901    40.100589 
56856000    266.64573    305.37399    279.58341   -8.8507972    10.880081    25.790586    40.100377 
56860000    269.52468    319.55828    282.63356   -9.6307267    11.002508    36.924712    40.101708 
56864000    269.58179    308.46969    282.65411   -8.9049389    11.823579    25.815584    40.099367 
56868000    272.18997    331.34812    273.98984   -10.118001    11.613934    57.358279    40.096818 
56872000    274.28634    313.12678    295.00562   -9.2977718    10.821184     18.12116    40.097807 
56876000    277.12305    341.65849    292.18301   -10.752212    9.5295244    49.475489     40.09801 
56880000    273.67402    319.03611    283.41207    -9.969691    11.223917    35.624036    40.097565 
56884000    271.87935    332.14722    287.53447   -11.215379    11.705115    44.612747    40.097983 
56888000    260.64227     297.2431    280.95818   -8.9693906    11.398434    16.284916    40.099395 
56892000    277.18216    320.66245      299.123   -10.712962    10.470142    21.539458    40.101916 
56896000    271.49067    316.27093    295.14241   -12.126722    10.194062    21.128529    40.099726 
56900000     269.3527    310.61013    279.04786   -11.327278    10.962453    31.562267     40.09925 
56904000    272.64017    334.17369    275.98919   -12.291673    11.333167    58.184505    40.100799 
56908000    270.52264    320.71689    262.04149   -10.559843     12.74188      58.6754    40.101634 
56912000    271.52051    329.10447    270.44293   -11.308299    12.152556    58.661542    40.103624 
56916000    276.45197     325.5317     286.5289   -9.8644613    10.941056    39.002799    40.103268 
56920000    277.48483    322.83845    286.14913   -10.656919    11.032321    36.689315    40.104214 
56924000     269.7188    307.96304    284.01333   -9.2292355     10.82838    23.949709    40.102789 
56928000     265.3426    302.83847    270.91726   -9.4959046    11.558039    31.921215     40.10542 
56932000    269.41205    298.78722    273.95284   -9.8665357    9.1832599    24.834375    40.103529 
56936000    267.96552     294.0025    274.63507   -8.6952696    10.912377    19.367425    40.104127 
56940000    264.75863    290.09477    274.92977   -9.0452576    12.624398    15.164995    40.104875 
56944000    273.81218    349.36624    267.65921     -12.4826    11.136198    81.707029    40.105308 
56948000    267.61156    326.18271    272.00927   -10.379111    11.936013    54.173446    40.105543 
56952000     274.3468    310.87806     267.7877   -11.406602    12.118551    43.090358    40.106384 
56956000    282.57268    333.58869    292.20754   -11.934168    10.328788    41.381148    40.105821 
56960000    275.49127    332.46908    284.71231   -11.142855    11.429838    47.756771    40.107977 
56964000    278.65585    318.38748    301.31244   -11.603394    10.803853    17.075035    40.109151 
56968000    273.84576    309.69229    278.76203   -10.780497    10.843992    30.930265    40.112679 
56972000    267.08591    303.38569    278.49465   -11.288836    9.9950857    24.891035    40.111584 
56976000    272.86239    320.09126     273.2907   -10.476548    11.193211    46.800558    40.112876 
56980000    272.24269    317.47328    292.45394   -11.458077    9.8830135    25.019338    40.112854 
56984000    283.77281    336.10525    288.58107   -11.281593    10.443477     47.52418    40.115934 
56988000     279.3409     343.2882    281.74133   -12.298574    11.242613    61.546867    40.114706 
56992000    276.68185      318.966    285.25804   -11.842859    11.121169    33.707962    40.117606 
56996000    270.77978    330.36481    266.64439   -12.451832    12.117732    63.720419    40.120371 
57000000    269.42007    312.26618    261.71915   -11.903818    11.279164    50.547026    40.120899 
57004000    265.58113    312.04358    274.20329   -11.188895    11.238244    37.840291    40.117712 
57008000    274.50329    335.39115    266.73632   -11.488351    10.756439    68.654822    40.118514 
57012000     281.0457    344.37954    287.48532   -11.642894    9.9431295     56.89422    40.117186 
57016000    273.36026    324.20997     272.3543   -11.225086    11.009416     51.85567    40.116496 
57020000    278.68136    319.48497    296.01168    -11.16489    9.9670106    23.473299    40.114712 
57024000    273.91784    316.86414    278.40658   -12.020196    10.205871    38.457557    40.112304 
57028000    284.78674    328.86952    299.69846   -12.173264    9.5352895    29.171061    40.110115 
57032000    271.27722    304.30301    277.86298   -11.202031    10.538322    26.440031    40.110805 
57036000    282.11209    332.12019    290.49712   -11.941268     10.25382    41.623066    40.112525 
57040000    269.62182    315.34273    276.74737   -11.445268    11.061039    38.595355    40.118052 
57044000    274.65692    318.22226    283.49788   -11.528514    11.400714    34.724384    40.120065 
57048000    282.64503    337.56023    307.41296   -12.401796    10.661044    30.147267    40.116813 
57052000    275.72074    322.70019    297.85622   -10.645441    10.580435    24.843975     40.11493 
57056000    269.08056    309.13035    268.18905   -10.738636     12.19648    40.941301    40.115026 
57060000    266.67331    308.17635    277.59643   -10.267379    11.534268    30.579928    40.112729 
57064000    273.12008    323.02405    276.56852   -10.645569    10.505168    46.455522    40.112488 
57068000    274.11999     307.5774    284.87832   -10.125359    10.145822    22.699083    40.112693 
57072000    268.12866    332.38667    252.42388   -11.360747    12.234382    79.962796    40.116174 
57076000    269.09193    303.06891    289.18631   -10.593979    9.6648844    13.882595    40.115203 
57080000    282.05793    336.49357    297.70146   -11.244483    9.4802556     38.79211    40.116212 
57084000     259.5085    300.68178    253.21435   -10.468377    11.773287    47.467423    40.117287 
57088000    271.78395    316.18164    284.18288    -10.54927    9.4457505     31.99876    40.111747 
57092000    273.74681    294.56937    297.60173   -9.9175706    9.9407085   -3.0323523    40.112922 
57096000    272.49587    300.98058    280.48975   -11.786593    9.5414982    20.490837    40.117965 
57100000    277.14976    309.72705    297.88074   -10.779312    10.176563    11.846305    40.118597 
57104000    279.46816     306.7979    276.53115   -11.115042    10.093128    30.266749    40.119786 
57108000    276.29169    323.30442    270.98269   -11.425068    10.373726    52.321729    40.121255 
57112000     274.0797    340.13488    261.00001   -11.515259    11.281892    79.134871    40.124927 
57116000    276.10643    324.28552    288.44962   -11.821674    10.792669    35.835906    40.126367 
57120000    277.43731    347.60994    271.27835   -13.069974     11.44258    76.331597    40.127778 
57124000    267.54026    302.72761    267.42623   -10.923558    11.256193    35.301384    40.128906 
57128000    282.58327    328.27965     292.5448   -11.943837    11.521899    35.734857    40.129321 
57132000    274.09508    319.66111    276.28649   -11.876921    11.211063    43.374621    40.129085 
57136000     270.0374     311.8521    277.54221   -12.665308    10.737844    34.309899    40.129916 
57140000    276.17778     315.7135    288.59552   -11.517171    10.898548    27.117983    40.131605 
57144000    273.56366    318.46322    291.93074   -11.358925    12.201861    26.532486    40.129517 
57148000    271.37959    319.18057    265.91332   -12.719431    13.154534    53.267245    40.130377 
57152000    283.18425    349.78884    292.26694   -13.239573    11.140881    57.521897     40.13439 
57156000     276.1963    322.64018    285.97809   -11.710445    11.466373     36.66209    40.136101 
57160000    275.95867    308.90478    287.90703    -11.48166    11.287996    20.997747    40.138739 
57164000    280.26859    341.78126    266.81732   -12.508441    12.178702    74.963937    40.144101 
57168000    264.62808    309.80423    262.11826    -12.69197    13.182205    47.685971    40.143825 
57172000    276.01591    327.86587    259.91409   -13.292529    11.970744    67.951783    40.142288 
57176000    278.27354    327.68468    290.98408   -11.370295    9.4152909    36.700593    40.143244 
57180000    282.87698    336.44168    292.50678   -12.299557    10.146077    43.934907    40.141101 
57184000    280.88875    342.54124    264.47193   -12.783362    11.573619     78.06931    40.139744 
57188000    275.05455    317.46353    283.65223   -11.647704      10.6577    33.811301    40.139234 
57192000    274.46008    343.57062    268.02942   -12.589135    11.899752    75.541194    40.142715 
57196000    278.16281    321.71264    294.82835   -12.762007    11.531924    26.884292    40.142912 
57200000    279.64588    331.60547    285.37692   -12.099742    11.409783    46.228551    40.144882 
57204000    285.28722    332.89465    289.34772   -12.045369    11.123717     43.54693    40.142375 
57208000    274.14975    315.45257     279.7279   -10.116441    12.169522    35.724663    40.136674 
57212000      271.662    299.63488    284.89819    -11.52183    10.967507    14.736687    40.130573 
57216000    271.48589    292.79888    289.09461   -9.5412667    10.411427    3.7042681    40.130087 
57220000    271.58336    309.45028    278.74665   -12.136336    10.903075    30.703626    40.128136 
57224000    279.69103     318.5645    290.14692   -10.793412    10.805501    28.417574    40.129094 
57228000    273.25302    331.63407    288.30956   -11.998274    10.163399    43.324507    40.132264 
57232000    280.28102    341.81077    297.86358   -12.378693    10.754321    43.947189    40.132357 
57236000    271.34081     324.2008     274.2004   -11.223814    11.172285    50.000405    40.135261 
57240000    275.53017    312.90023    285.30808   -10.964844    10.562146    27.592148    40.135826 
57244000    266.91205    319.14593    275.44409   -11.948936    11.290368     43.70184    40.135759 
57248000    269.11541    322.46645    260.30354   -10.743696    12.689641    62.162916    40.135146 
57252000    282.02074     318.1494    301.04728   -11.017619    9.3348535    17.102121    40.133639 
57256000    284.79472    325.57913    302.53581   -12.458318    9.5307341    23.043319    40.130471 
57260000    281.98308    327.98318    291.64159   -12.610835     11.01232    36.341587    40.132862 
57264000     273.3706    312.30812    274.91599   -11.169375    11.538478    37.392133    40.132656 
57268000    273.91759    308.83638    295.42117   -10.954338     11.98413    13.415214    40.131785 
57272000    272.98148    322.59068    264.75668   -12.236251     14.08599    57.833997     40.13444 
57276000    275.30444    318.33791    290.46237   -11.920206    11.440893    27.875542     40.13458 
57280000    278.79015    332.09982    293.62485   -12.344105    10.917789    38.474962    40.138535 
57284000    269.58279    311.84588    276.21462   -11.616256     11.37139    35.631259    40.139412 
57288000    267.78519    313.06587    247.35634   -11.637446    12.428152    65.709535    40.136026 
57292000    273.47488    294.99585     313.7172   -11.584226    9.9610277   -18.721343    40.133256 
57296000    272.75533    332.53412    263.80686   -12.649224     12.16338    68.727265    40.131159 
57300000    276.34516    349.61193    273.10469   -12.063541    11.406323    76.507244    40.129513 
57304000    276.03926    339.28976    273.40338   -12.139832    11.972699    65.886379    40.129829 
57308000    268.41554    312.03473    282.21447   -10.373956     11.08251    29.820265    40.127245 
57312000    275.50891    319.47285    283.98437    -11.77095    10.511831    35.488473      40.1277 
57316000    266.15096    328.23999    261.75577    -11.00759    12.843142    66.484216    40.129012 
57320000    268.94184    315.90462    287.47417   -11.925042    11.789045    28.430458    40.129555 
57324000    275.68549    337.09599    265.38367   -11.362075    11.943285    71.712319    40.131709 
57328000    271.45238    308.94435    276.29902   -10.228523    11.547466    32.645328    40.130346 
57332000    272.46233    325.43374    263.31818   -11.959587    11.799772    62.115557    40.131643 
57336000    275.77844    335.27028    273.57472   -11.929256    11.253974    61.695562    40.130753 
57340000     268.1295    303.42157    279.39972   -11.259965    11.701447    24.021848    40.135028 
57344000    271.89037    309.76583     273.0002   -9.6918275    10.281323    36.765634    40.139527 
57348000    261.29655    297.71038    263.69957   -11.534462     10.80528    34.010819    40.136133 
57352000    277.40611    315.57042    263.64693   -12.357515    11.705437    51.923485    40.136306 
57356000    270.45786    304.64998    272.83676   -10.715113    12.076655    31.813218    40.133683 
57360000    275.50342    333.30191    264.92649   -12.024001    12.563088    68.375417    40.134123 
57364000    276.27765    332.61155    276.41006   -12.179474    11.579734     56.20149    40.135215 
57368000    273.25543    331.49083    279.61659    -12.33815    12.861243     51.87424    40.135787 
57372000    279.81188    323.32567    293.28964    -11.77489    11.274921    30.036036    40.136492 
57376000    274.39213    331.96262     264.1344   -12.635889     11.37755    67.828219    40.138774 
57380000    274.73541    333.11759    252.50971   -12.297835    11.880565    80.607885    40.139514 
57384000    277.79656    328.42095    272.62565   -11.414778    10.592126    55.795293     40.13889 
57388000     277.7839    345.75952    279.01328   -11.405823    10.923603    66.746235    40.142865 
57392000    280.70679    311.74928    305.99354   -10.678015    8.6631992     5.755741    40.137753 
57396000    282.29334     329.6298    286.90874   -12.041002    10.781175    42.721057    40.138531 
57400000    271.81702    334.45797    258.84829   -11.726467    11.920779    75.609675    40.139634 
57404000    280.61431    348.43725    272.38521   -12.513894    11.117734     76.05204    40.139354 
57408000    272.67459    319.29383    256.92419   -11.473893    11.792715    62.369643      40.1391 
57412000    274.04262    317.86185    287.58794   -11.498371    10.749554    30.273911    40.139953 
57416000     269.7814    308.25013    279.39124    -11.34435    11.019774    28.858885    40.138495 
57420000    275.33828    298.51886    289.29805   -10.628593     10.04146    9.2208083    40.137524 
57424000    266.02226    315.28359    252.47382   -12.355934    12.577904    62.809777    40.136974 
57428000    269.33019    299.60817     280.8033    -10.76201    11.592804    18.804873    40.138373 
57432000    278.83549    316.10875    299.77057   -11.002079    10.449747    16.338179    40.135182 
57436000     270.4621    324.59802     282.5685   -11.411276    10.111376    42.029525    40.131416 
57440000    275.27554    322.29123    287.10528   -11.363935    12.035664    35.185955    40.132344 
57444000    278.83557    341.63278    272.95112   -13.834555    11.114643    68.681665    40.133442 
57448000    269.93351    314.89326    267.66565   -11.976263    10.959191     47.22761    40.131827 
57452000    265.82726    309.68225    271.60207   -12.540067    11.988436    38.080174    40.133068 
57456000    275.88926    325.64745    277.35784   -11.711538     11.31642    48.289608    40.131501 
57460000    280.39678    341.35585     290.7418     -12.7791    11.207797    50.614041    40.133705 
57464000    278.18181    317.85299    298.16787   -12.479397    10.870775    19.685113    40.133032 
57468000    279.26328    329.61256    288.64811   -13.896105    10.275231    40.964454    40.134857 
57472000    270.87851    308.99265    271.36681   -12.178768    11.607712    37.625837    40.137519 
57476000    270.10301    324.91514    277.42048   -12.300464    12.535909     47.49466     40.14099 
57480000    272.53538    331.89234    270.90651   -12.691619    12.186102    60.985832    40.142438 
57484000    272.58308    316.76851    258.62141   -11.950925    12.560426    58.147093    40.144597 
57488000    269.77968     312.8198    254.72751   -10.658943    13.262281    58.092291    40.144591 
57492000     276.6557     325.3964    280.43118   -11.995279    11.510316    44.965225    40.145121 
57496000    277.74967    315.11881    290.56666   -12.603881    10.281701    24.552153    40.146195 
57500000    269.50107    308.80075    266.05978   -12.070148    12.809661    42.740968    40.143816 
57504000    278.09725    304.19578    272.44068   -11.807292    11.679822    31.755098    40.143946 
57508000    271.52486    303.12839    282.08089   -12.487818    11.016159    21.047501    40.144869 
57512000    263.44019    302.02296    254.07612   -10.795269    12.888408     47.94684    40.144699 
57516000    280.41169    317.01813    286.91726   -11.610499    11.143244    30.100864    40.148147 
57520000    263.72188    288.49718    285.22858   -9.7991392    11.260266    3.2686011    40.151041 
57524000    289.98283     343.1307    300.48595   -12.751282     10.42805    42.644747    40.148809 
57528000    273.33163    334.74668    268.39158   -12.005484    11.853855    66.355102    40.150702 
57532000     278.1522    311.63335    300.67184   -11.848651    9.6267702    10.961515    40.148345 
57536000    274.16028    307.42413    286.09769   -10.999071    11.728511    21.326434     40.14571 
57540000    275.47391    314.37537    284.45263   -10.735118    12.121009    29.922742     40.14583 
57544000    267.97821    313.17459    285.39941   -12.017706     12.18151    27.775177     40.14701 
57548000    275.47185    332.51679    294.52988    -11.62784    12.065842    37.986913    40.145891 
57552000    267.12965    322.56489    270.56008   -10.641452    12.911902    52.004809    40.143921 
57556000    265.61479    309.68051    284.58502   -10.675324    11.917965     25.09548    40.143268 
57560000    272.31928    330.84369    273.18312   -10.683685    12.836148    57.660577    40.144584 
57564000    270.52709    321.12302    283.49496   -11.496684    12.463337    37.628063    40.143113 
57568000     264.5476    310.01482    274.54237   -11.175254      13.3525    35.472448    40.143205 
57572000    270.94458    344.82485    262.45699   -12.935984    13.026374    82.367868    40.143476 
57576000    283.01645    315.23885    301.10563   -11.708919    10.818174     14.13322    40.143073 
57580000    271.05139    320.10154    279.67225   -12.288451    12.604352    40.429291    40.140611 
57584000    274.05561    304.15647    285.24115   -12.831119    12.029728    18.915317    40.140704 
57588000    276.44974    332.17391    287.64414   -13.584787    10.926258    44.529776    40.144284 
57592000     276.2705    319.08233     295.6109   -11.948549    10.949671    23.471428    40.145286 
57596000    271.32893    316.12346    279.41519    -11.26028    12.202451    36.708265    40.147354 
57600000    276.44252    332.55198    288.02432   -11.273584    11.233952    44.527667    40.147285 
57604000    271.08339    313.00396    262.42714   -12.817371     11.18233    50.576821    40.147693 
57608000    276.01427    310.20246    262.72066   -12.334391    12.103611    47.481799    40.149952 
57612000    272.47548    294.47953    280.61241   -10.728774    11.064118    13.867115    40.148409 
57616000    288.55083     328.6053    301.55585   -13.250303    10.117212    27.049454    40.149712 
57620000    272.79599    324.59315    281.69937   -13.889303    11.382009    42.893772    40.151308 
57624000    279.96731    310.94025    294.96435   -12.113384    10.711768    15.975901      40.1499 
57628000    273.51181    316.05821     267.0452   -11.809871    10.951738    49.013011    40.148467 
57632000    278.00924    314.55964    298.06603    -11.77275    9.0486467     16.49361    40.148501 
57636000    278.43574    332.72857    275.45622   -12.987427    9.5894212    57.272351    40.147488 
57640000    280.78816    327.34365    301.44246   -13.037735    9.4606626    25.901188    40.149437 
57644000    275.21226    310.03235    275.43546   -11.477813    11.664994    34.596893    40.148704 
57648000    272.11245    302.71532    275.05021    -11.72356      11.5955    27.665109    40.147345 
57652000    275.64122    304.62486    280.81637   -12.312141     10.71481    23.808494    40.147053 
57656000    276.96853    313.87863    288.27014   -12.668206    10.736141    25.608495    40.147007 
57660000    281.27593    328.33643     282.2232    -13.36273    11.043063    46.113228    40.144843 
57664000     274.4547    312.06185    279.02988   -11.674591     11.20928    33.031967    40.146768 
57668000     278.9406    332.10457    285.80088    -12.38734    10.178094    46.303694     40.14825 
57672000    279.46623    324.97001     282.8626    -13.30163    11.171741     42.10741    40.149731 
57676000    278.59734    339.73165     270.4226   -13.006473    11.868535    69.309058    40.151442 
57680000    277.73852    317.86684    292.27819   -13.461509    11.294824    25.588647    40.149636 
57684000    270.28472    313.70652    293.78972   -11.925568    11.358783    19.916802    40.153201 
57688000    268.57631    329.92202    272.31961   -12.655688    12.682953    57.602406    40.154733 
57692000    269.88005     310.9491    258.31542   -12.774748     13.13464     52.63369    40.157033 
57696000    271.09554    333.53812    277.44593   -12.632249    11.387874    56.092189    40.155281 
57700000    284.52487    332.46555    288.48686   -13.663357    11.421863     43.97869    40.157407 
57704000    269.77181    314.54045    268.59277   -11.827545    12.575123    45.947682    40.158667 
57708000    280.03457     335.3871    287.12071   -13.315857      11.5626    48.266388    40.158551 
57712000    272.12597    312.74919    277.44187   -13.346423    11.340833    35.307323    40.159258 
57716000    275.53749    311.78854    277.46814   -11.527391    11.481985    34.320395     40.15851 
57720000    272.82142    316.58729     297.8843   -11.285205    9.8591664    18.702998    40.158145 
57724000     280.1347    330.56325    282.10948   -12.310027    11.793091    48.453771    40.159852 
57728000    263.90737    299.09268     267.1002   -10.337434    12.134737    31.992473    40.159494 
57732000    279.85063    325.41127    292.64062   -11.667113    10.214655    32.770654    40.159416 
57736000     271.7685    316.24052    283.20591   -11.574113    12.108673    33.034615    40.161783 
57740000    275.14511    297.77885    289.73034   -10.037236     11.13428    8.0485056    40.161556 
57744000    275.72257    308.07796    282.63944    -10.13343    11.310997    25.438526     40.15942 
57748000    273.16864    295.07439    302.73734   -9.6620268    9.8243145     -7.66295    40.161538 
57752000    273.79962    322.57698    283.92554   -12.529064    10.712496    38.651445    40.161102 
57756000    273.94239    314.62077    289.79881   -10.797405      11.3681     24.82196    40.159778 
57760000    279.10764    329.18966    275.20979   -12.569876    12.343074    53.979874    40.161495 
57764000    272.00492    327.72824    263.58499   -12.001846    11.775077    64.143254    40.162099 
57768000    276.13811    323.32704    283.14162    -11.54289    10.465741    40.185421    40.159234 
57772000    274.62185    310.35135    290.07782    -11.46723    10.362331    20.273535    40.158338 
57776000    274.30687     338.6551    262.52475   -11.948582    10.413381    76.130355    40.159394 
57780000    283.86542     331.7214    303.60565   -12.312241    9.0240187     28.11575    40.154599 
57784000    285.26044    331.52682    292.02855   -11.516918     9.512267    39.498271    40.154136 
57788000    283.47126    320.75954    288.74531    -12.08117      10.2934    32.014226    40.153052 
57792000     278.8288    346.86243    280.84792   -12.419422    11.528957    66.014505    40.154823 
57796000    271.52632    306.16809    275.71016   -12.220193    11.132581    30.457934    40.153412 
57800000    271.51731    278.76252    278.85881    -11.32007    10.579987 -0.096288687    40.151704 
57804000    277.40924    297.37979    287.37723   -11.126975     12.01749    10.002555    40.150268 
57808000     282.7683      316.573    312.70192   -11.944575    8.8460808    3.8710753    40.147989 
57812000    277.63237    305.09624    286.56231    -12.72741    10.572636    18.533928    40.150533 
57816000    275.89466      324.545    284.80902   -12.612751    10.573172    39.735972    40.147823 
57820000    284.02571    344.10879    285.98566   -13.587816    11.419746    58.123134    40.148335 
57824000     276.4119    317.41473    263.58454   -13.098696    11.825378    53.830186    40.147903 
57828000    271.30797    289.00208    272.22942   -11.008378    10.631984    16.772666    40.147754 
57832000    273.16127    315.19862     284.2838   -12.373207    10.552584    30.914824    40.149227 
57836000    276.55308     317.1214    293.09093   -12.182303    9.7797335    24.030467    40.150876 
57840000     282.1556    332.22601    301.80569   -13.812655    10.921135    30.420314    40.149496 
57844000    269.48242    317.32145    267.60529   -12.768373    11.774802    49.716166    40.150986 
57848000    279.42879    310.51338     292.0244   -12.648825    11.103272    18.488979    40.150587 
57852000    279.43647    328.13515    267.78264   -13.331961    12.060482     60.35251    40.153687 
57856000    280.13192    341.82294    277.80999   -14.564666     11.48861    64.012947    40.156589 
57860000    270.34945    293.60053    273.48678   -11.773852    11.459366    20.113753     40.15642 
57864000    281.29544    359.02206    283.63295   -14.333665    11.222643    75.389108    40.159026 
57868000    276.94943    320.02957    301.16338   -12.768835    10.168926    18.866182     40.15871 
57872000    273.54024    313.85198    278.61936   -12.295351    12.319817    35.232617    40.154929 
57876000     273.6762    313.87361    284.70669   -12.256832    11.196488    29.166925    40.155897 
57880000    269.71561    309.91669    282.75099    -13.07648    11.363968    27.165705    40.155116 
57884000    281.25066    338.74628    284.13393   -14.881621    11.338819    54.612353    40.156049 
57888000    280.93966    334.49408    285.96547    -14.07343    13.578955    48.528612    40.156878 
57892000    281.97307    331.72273    285.27966    -13.75671    12.135904    46.443073    40.154412 
57896000    275.90358    325.41298    279.55225    -13.41788    13.569952    45.860724    40.155359 
57900000    281.89831    351.64402    249.82736   -14.746395    13.780188    101.81666    40.156745 
57904000    284.10874    328.96034    284.11855   -14.473863     12.89042     44.84179    40.155425 
57908000    274.00995    327.70605    267.13579   -14.599713     14.06897    60.570255    40.156543 
57912000    272.69528    316.92916    280.51177   -13.979882    12.892082     36.41739    40.156943 
57916000    275.95402    322.63267     283.1451   -13.725327    13.594305    39.487566     40.15893 
57920000     269.7911    299.04411    266.51795   -12.692845    13.380731     32.52616    40.160902 
57924000    265.42884    308.00426    273.69612   -11.824929    13.147658    34.308135     40.15875 
57928000    277.02053    322.43254     295.8302   -13.488029    11.472636    26.602349    40.157462 
57932000    275.23278    327.45963     261.3207   -13.908248    14.044594    66.138926     40.15644 
57936000     279.2818    348.27006    283.14529   -12.837356    12.445937    65.124768    40.157484 
57940000    265.37885    312.43036    288.06932   -10.654907    13.277844    24.361033    40.155634 
57944000     270.7896    316.97534     284.9151    -12.35305    12.575228    32.060236    40.151779 
57948000    265.85432    327.27527    256.92321   -12.399434    13.598516    70.352056    40.150385 
57952000    272.06377    327.55285    254.72849   -12.276635    14.256677    72.824366    40.151536 
57956000    272.58314    320.16896     294.7823   -11.373847     12.47552    25.386656    40.150167 
57960000    268.47753    305.24661    289.45238    -11.00367    12.205455    15.794235    40.150801 
57964000    270.10896      296.307    276.62018   -11.359382    12.653865    19.686825    40.151907 
57968000     269.8728    326.19442    264.82137   -12.474379    13.664934    61.373043    40.152708 
57972000    271.79714    307.52889    291.34935   -10.901094    12.408639    16.179543    40.152641 
57976000    257.82745     298.7035    253.13549   -11.046422    14.224593     45.56801    40.153285 
57980000    275.16159    322.41818    271.38435   -12.466903    14.531837    51.033828    40.153309 
57984000    282.77054    323.69672    306.38985   -13.276658    12.418233    17.306874    40.153065 
57988000    280.98877    329.70471    288.13745   -14.160213    12.926378    41.567256    40.152373 
57992000    275.21226    315.50416    280.12815   -13.494259    13.796178    35.376007    40.153866 
57996000    275.75231    316.93569    282.78967   -13.809891    14.006476    34.146014    40.152369 
58000000    276.78737    310.79979    288.67265   -12.509638    12.917552    22.127138    40.150962 
58004000    273.72926    332.71827     276.6942   -14.198335     13.69081    56.024067    40.151846 
58008000    281.55102    363.31792    262.85251   -16.320401    15.279936    100.46541    40.154477 
58012000    265.98154    334.54755     265.3334   -15.166672    15.475877    69.214147    40.155368 
58016000    278.95314    323.05797    299.31693   -14.612418    13.788901    23.741045    40.155407 
58020000    280.31037    321.20559    288.17148    -13.83746    14.281426     33.03411    40.156888 
58024000    271.34793    311.01265    273.99969   -12.835503    14.217314     37.01296    40.154851 
58028000     280.0214    305.22466    302.59859   -12.409963    12.532415    2.6260741    40.154779 
58032000    272.79892    350.31415    277.56949   -15.254178    14.633895    72.744662    40.153479 
58036000    273.85681    321.03505    282.06447   -14.283203    14.262201     38.97059    40.151289 
58040000    286.95925    334.49024    314.46273   -13.920389    12.677529    20.027512    40.152556 
58044000    273.36595    328.64323    277.00762   -14.611261    14.214506    51.635617    40.149168 
58048000    272.00912    310.24253    283.70421   -12.283571      14.0343    26.538322    40.149585 
58052000    276.61606    317.18943    273.53669   -13.323238     14.92339    43.652735    40.151662 
58056000    273.78101    329.22937    290.90862   -12.882065    13.709873    38.320745    40.153529 
58060000    278.51076    325.95341    289.99751    -13.60307     13.98058      35.9559    40.152708 
58064000     279.1382    322.03405    290.48023   -13.591954    14.668794    31.553814    40.153538 
58068000    286.21005    346.69749    304.94117   -14.189612    14.001869    41.756321    40.154073 
58072000    269.11658    311.09673    284.23521   -13.968198    14.454397    26.861515    40.151633 
58076000    278.62292    335.27015    285.19998   -14.513791    15.041993    50.070168    40.149068 
58080000    267.60519    308.68115    280.01952   -14.230822    13.904773    28.661624    40.146775 
58084000    269.37812    311.00517    268.87432   -13.690592    15.535927    42.130848    40.144217 
58088000    270.56209    316.08408    273.69014   -13.832414    14.435145    42.393941     40.14411 
58092000    273.04524    327.61582    256.19543   -13.926709    15.244534    71.420388    40.145939 
58096000    279.67121    337.48211    299.65011   -15.576429    13.355832    37.832008    40.146036 
58100000    276.69076    319.32106    281.35848   -13.480896    14.593583    37.962583    40.144598 
58104000    269.81835    311.82155    280.94929   -13.408349    14.138476    30.872256     40.14633 
58108000    276.98951     338.4079    292.55814   -15.143421    14.048208    45.849757     40.14787 
58112000    278.45798    317.75281      293.151   -15.333419    13.887403    24.601809    40.149379 
58116000     272.5913    322.74717    276.74652   -14.897975    14.498322     46.00065    40.147412 
58120000    277.31054    344.08502    282.95587   -16.023847    13.971834    61.129141    40.147653 
58124000    270.56324    326.18073    257.06266   -14.761111    15.086914    69.118062    40.149254 
58128000     259.6874    307.76591    273.44197   -13.492763    15.316535    34.323942    40.147802 
58132000    275.42905    293.74294    310.13018   -12.744688     14.10552   -16.387238    40.148155 
58136000    279.40812    319.52767    296.04481   -14.241533    14.650975    23.482858    40.145435 
58140000    262.63795    318.75753    254.32198   -14.082052    16.337245    64.435556    40.145298 
58144000    263.95902     320.2448    266.32936   -14.745179      16.6157    53.915439    40.148445 
58148000    263.62846    312.12003    263.33773   -13.570544    15.504638    48.782307    40.147774 
58152000    275.21411       325.13    274.06118   -15.001735    15.137333    51.068817    40.148883 
58156000    276.93145    322.77506    266.14441   -15.354828    15.709033    56.630651    40.147279 
58160000    281.98239    316.27176    285.31881   -15.199593    14.289298    30.952951    40.144979 
58164000    277.92857    327.96899    294.98721    -15.29864    14.342349    32.981785    40.143357 
58168000    268.94849    296.56875    282.97472   -12.964436    14.912218    13.594028    40.138573 
58172000     269.3994    298.95691    301.06311   -12.988207     15.43702   -2.1061998    40.137673 
58176000    270.40719     286.5961     301.2505   -12.549506    14.547576   -14.654396    40.137179 
58180000    269.02415    321.29016    287.15022   -14.344192    15.468826    34.139933     40.13767 
58184000    276.14851    343.64299    282.61236   -16.313103    14.808868    61.030631    40.137753 
58188000    277.87355    332.50104    277.15556   -15.407822    14.597177    55.345479    40.136052 
58192000    276.87088    301.98046    295.48603   -14.014333    13.505261    6.4944277     40.13506 
58196000    282.43978    329.74986    278.19341   -16.108359    14.336948    51.556455    40.134144 
58200000    272.48955    306.14779    264.78355   -13.943109    14.562785    41.364232    40.134475 
58204000    283.02695    335.00969    286.50159   -15.543678    14.692997    48.508103    40.132616 
58208000    277.29786    311.87071    282.86173   -14.979744    14.680081     29.00898    40.131797 
58212000    278.70861    315.48501    295.84815   -15.147579    14.030258    19.636857    40.133109 
58216000    281.72848    339.13196    291.03901   -16.066473    14.095609    48.092953     40.13249 
58220000     271.4302    302.60705    272.38707   -15.819287    15.259305    30.219988     40.13261 
58224000    272.93762    315.17856     288.0417   -15.140284    14.994724    27.136861    40.131886 
58228000    278.20371    314.18796    289.57852   -15.761882    14.272389    24.609439    40.128324 
58232000    282.07952    324.24597    284.14401   -16.664882    14.000785    40.101958     40.12954 
58236000    288.39154    350.52483    310.32724    -17.53624     12.95779    40.197591    40.127753 
58240000    272.25014    328.21919    291.05816   -15.659434    13.001109    37.161038    40.129336 
58244000    278.83869    307.27116    284.76229   -15.469394    14.024998    22.508877    40.127142 
58248000    271.39366    313.50445    274.24998   -14.608764    14.370678    39.254467    40.131086 
58252000    280.92722    345.90382    300.87227   -15.947328    13.919964    45.031552    40.130593 
58256000    274.93383    320.61411    301.75628   -15.694208     14.04132    18.857832    40.131762 
58260000    274.32203    312.93621    288.24705   -14.233439    15.318502    24.689157    40.133152 
58264000     273.8683    325.13038    284.77673   -15.200158    16.068644    40.353647    40.131557 
58268000    263.99083    323.65355    265.82217   -14.566405     15.93523    57.831382    40.131489 
58272000    270.48443    328.33087    263.79409   -16.094986    15.834827    64.536778    40.129336 
58276000    277.12516    322.77687    286.14784   -15.042517    13.751791    36.629034    40.127816 
58280000    267.69129    319.91545    267.19198   -15.520046    15.464308    52.723469    40.131017 
58284000     271.7977    339.32687    306.65378   -14.833181     14.65543    32.673096    40.131683 
58288000    270.63146    291.30287    301.11782   -12.765556    13.844417   -9.8149502    40.128545 
58292000    278.98311    323.97257    272.97737   -14.016138    15.804917    50.995198    40.125969 
58296000    277.55828    309.41455    311.67809    -13.46144    14.116272   -2.2635416    40.127779 
58300000    271.68248    329.30249    288.79742   -15.078995    14.518471    40.505078    40.127861 
58304000    270.36282    298.14342    273.33284   -13.792708    15.533659    24.810581    40.128946 
58308000    264.38922    311.63056    292.55092   -14.709517     14.49109     19.07964    40.128185 
58312000    276.64715    336.70107    280.82982   -16.388014      14.6562    55.871248    40.127407 
58316000     273.2219     304.1209    277.06887   -15.246458    15.386356    27.052035    40.127857 
58320000    283.31816    343.01849    297.74172    -17.48634    14.597269    45.276773    40.131173 
58324000    278.28813    317.55809    285.68514   -15.588543    15.623556    31.872956    40.128224 
58328000    273.89977    317.37115    270.78364   -15.687121    15.309624    46.587502    40.127718 
58332000    270.43589    313.74365    274.76591   -14.097286    15.077504     38.97774    40.127502 
58336000    275.47198    320.45924    280.59419   -15.844299    15.309665    39.865046     40.12595 
58340000    276.99396     311.0288    293.94428   -15.473956    13.867803    17.084522    40.125023 
58344000     273.4106    313.61463     288.7269   -16.193331    14.229265     24.88773    40.124259 
58348000    272.77805    324.20218    279.74973   -15.995999    15.380394    44.452453    40.124556 
58352000    266.04742    315.31926     262.1235   -16.520938    15.329644     53.19576    40.125575 
58356000    269.28791    315.54724    265.06082   -17.089147    15.638459    50.486427    40.124871 
58360000    284.24857    330.87764    280.49549    -16.53844    14.436843    50.382148    40.124856 
58364000    279.34546    331.52257    282.64543   -17.899672    13.736379     48.87714    40.122535 
58368000    275.59518    319.56065     273.9999    -15.57281    14.515905    45.560746    40.124221 
58372000    274.94449    327.86185     289.8724   -15.134757    13.205468     37.98945    40.124359 
58376000    278.08194    315.58551    288.48844   -14.157568    13.621755     27.09707    40.124675 
58380000    272.10822    290.74991    295.23083   -13.990973    13.870634   -4.4809194    40.124386 
58384000    272.87958    308.72276    282.63315   -15.187951     13.95233    26.089606    40.126864 
58388000    276.14169    312.88571    293.14372   -15.354839    13.132435    19.741982    40.128704 
58392000    285.96187    341.55254    287.93617   -16.689221    12.772532    53.616372    40.130327 
58396000    278.47451     338.8504    262.36962   -17.558082    14.600675    76.480778    40.131928 
58400000    276.84766    330.80835    282.42296    -16.08549    12.839238     48.38539    40.132238 
58404000    274.09623     312.7345    286.55976   -15.767971    13.793266    26.174746    40.134497 
58408000    278.28989    315.73713    295.81503   -14.783035    13.257569    19.922103     40.13135 
58412000    275.16879    325.58542    269.27269    -15.62688    14.794357    56.312724    40.132584 
58416000    272.83122    310.53221    268.70797   -14.541042    14.694071    41.824243    40.131891 
58420000    280.52046    324.45066    267.47068    -16.03258    14.746478     56.97998    40.130355 
58424000     277.6727    324.83864    281.62288    -16.48047    14.735161    43.215759    40.130564 
58428000    276.15293    299.93795    291.16799    -14.91446    13.344955    8.7699633     40.12942 
58432000    279.74126    323.10792    296.07918   -15.093328    13.071328     27.02874    40.126234 
58436000    276.08339    318.85811    278.49822   -15.260009       12.572    40.359895    40.127461 
58440000    281.44492    321.01882    295.52053   -15.175189    12.932826     25.49829    40.126503 
58444000    279.70666    319.44909     281.0547    -16.25097    13.588447    38.394391    40.125988 
58448000    273.83594    327.63632    269.70715   -15.924453    13.844288    57.929167    40.125236 
58452000    279.92579    315.54432    269.17602   -14.474027    14.166067    46.368297    40.124678 
58456000    279.99848    332.95517    257.21954   -15.336549    14.307402    75.735633    40.123248 
58460000    285.27899    325.32656    286.65772    -14.74531    13.936659    38.668845    40.123744 
58464000    285.47496     329.5951    302.69695   -15.696051     13.92007    26.898147    40.125372 
58468000    269.54864      320.207    260.29827   -15.378573     15.03458    59.908728    40.125864 
58472000    273.40017    322.94342    267.66489   -15.425151    14.881842    55.278532    40.127044 
58476000     278.8889    326.53492    278.10122   -15.299599     15.07676    48.433704    40.126986 
58480000    284.80601    326.22065    294.64232   -15.109609    13.728779    31.578329    40.127723 
58484000    275.55847    321.80573    281.69835   -15.610605    14.886196    40.107381    40.129023 
58488000    281.31764    338.62966    304.30139   -15.687138    12.985337    34.328268    40.130048 
58492000    266.90589    304.46355    279.39112    -15.02444    13.983863    25.072435    40.129229 
58496000    270.44939     305.3585    281.42044     -14.3263    15.114168    23.938055    40.131015 
58500000    272.62505    308.02361    276.45159   -14.471486    15.515594    31.572015    40.132122 
58504000    268.01235     299.5383    265.52564   -14.161867    15.463632    34.012663    40.132544 
58508000    282.49778    333.30397    298.85433   -14.651541    14.790066     34.44964    40.132065 
58512000     269.8508    303.13119    281.54685   -12.893887    14.838512    21.584341    40.131436 
58516000    279.82505    327.98072    287.32271   -14.347934    15.177739     40.65801     40.13255 
58520000    275.64098    326.48987    293.18928   -15.122043    14.686715    33.300596    40.133168 
58524000    273.16777    309.59567     265.5766   -13.920347    15.850229    44.019071    40.131679 
58528000    258.32556    304.95434    249.80159   -14.465251    15.803873    55.152748    40.132315 
58532000     274.1349    317.11654    292.67234   -13.659648    14.056923    24.444197    40.133185 
58536000    279.56364     324.5812    281.69968   -14.488077    14.244684     42.88152    40.135309 
58540000     262.7527    298.67243    280.82748   -13.080308    15.012724    17.844949    40.135801 
58544000    266.50551    315.98314    275.24955   -14.696611    15.946108    40.733592    40.137519 
58548000    268.30476    306.41566    291.62761   -13.943548    15.563844    14.788051    40.139085 
58552000    266.69168    308.19672    273.24208   -14.541961    15.862897    34.954639     40.13936 
58556000    278.86467    321.25689    273.89199   -15.421919    14.779574    47.364898    40.135663 
58560000    271.92124    307.30487     283.1692   -14.495173    14.168547    24.135677    40.135313 
58564000    273.23021    302.67828    278.83478    -15.22775    14.978956      23.8435    40.130484 
58568000    288.19496    353.30654    312.94187   -17.212869     13.53327    40.364665    40.130734 
58572000    276.20905    318.49392    297.86965   -14.972762    13.523827    20.624267    40.128588 
58576000    281.26042    315.76067    284.07282   -14.417813    14.765141    31.687848    40.126697 
58580000    270.79571    319.89808    280.71023    -14.13665    14.056584    39.187852     40.12491 
58584000    261.87733    268.51577    274.67615   -12.659149    14.611594   -6.1603815    40.124413 
58588000    271.66629      310.684    270.82963   -14.991893     15.38377    39.854374     40.12429 
58592000    268.19722    320.97603    277.64656   -15.176928    14.716321    43.329462    40.124712 
58596000    271.71782    324.42592    268.87181   -15.583352     15.39397    55.554111    40.125301 
58600000    271.75518    328.79785    270.38083   -14.767621    14.341002    58.417013    40.125278 
58604000    272.71001    309.70621    283.95254   -14.821572    15.193414    25.753664    40.124869 
58608000    282.68321    342.20013    279.56387   -15.500417    15.128495    62.636263    40.127576 
58612000    277.41708    323.30134    292.11276   -14.485618    14.802035    31.188583    40.128355 
58616000    270.80565    318.75929    272.93671   -15.176013    15.610284     45.82258    40.125836 
58620000    269.05605    323.28671    298.73787   -14.186158    14.519524    24.548831    40.126309 
58624000    275.35023    313.73344    287.71698   -14.447021    15.857594     26.01647    40.124806 
58628000    272.39992    316.31021    278.65931   -14.998962    16.327019    37.650899    40.125647 
58632000    265.46229    291.88243    278.83824    -12.63353     15.93466    13.044182    40.125994 
58636000    274.18022    329.04006    281.66549    -14.03886     16.12106    47.374562    40.124958 
58640000     283.2157    353.59153    296.81288   -15.567539    13.774678    56.778649    40.124999 
58644000    277.84603    322.72502    298.87687   -15.266421    14.372254    23.848158    40.125142 
58648000    264.52486    297.15406    276.54063   -13.866509    15.340966    20.613431    40.126788 
58652000    274.61433    323.18187    284.72813   -13.407302    14.738947    38.453736    40.126196 
58656000     269.6634    308.53204    272.02145   -12.989552    16.158707    36.510587    40.125386 
58660000    278.75592    333.40391    296.37985   -14.379628    13.882334    37.024062    40.127145 
58664000    277.30319    341.12173    268.75183   -14.180125    15.736282    72.369902    40.127557 
58668000    274.24292    341.53204    274.67335   -15.109309    15.095549    66.858684    40.126622 
58672000    280.77991    359.92428    274.70901   -15.997619    14.246926    85.215271    40.128026 
58676000    268.88662    303.79247    289.35487   -14.287089    14.858851    14.437596    40.126889 
58680000     265.0659    313.52929    267.99098   -14.229471    15.416837    45.538302    40.128207 
58684000    282.88331    346.69266    264.82764   -14.993986    14.963037    81.865023    40.130601 
58688000    263.24229     309.1418    278.85755   -14.579499    15.074272    30.284246    40.132102 
58692000     265.5235    287.52583    284.97672    -12.44426    13.936892    2.5491006    40.130973 
58696000    282.53694    330.73824    275.29393   -14.673474     14.03408    55.444315     40.13094 
58700000    263.20785    300.43771    269.56551   -14.008289    15.355471    30.872205    40.129922 
58704000    272.75706    321.32105    276.62176   -14.939149    16.233703    44.699289    40.131589 
58708000    270.95785    307.67405    290.04583   -15.362523    14.860171    17.628227    40.131547 
58712000    279.93864    334.96794    279.73035   -15.467384    15.486362    55.237592    40.133958 
58716000    267.27133     301.9851    282.64714   -13.503078    15.909393    19.337962    40.133977 
58720000    276.86403     321.4264    305.97154   -14.354576    14.098967    15.454864    40.136823 
58724000    271.48949    330.02364    275.05648   -14.569179    15.399127    54.967157     40.13551 
58728000    281.48872    337.40726    287.94372   -15.847192    15.843262    49.463545    40.136167 
58732000    262.09013    306.70581    266.50858   -14.248902    16.191439    40.197223    40.134492 
58736000    265.61575    307.59785    283.45547   -14.452399    15.571313    24.142375    40.134128 
58740000    267.74472     310.2388    278.56069   -14.386761     15.67575     31.67811    40.132371 
58744000    264.18942    332.89382     260.6411   -15.248587    17.485945    72.252721    40.133237 
58748000    268.90456     319.7867     275.1345   -14.597008     15.52317    44.652204    40.130114 
58752000    267.17397    307.83636    274.59542   -13.922674    15.409838     33.24094     40.12921 
58756000    276.77905    339.17036    287.74545   -15.173714    15.419021    51.424906    40.129112 
58760000    271.80823    341.81806    272.18826   -14.965551    16.414068    69.629803    40.130348 
58764000    265.88652    321.89691    278.40533   -16.130049    16.082391    43.491586    40.131128 
58768000    277.33332     312.9377    283.81651   -14.586721    16.276742    29.121187    40.127731 
58772000    275.14713    328.21575    287.15857   -14.927911    17.326035    41.057183     40.12591 
58776000    262.51913     299.6455    275.45738   -13.681576    17.360552    24.188122      40.1282 
58780000     277.0014    344.97722    279.17843   -15.388476    16.224531    65.798792    40.127615 
58784000    273.33645    308.05135     283.3333   -13.896568    15.751046    24.718048    40.125286 
58788000    283.96866    338.76064     294.7318   -15.313917    14.974547    44.028846    40.125428 
58792000    268.34507    324.83383    266.16299   -14.387004    16.279699     58.67084    40.127277 
58796000     271.3533    314.94137     270.4964   -13.972496    16.115169    44.444975    40.129677 
58800000    268.01324     322.7884    282.35634   -14.599174    16.132913    40.432056    40.127547 
58804000    270.64285    318.21807    279.16105   -14.279363    15.285843     39.05702    40.130111 
58808000    274.41865    325.23145    286.11826   -13.004679    15.529792    39.113186    40.131298 
58812000    270.78614    302.29291    294.10619   -13.110501    14.594047     8.186726    40.129885 
58816000    276.33626    316.11139    308.88349   -13.877435    14.665115    7.2279015    40.131681 
58820000    279.43802      324.483    293.74848   -14.324531    13.808683    30.734521    40.132707 
58824000    264.30068    334.57774    264.01563   -13.793433    15.978073    70.562115    40.135841 
58828000      268.578    315.67034    288.93884   -14.082867    15.098104    26.731504    40.135672 
58832000    270.09143    313.29345    277.56126    -13.75917    16.422395    35.732188     40.13446 
58836000    273.09027    336.98099    279.39782   -15.406997    16.620582    57.583165    40.134888 
58840000    269.60378    324.05451    274.06881   -13.758685    16.474951      49.9857    40.134507 
58844000    266.00695    326.79618    276.80059   -15.013731    15.953616     49.99559    40.135757 
58848000    271.75146    323.30737    283.44351   -14.839958    16.858884    39.863867     40.13501 
58852000    264.35051    307.63994    277.31363    -15.17863    17.042592    30.326303    40.133116 
58856000    259.54039    307.86891    281.64504   -14.769063      17.7644    26.223866    40.132624 
58860000     259.3433    315.15022    256.92029   -14.820553     17.99279    58.229929    40.133463 
58864000     267.0991    311.76351      286.121   -13.368371    17.301448    25.642508    40.133211 
58868000    274.84275    325.03525    299.51352   -15.259746    16.661075     25.52173    40.133835 
58872000    262.69516    325.16162    258.83721   -14.310311     18.84253    66.324415    40.134603 
58876000    274.62333    327.34034     277.0874   -14.723894    16.035575    50.252934    40.132559 
58880000    276.57132    321.47656    301.19082   -14.592324    15.201403    20.285737    40.131543 
58884000    269.33624    328.82345    283.98234    -15.27439    16.449031    44.841111    40.132867 
58888000    276.41444    344.31988    279.59415   -16.334084    16.955664    64.725726    40.132362 
58892000    276.49291    336.45385    279.67205   -15.214837     16.97492    56.781799    40.132973 
58896000    278.83567    340.69182    294.69522   -16.138901    16.535511    45.996603    40.134363 
58900000    279.06502    327.74139    312.49636   -16.867671    14.247001    15.245034    40.134051 
58904000    278.13136    354.33606    278.34585   -17.947361    16.318347    75.990211    40.133914 
58908000    279.33602    343.58558    280.95582    -17.10253    16.269831    62.629762    40.132459 
58912000    274.42374     323.5837    292.58187   -15.710851    15.991651    31.001824    40.133327 
58916000    271.14692    326.18392    266.97752   -16.806328    15.150484      59.2064     40.13296 
58920000    272.37007    319.08606    285.12399   -15.890463    15.847875    33.962071    40.135532 
58924000    278.87542    319.67758    304.55574   -15.121485    15.244788    15.121836     40.13489 
58928000    276.39416    317.78726    272.74361    -13.90857    16.547621    45.043642    40.133267 
58932000    270.80228    320.12664    279.15745   -14.046523    16.119363    40.969182    40.131379 
58936000    279.88651    319.59567    299.80693   -15.199345    16.249758    19.788735     40.13141 
58940000    270.19797    319.45692    280.96089   -16.353367    17.608555    38.496034    40.131856 
58944000    280.47342    326.87922    293.91153   -16.639856    16.258397    32.967687    40.132851 
58948000    269.74365    335.20871    283.10338   -17.250295    16.182493    52.105333    40.133561 
58952000    269.28539    315.25949     264.7705   -15.279167    16.682543    50.488993    40.135051 
58956000    272.16964    333.74149    268.40475   -15.780045     17.04808    65.336741    40.134394 
58960000    269.95959    312.42057    284.46073   -15.064028    15.078799    27.959836    40.135007 
58964000    272.81378    321.38758    281.00009   -15.745509    16.381554    40.387496    40.134474 
58968000    278.14098    342.62487    286.62611   -15.995878    16.071809    55.998755    40.133752 
58972000    263.20677    298.46417    284.11606   -14.324808    17.769918    14.348115    40.133635 
58976000    269.59532    314.27401    284.95092   -14.913914    16.849328    29.323096     40.13358 
58980000    272.48788    323.23032    269.68135    -16.19125    17.947929    53.548971    40.134724 
58984000    271.15283    333.36207    279.91485   -18.342222    17.958224    53.447219    40.137336 
58988000      277.617    323.83419    279.57688   -18.818392    16.774331    44.257309    40.139159 
58992000    274.90377    325.94077    292.54133   -16.981373    16.854786    33.399434     40.13865 
58996000    267.37207    301.78873     286.5606   -15.626621    17.209082    15.228135    40.141177 
59000000      271.007    305.07581    287.92345   -16.391065    16.570435    17.152364    40.138478 
59004000    272.85175    330.84007    279.13036   -16.218204    17.351209     51.70971    40.137646 
59008000    279.00135    358.86265    273.55392    -17.35962    17.484822    85.308723    40.140601 
59012000    273.23035    332.58649    276.12734   -16.446779    17.972324    56.459143     40.14244 
59016000    270.13891    330.72994    275.84405   -16.000162    16.949573    54.885895    40.142822 
59020000    263.81628    320.69708    268.39592   -15.893074    17.220496    52.301167    40.144583 
59024000    265.52592    311.69532    271.00885   -15.568531    16.887242     40.68647    40.145352 
59028000    269.44412     318.6786    288.38624   -15.576949    15.294579    30.292364    40.149721 
59032000    265.00936     316.9376    266.77352   -15.777977    17.228852     50.16408    40.149178 
59036000    267.52069    319.88282     267.2728   -17.041733    17.521494    52.610015    40.150279 
59040000    278.00563    325.05243    292.12235   -16.745348    16.708731    32.930078    40.148589 
59044000    266.81621    301.62603    270.40271   -16.062577    17.065606    31.223313    40.147826 
59048000    272.27593    319.26867    282.51345   -16.827528    18.756752    36.755219    40.145134 
59052000    270.09523    300.01101    304.00978   -15.360448    16.591561   -3.9987723    40.144607 
59056000     270.4222    328.78009      264.535   -17.346928    18.659542    64.245089    40.146624 
59060000    273.51668    307.20097    272.35029   -15.325498    17.505118    34.850676    40.148284 
59064000    279.58985      333.928    305.72025   -16.567114    16.907127    28.207755     40.14969 
59068000    276.60481    325.94278    292.70057   -16.137206    16.686878    33.242212    40.149152 
59072000    276.00591     329.3439    292.32236   -15.541543    17.514503    37.021539    40.147284 
59076000    278.05424    337.38276    265.00449   -16.858697    17.877286    72.378276    40.148021 
59080000    276.45054    308.96964    298.82445   -17.209687    16.460471    10.145185     40.14686 
59084000    279.57324    332.99429    290.83627    -18.99541    16.730595    42.158018    40.145424 
59088000    264.34553    281.35859    285.71039   -15.385429    17.369638   -4.3518076    40.145402 
59092000    276.74859    315.62091     278.1941     -17.6653    16.880762    37.426817    40.145691 
59096000    271.67975    337.70089    250.62814   -19.131473    18.057086     87.07275    40.144064 
59100000    274.09189    327.45942    270.63255   -18.175632     17.45628    56.826864    40.146202 
59104000    269.94202    295.49445    279.09556   -16.177248    17.396743    16.398886    40.150127 
59108000    269.98175    337.73213    254.99228   -18.882865    19.003602    82.739853    40.153533 
59112000    266.70557    307.64156    268.98079   -17.867263    18.027074    38.660772    40.154204 
59116000    272.07411    316.81335    275.44597   -17.068574    17.838463    41.367377    40.155083 
59120000    285.05967      337.058    259.69742   -18.579293     18.07763    77.360586    40.155736 
59124000    268.66844    300.17904    270.64546   -17.059847    17.544937    29.533578    40.157651 
59128000    275.16125     309.5933    293.89924   -16.616285    16.396834    15.694056    40.158408 
59132000    274.83669    305.78749    278.43914   -17.666669    17.937187    27.348345    40.157546 
59136000    283.99401    315.74347    294.76139    -17.67726    17.786233    20.982073     40.15786 
59140000    268.28231    314.49597    284.12207   -18.400129    18.285855    30.373902    40.157793 
59144000    268.80934    316.51516    278.42556   -17.965143     19.34376    38.089601    40.158739 
59148000    266.39309    324.29859    272.34802   -18.358492    19.348259     51.95057    40.159698 
59152000    274.43096    318.22927    272.92227    -17.60721    19.676672    45.307002    40.160433 
59156000    273.94108    325.20354    293.18444   -17.803745    17.945887    32.019091    40.159665 
59160000    268.57759    327.22976    274.73829   -16.286198    17.571008    52.491471    40.160312 
59164000    253.94997    282.69033    279.86767   -14.436816     17.67012    2.8226548    40.159982 
59168000     271.9053    330.23681    291.01647   -17.633468    17.457696    39.220336    40.158663 
59172000     274.7327    336.08626     271.9895   -18.740222    17.969938    64.096766    40.158431 
59176000    273.87887    323.23215    283.53377   -18.066853    16.378405    39.698385    40.158296 
59180000     279.1848    323.09482    296.18935    -19.62102    17.400013    26.905469    40.157125 
59184000    278.22583    341.54652    286.19344   -18.149187     17.53165    55.353078    40.156462 
59188000    268.81437    310.15781    276.83009   -17.759048     18.29148    33.327718    40.152957 
59192000    267.51066    313.53486    262.08958   -19.196773    18.759202    51.445283    40.152139 
59196000    262.34629     305.6633    281.25782   -18.416129    17.450127    24.405485    40.152134 
59200000    272.56269    320.38625    297.83201   -17.293876    16.477575    22.554244    40.151923 
59204000    271.12321    315.01833    280.57409   -17.466316    17.933907    34.444244    40.151509 
59208000    273.59055    318.45116    270.70388    -18.00857    17.642028    47.747285    40.151302 
59212000    272.99498     305.0727    288.91638   -16.838697    17.522596    16.156315    40.152386 
59216000    278.64418     328.8758    285.49467   -17.853932    17.831591    43.381131    40.151092 
59220000    272.28871    330.12754    265.18297    -18.76785    18.913186    64.944566    40.152936 
59224000    275.37039    338.40232    269.22839   -19.795017    18.023426    69.173931    40.152436 
59228000    271.29109    311.31588    278.88773   -16.789576    18.411776    32.428151    40.151625 
59232000    277.15873    337.19097    276.27751   -18.315868    18.254686    60.913465    40.150751 
59236000    272.29594    314.00523    288.37433   -18.054752    18.353632    25.630902    40.151128 
59240000    271.18653    310.84231    278.58609    -17.13937    17.769781    32.256221     40.15028 
59244000    281.37533    313.07861    293.41163   -18.186865    15.992568    19.666981    40.148761 
59248000    272.54712    327.96451    274.46201   -17.530195    18.003312    53.502495    40.147478 
59252000    281.43247    342.30015    290.55997   -18.931126    17.878453    51.740182    40.149103 
59256000    271.14939    343.00634    259.92111   -17.656933    20.105401     83.08523    40.149848 
59260000    277.60648    325.40307    285.83761    -16.57826    18.301591    39.565463    40.150552 
59264000    278.68161    321.50246    299.36296   -16.714656    18.211456    22.139501     40.14952 
59268000    283.86048    344.41443    308.41718   -17.919704    18.057678    35.997244    40.151265 
59272000    277.64155    340.08606    287.08442   -18.212482    17.736535    53.001636    40.149156 
59276000    273.79021    312.02537    295.77511   -17.070815    17.524371    16.250255    40.149531 
59280000    277.80557    324.29181    278.55567   -18.233821    19.122098    45.736134    40.150141 
59284000    282.28262    333.54361    304.25461   -18.787173    16.630765    29.288999    40.150538 
59288000    274.47211    314.62709    286.36283   -17.989522    17.265425    28.264255    40.151125 
59292000    274.15726    318.63029    267.41707   -18.766666    19.063661    51.213217    40.151565 
59296000    279.58539       323.68    284.45269   -18.889067    16.743788    39.227317    40.150738 
59300000      272.371    307.87603     295.2722   -17.581029    16.898575    12.603831    40.150715 
59304000    278.98509    337.51576    272.08706    -20.31485    17.684542    65.428702    40.150207 
59308000    269.35226    306.71866    291.61877     -19.8274    17.615391    15.099883    40.146921 
59312000      276.182     314.6808    285.81901   -19.390968    17.649269    28.861789    40.148089 
59316000    266.66743    307.29806    278.26153   -18.979155    18.683229    29.036532    40.146596 
59320000    271.75121    305.87442    307.29413   -19.022829    17.110012   -1.4197125    40.146565 
59324000    267.16236    331.77715    260.76248   -19.564651    19.325106    71.014668    40.148933 
59328000    278.30938    323.13543     288.2749    -18.01618    16.858766    34.860528    40.149688 
59332000    266.58935    297.96011    275.77556    -16.23934    17.877719    22.184552    40.150665 
59336000    272.45984    332.41189    286.12163   -17.813503    17.785816    46.290259    40.151045 
59340000    269.69336    311.51944     285.0157   -17.088321    18.087405    26.503739    40.151107 
59344000     271.6045    324.76374    280.85893   -18.159837    18.223885    43.904811    40.148524 
59348000    274.98743    316.42225    284.87661   -17.726885    18.692009     31.54564    40.149329 
59352000    274.94399     338.8845    269.28721   -17.721347    18.765603    69.597289    40.149721 
59356000    273.57767    322.84826    264.41955   -17.583275    18.948627    58.428717    40.148208 
59360000     272.1147    333.23627     283.3037   -18.727389    18.818552    49.932576    40.149897 
59364000     285.9529    342.50985    288.54393   -19.018962    17.286079    53.965915     40.14869 
59368000    274.73245    313.92528    282.09867    -18.25703    17.696128    31.826608    40.151025 
59372000    278.10673    311.93037    278.12805   -18.149973    18.061801    33.802321     40.15182 
59376000    273.38781    332.39811    270.01564   -19.121261    18.589757    62.382475     40.15314 
59380000    280.52873    321.26225    297.44865   -17.373153    16.342252    23.813595    40.155069 
59384000    275.18612    327.20143    276.36626   -17.665325    17.384952    50.835175    40.154784 
59388000    270.60153    328.88947    284.42876   -17.402558    18.089112    44.460704    40.154467 
59392000    270.68938    307.31622    282.65898   -16.435004    17.729823    24.657243    40.154839 
59396000    282.51017    340.74786    290.29181    -17.22983    18.224133    50.456047    40.153801 
59400000    277.62981    333.90065    298.68036    -16.64756    17.821429     35.22029    40.154698 
59404000    267.59509    321.52242    267.51947   -16.160596    18.814034    54.002953    40.155571 
59408000    271.35488    312.88523    293.43127   -15.885009    16.648476    19.453956     40.15562 
59412000    272.85378    325.25163    275.27037   -17.116311    17.152322    49.981254    40.156779 
59416000    273.74649    313.26589    280.45556   -16.255446    17.937424    32.810331     40.15562 
59420000    269.16722    308.76772    287.64637   -15.691749    17.420437    21.121344    40.153975 
59424000    277.31448    323.96311    285.14793   -15.884656    17.799271     38.81518    40.153205 
59428000    267.45082    315.85027     276.8844   -16.048433    16.683597    38.965869    40.155233 
59432000    269.08838    338.34725    277.09637   -18.427263    18.415018    61.250873    40.153704 
59436000    264.10224    311.22221    268.52755   -15.709673    19.462543     42.69466    40.152169 
59440000    274.78591    328.72365    288.26737   -16.824882    17.848235    40.456283    40.151775 
59444000    271.69183     331.6783    270.43048    -16.64412     19.21742     61.24782    40.152861 
59448000    266.28814    305.53453    259.26384   -16.470406    18.949536    46.270695    40.151416 
59452000    263.77372    305.17016    274.67702   -15.241737    18.171608    30.493143    40.150187 
59456000     271.1765    338.24004    264.63513   -17.463793    19.490805    73.604904    40.150062 
59460000    278.85125    340.64793    269.33208   -17.509641    19.287291    71.315851    40.149179 
59464000    261.58062    304.97815    253.52173   -17.357158    20.227818    51.456419    40.149221 
59468000    275.59035    329.66486    260.92856   -17.168403    18.928586    68.736296    40.149887 
59472000    275.52718    327.91828    281.47195   -17.686222    18.418476    46.446332    40.151063 
59476000    265.26732    300.47792    277.97502   -16.413917    17.621104      22.5029    40.150038 
59480000     265.2012    309.33372    272.82416   -16.790516    19.244789    36.509555     40.15081 
59484000    278.82127    334.92183    289.10486   -18.916229    17.844678    45.816975    40.148538 
59488000    283.10078    327.66265    298.64115   -18.082984     17.57534    29.021498    40.147071 
59492000    274.97338    333.19695    287.29895    -18.73785    19.001413    45.897997    40.148602 
59496000    264.63733    314.88078    267.75925   -18.512218    19.354869    47.121537    40.149275 
59500000      265.649    319.72408    275.54096   -17.750504    18.594062     44.18312     40.15004 
59504000    268.05521    320.39184    259.34551   -17.920554    20.625583    61.046326     40.14857 
59508000    264.44123    313.49345    286.11598   -17.764282    18.425311    27.377471     40.14736 
59512000    269.15675    333.27517    291.17773   -18.160415    18.157051     42.09744    40.147356 
59516000    271.92065    314.44056    290.52677   -17.047841    18.623335    23.913792    40.146231 
59520000    260.39248    298.89478    281.05726   -15.955827     20.02774     17.83752    40.144724 
59524000    269.26038    317.10504    282.92684   -17.803846      19.7378    34.178206    40.143429 
59528000    271.58839    313.45739    294.88388   -17.803584    17.681141    18.573507    40.143679 
59532000    269.74791    323.89618    279.95891   -19.052061    19.368929    43.937271     40.14315 
59536000    275.49125    308.65508    294.03371   -17.393894    18.987914    14.621372    40.144594 
59540000    261.40416    311.15601    276.76321   -18.212976    20.261607    34.392794    40.144472 
59544000    267.54754    306.82805    280.25214   -17.967882    20.035297    26.575911    40.143423 
59548000    283.49832    319.99227    305.65027   -18.929255    17.601637    14.341999    40.141587 
59552000    267.87639    299.05894    279.56455   -18.246107    19.743803    19.494388    40.142688 
59556000    265.81326    328.93143    271.08384   -17.937389     20.44641    57.847587    40.142164 
59560000    268.78143    310.88995    288.01888   -18.425773     20.19864    22.871071    40.140948 
59564000    258.80844    313.32735    271.65111   -18.546857    20.090127    41.676247    40.141666 
59568000    267.80691    326.96549    260.55398   -17.511718     20.47075    66.411507    40.144036 
59572000    263.77227    316.72799    260.91958   -16.895432    20.415831    55.808413    40.146207 
59576000    268.72117    339.35271    276.04844   -17.726226    20.045797    63.304268    40.146818 
59580000    272.49447    317.55747    278.97003   -17.966035    18.014271    38.587434    40.146564 
59584000    267.44875    317.34213    258.15396   -17.901003    20.260151    59.188173    40.145286 
59588000    266.46864    301.79831    280.82695   -17.079233    19.958509     20.97136    40.145834 
59592000    267.86683    319.56051    284.14922   -17.901815    18.932496    35.411298    40.146062 
59596000    276.76905    336.58458    287.09971   -17.671594     18.13904    49.484871    40.146417 
59600000    265.06484    324.40427    254.33559   -17.668534    19.878517    70.068677    40.146853 
59604000    274.98481    325.27971    287.30905   -17.430178    18.261905    37.970655    40.144559 
59608000    263.10705    302.60432    262.88883   -17.283315    19.097114     39.71549    40.144148 
59612000    273.11239     323.5852    267.11267   -16.898544    20.097211    56.472534    40.143981 
59616000    273.79844    332.49602    306.59199   -17.350009    18.171244    25.904028    40.143013 
59620000    275.48234    325.13135    284.42585   -18.936705    18.241005    40.705503    40.145468 
59624000    268.09924     329.4099    259.35301   -18.902012     19.52283     70.05689    40.147492 
59628000    278.00906    333.10642    308.98016   -16.999852    17.697382    24.126259    40.146791 
59632000    273.69421    332.70858    284.34545   -17.170428    18.369206    48.363127     40.14673 
59636000    272.49478     329.4421    278.16384     -17.2771    18.815926    51.278255    40.147331 
59640000    279.65883    341.48224    272.15525   -18.409707    19.392675    69.326986    40.144109 
59644000     284.2881    346.94065    287.31897   -18.666299    18.320161    59.621674    40.145306 
59648000    270.13139    316.31887    268.76775   -18.233489    19.782419    47.551122    40.145775 
59652000     276.9665    311.16358    280.67806   -18.377631    18.045005    30.485521    40.145429 
59656000    268.63003    300.07099     275.2208   -16.893906    18.649804    24.850196     40.14444 
59660000    277.60306    320.05065    276.13149   -17.090097    18.843331    43.919157    40.145869 
59664000    266.91175    305.89274    268.66663   -17.784818    20.392284    37.226108    40.143823 
59668000    271.08559     324.2041    278.08837   -17.993867     18.08105    46.115731    40.146536 
59672000    274.46486    320.27429    291.79875   -17.009695    16.980496    28.475542    40.144402 
59676000    273.27574    318.68488    271.61297   -18.399928    18.601552    47.071906    40.144442 
59680000    266.07338    324.99298     261.5584   -18.434764    20.096649    63.434583    40.146177 
59684000    275.42302    328.66914    275.34977   -18.347424    19.360386    53.319367    40.146907 
59688000    270.15292    307.92946      292.462   -17.245966    18.632675    15.467458    40.146038 
59692000     270.5471    299.39812    285.89741    -17.18443    19.661392    13.500708    40.145552 
59696000    266.18767    317.01712     268.8843   -17.384091    19.973213    48.132823    40.146166 
59700000    275.59585    343.21456    281.57718   -19.527249    19.004407    61.637378    40.148806 
59704000    268.36438    320.49515    281.32537   -18.628561    19.372083    39.169778    40.145948 
59708000    270.94001     322.9093    262.63243   -18.831935    20.418985    60.276872    40.148437 
59712000    279.12179    313.72403    299.86857     -19.0785    18.358978    13.855462    40.147013 
59716000    273.89153    312.45369    298.05642   -18.790622    17.779127    14.397276    40.147026 
59720000    279.46048    310.58362    295.84088   -19.921009    17.461077    14.742737    40.150134 
59724000    278.68156    326.53613    287.10252   -18.475228    17.560612    39.433614      40.1488 
59728000    281.09895    341.27863    294.98721   -19.753278    19.149147    46.291418     40.14681 
59732000    275.98594    332.13508     273.9012   -20.522046     19.02726    58.233885    40.147955 
59736000    267.85631    295.23681    295.06802   -17.764184    17.614443   0.16879528    40.147966 
59740000    269.12689      312.605    269.93758   -20.016453    19.090954    42.667418    40.148268 
59744000    271.80795    311.79851    267.14855    -18.75729    19.017179    44.649968    40.145206 
59748000    269.52043    324.16115    274.77034   -19.110466    18.815144    49.390812     40.14381 
59752000    267.73853    322.55752    257.31985   -19.019649    19.617901    65.237669    40.144631 
59756000    280.75717    327.70854    273.58598   -20.465549    19.712368    54.122556    40.142951 
59760000    278.93522     325.0397    274.66242   -19.908799    18.542266    50.377287    40.143889 
59764000    274.82091    321.66504    273.79954   -19.745639    18.443853    47.865496    40.144617 
59768000    278.73743    322.14497    294.80891   -18.422235     17.48388    27.336066    40.145617 
59772000    275.81333    330.92504     262.8786   -18.938206    18.735754    68.046436    40.145645 
59776000    283.06022     334.4576    296.50964   -19.648569    17.903455    37.947955    40.146408 
59780000    277.59855     312.5494    302.16328   -17.946334    18.343565    10.386115     40.14791 
59784000     271.2058     293.2039    282.19353   -18.232681    19.496271    11.010372    40.147522 
59788000    270.73549    314.11713    288.06891   -18.894969    17.943296    26.048225    40.146593 
59792000    281.93004    335.69508    297.25318   -20.638325    18.500628    38.441904    40.147634 
59796000    268.06715     331.9459    268.86956   -19.387735    19.710713    63.076343    40.146757 
59800000    267.68905    331.69603    273.63799   -19.645456     19.77153    58.058042     40.14674 
59804000    278.94224    348.44739    283.57391   -19.326929    19.750788    64.873481     40.14743 
59808000    274.90583     311.2556    287.91268   -18.329628    18.808734    23.342912    40.147436 
59812000    274.61513    305.41471    276.64033   -18.824202    18.161346    28.774376    40.148509 
59816000    282.98431    349.21684    300.81735   -20.392501    18.091833    48.399488    40.149198 
59820000    273.62814    332.46478    286.37808   -20.097615    18.642251    46.086701    40.149681 
59824000    276.11354    338.67254    269.18156   -20.498531    20.131415    69.490982    40.148314 
59828000    280.73417    314.62931    295.68034   -18.431265    18.091976    18.948973    40.148559 
59832000    277.40248    311.42437    293.94535   -18.942325    17.293428    17.479022    40.146778 
59836000    271.62949    315.00125    283.80129   -19.145508    18.696428    31.199955    40.148171 
59840000    273.05566    327.17785    273.64594   -19.301523    17.494031    53.531915    40.147169 
59844000    269.09091    314.94418     276.1011   -19.477761    18.624435    38.843079    40.147463 
59848000    271.12893    325.23028    266.69121   -19.376285     18.67094    58.539073    40.147322 
59852000    278.48681    326.20455    298.63183   -19.973123     16.98286    27.572724     40.14529 
59856000    277.68467    328.53047    277.20002   -21.637291    18.359979    51.330445    40.144214 
59860000    279.94794    328.30898    285.91708   -20.525158    18.307965    42.391891    40.143428 
59864000    279.41514    314.27621    305.15274   -19.214055    17.884893    9.1234678    40.144908 
59868000    274.10459    326.48308    279.17586   -20.681786    17.868332    47.307216      40.1448 
59872000    274.71836    322.38278     291.8844   -19.613394     19.50669     30.49838    40.143963 
59876000    271.81592    324.85588    261.07434   -18.816095     20.02537    63.781544    40.143942 
59880000    275.18718    330.24254    291.62907   -19.682894    19.128485     38.61347    40.142355 
59884000    272.52595    313.09524    284.25265   -18.260629    18.825785    28.842589     40.14523 
59888000    268.72333    302.76132    289.20578   -18.295524     18.49578    13.555534    40.145265 
59892000    273.23336    313.19569    298.25007   -18.858564    18.619145    14.945614    40.145716 
59896000    274.99432    307.93513    306.52153   -18.403806    18.628915    1.4136054    40.145189 
59900000    273.47746    320.10038    276.74973   -20.239421    18.773366    43.350651    40.145611 
59904000    271.56714    313.76802    283.78228   -18.692147    18.600444    29.985736    40.146337 
59908000    279.68162    336.74771    274.51711   -20.703204    18.940948      62.2306    40.148423 
59912000    270.64038    318.17412    275.54165    -20.81579     18.70283    42.632469    40.149501 
59916000    273.02237    321.95753    267.13743   -19.479948    19.399129    54.820103    40.151174 
59920000    284.02482    324.22793    284.71529   -20.819271    18.613547     39.51264    40.151452 
59924000    280.99601    329.82946    268.73393   -20.790394    19.051719    61.095529    40.152175 
59928000    284.23578    331.06894    287.06859    -20.30855    18.823835    44.000348    40.151415 
59932000    277.92855    330.81334    266.24667   -20.457206    19.286443    64.566674    40.149351 
59936000    273.29926    329.84722    270.32971   -20.064392    19.811553    59.517502    40.149636 
59940000    280.05576    319.67345    293.00037   -21.119097    18.945401    26.673079    40.151779 
59944000    270.24139    329.10249    271.47874   -20.528207    19.323135    57.623743    40.151361 
59948000    267.34899    289.68397     274.8302   -17.935018    19.962177     14.85377     40.15162 
59952000    273.95797    329.68457    293.33589   -18.840083    18.673435    36.348674    40.149192 
59956000    276.20484     317.3077       273.11   -19.056812    19.669374    44.197698    40.150219 
59960000    279.16288    324.91693    292.41316   -18.433545    18.052063    32.503767    40.150792 
59964000    272.39392    314.13528    282.89483   -19.314897    19.015998     31.24045    40.153482 
59968000    279.78309    327.78826    294.96862   -19.349656    17.062675    32.819637    40.154065 
59972000    271.23287    324.30876    279.02858   -19.356847    18.360391    45.280185     40.15212 
59976000    266.53585    305.09402    276.33358    -18.57982    19.524904    28.760438    40.153095 
59980000    277.43779    314.88638    298.58344   -19.452826    17.795731    16.302943    40.153469 
59984000    273.47247    314.78629     283.1995   -20.081024    19.338912    31.586799    40.151978 
59988000    281.81074    335.84722    280.90406   -20.477969    19.131715    54.943159    40.150413 
59992000    270.48519    324.48989    256.37365    -19.62008    20.882191    68.116246     40.15211 
59996000    268.03863    300.98307    285.07069   -18.196096    19.782573    15.912378    40.150563 
60000000    273.15461    328.55467     263.8297   -18.778794    20.037562    64.724971    40.149362 
60004000    272.88402    317.01466    289.61182   -18.690242    18.277895    27.402836    40.149336 
60008000    270.87344    309.04543     285.6404   -18.942023    19.668785    23.405032    40.150382 
60012000    269.67164    319.80962    280.33746   -19.414263    18.092191    39.472156    40.147812 
60016000    279.20464     314.3408    285.59317   -17.652804    20.058933    28.747627    40.147185 
60020000    279.10816    331.71053    294.81863   -19.368124    18.383215    36.891897     40.14712 
60024000    272.71358    318.33097    264.72122   -18.219031    19.600092    53.609752    40.148323 
60028000    272.87144    335.92243    277.35268   -20.000675    19.464687    58.569752    40.146922 
60032000    269.95204    320.41716    285.43088   -18.752677    19.133809    34.986283    40.148772 
60036000    270.16941    332.78882    277.08619   -19.575282      19.7253    55.702636    40.149833 
60040000    274.24845    324.58587    284.45543   -18.017291    19.681537    40.130442    40.151791 
60044000    276.20143    337.52459    274.81118   -18.718305    20.357311    62.713411    40.152748 
60048000    269.34286    330.50411    282.80243   -17.679621    19.932408    47.701679    40.155097 
60052000    277.27029    341.08109    282.78103   -19.727903     19.56869    58.300065    40.154954 
60056000    265.69776     324.7689    276.01922   -19.144591    19.878825    48.749673     40.15366 
60060000    269.56134     321.5004    263.36521   -18.243731    20.406197    58.135191    40.155321 
60064000    273.95696    327.25742    287.43825   -20.143654    18.354751    39.819168    40.154879 
60068000    278.19961    323.15784    295.35707   -19.771913    19.300123    27.800769    40.154663 
60072000    272.60173    311.77827    291.68782   -19.336918    19.412657    20.090444    40.156722 
60076000     270.8183    316.20483    291.82522   -18.594155    19.414538    24.379607    40.156602 
60080000    271.10397     349.3149    262.45557    -19.99811    20.177195    86.859328    40.158877 
60084000    263.30392    314.90795     280.1573   -17.723649    20.505085     34.75065    40.159618 
60088000    271.65209     319.0996    280.51551   -18.516631     19.76668    38.584094    40.159011 
60092000    271.02069      318.823    287.72679   -20.135417    19.790406    31.096212    40.160805 
60096000    267.13013     327.8941    255.00288   -18.046426    22.126823    72.891219    40.159002 
60100000    271.50534    324.79723    274.19005   -20.031126    20.119212    50.607185    40.158346 
60104000    269.97637    318.61476    271.59991   -18.718943      20.8486    47.014847    40.156964 
60108000    264.44902    325.75206     271.0565   -19.237228    20.110038    54.695565    40.156356 
60112000    270.94963    315.13314    285.78977   -17.736131    18.784017    29.343364    40.156415 
60116000    273.09532    324.62871    281.59962   -18.020827    20.134242    43.029089    40.155772 
60120000    269.57142    300.90768    300.01097   -17.724531    19.090521   0.89671072    40.156427 
60124000    269.30708    328.50542     285.4214   -18.264573    20.131855    43.084024    40.154869 
60128000    260.78015    304.39323    248.86189   -17.338191    21.781068    55.531346    40.154096 
60132000    269.89503    335.35616    279.18389   -18.853371    20.353907     56.17226    40.153928 
60136000    264.02033    324.64412    260.62128   -18.553516    21.750499    64.022844    40.154345 
60140000    265.08476     311.6834    277.14381   -18.433793    21.391057    34.539593    40.154278 
60144000    269.97546     326.5744    276.51379   -18.977628    20.659919    50.060608    40.154942 
60148000    267.95787    315.23383    273.61809   -18.456982    21.814756    41.615742    40.156422 
60152000     272.0816    312.50352    293.57289   -18.154806    20.850523     18.93063    40.157027 
60156000    257.33093    303.72345     253.4375   -17.756353    21.293749    50.285946     40.15845 
60160000    269.68576    336.97047    258.54491   -19.951997    21.123232    78.425564    40.157752 
60164000    272.29042    315.70173    282.40765   -17.513785    21.138585    33.294086    40.158435 
60168000    261.77625    319.36142    264.43576   -18.056572    22.060813    54.925659    40.158105 
60172000    273.87991     320.9418    281.34964   -18.764018    21.181783    39.592158    40.158211 
60176000    277.94913    329.67543    293.02141   -19.309569    19.812281    36.654017    40.157295 
60180000    261.90798    305.71024    273.20515   -17.404369    20.770302    32.505092     40.15663 
60184000    265.61278    309.17923    280.33464    -18.10436    20.003286    28.844594    40.156571 
60188000    272.61023     330.6999    287.56395   -18.582843    19.668689    43.135942    40.155687 
60192000    272.63721    323.86429    275.77031   -18.386003    19.814235    48.093975    40.155356 
60196000    273.06025    293.13519    297.41717   -17.849856    19.068688   -4.2819822    40.156645 
60200000    271.34254    336.56317    267.57825   -19.774617    20.479006    68.984926    40.156136 
60204000    270.80344    335.21393    278.59387   -18.387512    19.812205    56.620053    40.156113 
60208000    269.93079    330.36487    265.46771   -18.928448    20.006247    64.897163    40.156261 
60212000    270.97183    326.36515    276.16982   -17.224822     20.37381    50.195331    40.157125 
60216000    274.75889    328.15909    306.35962   -18.724387    19.078373    21.799472    40.157388 
60220000    273.28594    333.08824    271.98617   -17.829266     20.73075    61.102071    40.156714 
60224000    270.54507    336.00597    277.15847   -18.784479    19.916537    58.847503    40.156729 
60228000    264.79061    288.10069    280.93244    -15.47954     19.71631    7.1682466    40.155245 
60232000    272.83788    326.58723    291.09449   -18.103443    19.273464    35.492738    40.154656 
60236000    269.20967    326.11882    274.66556   -17.905417    20.684017    51.453255    40.156344 
60240000    268.02524    318.02021    269.22698    -18.32639    20.768969    48.793229     40.15781 
60244000    265.07896    351.07654    264.43181   -19.868781    21.051173    86.644726    40.157254 
60248000    265.85087    299.34933    273.02104   -16.668998    20.090351    26.328291    40.155682 
60252000     273.9235    321.90136    289.28347   -17.500969     20.61021    32.617891    40.154404 
60256000    267.17252    301.76536    289.64037   -17.778371    19.829869       12.125    40.153551 
60260000    272.01476    318.46991    287.76201   -18.307854    20.498485    30.707904    40.153439 
60264000    275.10552    334.49446    288.84578   -18.787499    20.046969    45.648674    40.152363 
60268000    272.86303    341.78561    283.60892   -19.837781    21.058214    58.176686     40.15243 
60272000    267.20155    310.76143    277.86301   -18.241023    21.214163    32.898425    40.151363 
60276000    266.29005    316.21658    294.77239   -19.713966    20.322611    21.444195    40.149721 
60280000    267.87125    343.73579    268.40741   -19.555193    20.310503    75.328387    40.148417 
60284000    277.68481    326.03491    290.52651     -19.3275    19.674823    35.508406    40.148578 
60288000    272.00433    294.16006    298.79073   -16.340973    20.065712   -4.6306694    40.148276 
60292000    266.97711    310.36377    265.97159   -17.646173     21.26532    44.392179    40.148225 
60296000    273.36492    319.99215    282.33755   -18.690123    20.379454      37.6546    40.147512 
60300000    274.05192    337.36237    294.18978   -19.234244    18.870722      43.1726    40.147496 
60304000    271.92244    314.09794    279.59525   -18.080886    19.813561     34.50269    40.146976 
60308000    268.06286    297.37539    285.57591   -18.329438    19.332332    11.799478    40.147864 
60312000    268.32435     331.4197     267.6596   -18.092138    20.782646    63.760101    40.148713 
60316000    270.77976     322.9705    286.90872   -19.779526     17.65332    36.061772    40.148365 
60320000    274.55785    321.32622    277.13771   -18.307271    19.553034    44.188517    40.147752 
60324000    269.63198    317.70498    279.54041    -18.29963    19.256065    38.164566    40.146971 
60328000    267.43188    316.10502    270.39499   -18.723143    19.936622    45.710035    40.147117 
60332000    264.28886    281.61619    274.46958   -16.837623    19.552619    7.1466152    40.146379 
60336000    270.76591    312.52252    301.01167   -18.433961    19.422168    11.510851    40.145715 
60340000    270.03163    324.35569    269.98914   -18.950163     20.86265     54.36655    40.145325 
60344000    269.93116    334.55803    267.94444     -18.9438    20.677145    66.613591    40.145893 
60348000    270.60773    332.21339    279.33698    -18.67891     18.72982    52.876407    40.144227 
60352000    269.64969    318.75727    274.27176   -17.137948    19.147016    44.485513    40.144512 
60356000    269.49776     332.0854    274.01454   -18.298072    21.074977    58.070867    40.144294 
60360000    266.49771    296.88057    314.51933   -16.740441    18.822123    -17.63876    40.142485 
60364000    272.21082    334.52463    271.22131   -18.898011    20.680519    63.303318    40.141295 
60368000    275.47631    331.44236    276.28477    -18.43907    19.518122    55.157591    40.141981 
60372000    269.17925    318.02438    269.37113   -17.739692    19.648241    48.653247     40.14122 
60376000    276.17139    325.61755    280.18947    -18.97721    19.620942    45.428077    40.138728 
60380000    276.42791    316.43654    290.37071   -17.461055    18.821882    26.065838    40.135986 
60384000    275.17753    306.69551    279.03705   -16.836263    19.972442    27.658465    40.134978 
60388000    272.26267    316.40645    282.88466   -18.516485    19.541074     33.52179    40.134046 
60392000    283.75338    342.23411    277.73108   -19.248569     20.38169    64.503027    40.135107 
60396000    261.78183    293.50818    252.62003   -17.832575    21.740609    40.888152     40.13328 
60400000    268.04575    301.64076    289.34338   -18.375211    19.369587    12.297386    40.132192 
60404000    268.80952    340.99458    254.52188    -19.95036     20.98337    86.472704    40.134817 
60408000     277.6988    318.87209    304.51319   -18.351916    18.188738    14.358899    40.136083 
60412000    274.28145    325.04387    273.46871   -18.392911    19.851319    51.575158    40.134992 
60416000    281.49423    329.73757    307.00454   -19.105401    19.236889     22.73303    40.133457 
60420000    269.39047    321.19665    268.58153   -17.964712     20.46244    52.615123    40.133376 
60424000    266.47476    296.05658    292.22031   -17.103388    19.052732    3.8362742    40.132487 
60428000    276.22863     352.4903    270.22296   -21.117539    20.878354    82.267341    40.134523 
60432000    278.64858     355.3948    264.88199   -21.198078    20.504285    90.512807    40.135467 
60436000    272.71006    322.61849    283.01826   -20.440753    20.264924    39.600238    40.135251 
60440000    275.66245    308.55975    289.87499   -18.430202     20.67526    18.684762    40.133767 
60444000     264.5882    320.05926    274.47008   -20.407887    19.627144    45.589182    40.135241 
60448000    275.90914    336.42976      273.991   -20.166536    20.162117    62.438757    40.136197 
60452000     275.5584    324.27409    282.01656    -19.11511     20.39757     42.25753    40.137908 
60456000     274.7214    308.00128    274.03846    -19.29141    21.133669    33.962828    40.137536 
60460000    261.05088    313.21207    270.58061   -18.869514     21.13543     42.63146    40.136539 
60464000    276.49376    323.19895    284.96372    -19.85156     19.98473     38.23523    40.135546 
60468000    276.99999    336.59574    280.96658   -19.677298    20.106761     55.62916    40.137206 
60472000    274.55449    358.11709    277.23557   -21.268176    20.454857    80.881517    40.138354 
60476000    278.01357    351.90088    294.99085   -20.250193    19.306269    56.910039    40.136497 
60480000    265.26956    312.81133    284.37541   -19.090814    19.711416    28.435916    40.135517 
60484000     274.9357    338.88259    292.31239   -20.152708    19.476286    46.570194    40.136358 
60488000    271.86078     327.0343    288.82599   -18.579658     18.88757    38.208311    40.137675 
60492000    276.74889    322.92758    294.16048   -18.733676    18.728925    28.767106    40.136168 
60496000    266.24623    310.99543     278.6571    -18.28854    18.899326    32.338326    40.134169 
60500000    264.48842    300.17302    274.39894   -19.508125    20.496495    25.774082    40.134675 
60504000    270.65008    317.43789    283.59024   -19.644746    20.107341    33.847645    40.132977 
60508000    271.04581    319.85157    290.43221   -19.903545     20.85031    29.419361    40.132205 
60512000     274.4957    322.32245    302.98098   -21.007659    20.395742    19.341468    40.131067 
60516000    277.98693    325.94233    303.30601   -20.148595    18.941949    22.636322    40.132256 
60520000    270.85707    323.90429    271.55266   -19.350629    20.797809    52.351629    40.131121 
60524000    277.31719    337.80405    291.89532   -18.295312    20.377235    45.908738    40.131602 
60528000    268.06866    308.37781    286.27934   -17.913953    20.169815    22.098474     40.12873 
60532000    275.19922    328.31126    275.69694   -18.629516     20.53446    52.614322    40.127802 
60536000    269.41371    302.90303    283.73095   -17.177071    21.500159    19.172081    40.126606 
60540000    269.32871    310.43697    286.48579     -19.3367    20.817822    23.951181    40.127911 
60544000    267.43868    325.48979    258.39614   -21.029799    22.116672    67.093655    40.125737 
60548000    273.79945    337.69574    279.39281   -20.829383    19.841623    58.302926    40.125259 
60552000    277.13048     320.3605    290.34855   -18.618198    19.660841    30.011947    40.124973 
60556000    279.74743    331.28868    297.89024   -20.027619    19.144198    33.398442    40.124323 
60560000    263.38661    318.58758    268.03613   -18.944233    19.675345    50.551455    40.124913 
60564000    262.60015     314.8041    272.92222   -19.184438     21.32827    41.881881    40.126281 
60568000      268.705    322.07155     295.3138   -20.149412    19.603117    26.757745    40.124443 
60572000    272.26015    341.00344    270.24444   -21.093196    20.524606    70.759008    40.125707 
60576000    269.94991    331.36963    276.42224    -20.98094    20.362062    54.947388    40.125956 
60580000     270.6967    309.27631     294.2232   -20.253622    20.528771    15.053117    40.127137 
60584000     273.4946    318.18176    303.28384    -19.25673    19.699253    14.897922     40.12865 
60588000    269.48273    296.94493    282.17959   -19.435143    20.338163    14.765339    40.129798 
60592000    268.61167    324.89366    269.87812   -20.723709    21.522606    55.015535    40.130852 
60596000    271.51161    328.46342    292.27678    -21.64606    20.353662    36.186641     40.12949 
60600000    269.50269    319.68805    274.37691   -20.858593    21.963012    45.311142    40.132529 
60604000    276.93186    341.70439    288.95535   -20.104763    21.936656    52.749042    40.130948 
60608000    270.28969    335.22708    267.55292   -20.028657    20.956457     67.67416    40.130486 
60612000    272.98118    309.14323    293.61489   -19.129177    19.017905    15.528341    40.130192 
60616000    270.97777     307.0712    287.87894   -20.088635    20.292255    19.192265    40.130249 
60620000    270.95874    324.34058    299.56522   -20.484675    20.889738    24.775362    40.128505 
60624000    267.24468    339.16702    276.42788   -21.036977    21.423704    62.739146    40.129246 
60628000    282.45616    329.46086    297.70752   -19.966007    20.231927    31.753346    40.129978 
60632000     266.9524    303.91483    251.63117   -19.549189    23.241855    52.283663    40.130587 
60636000    276.80955     331.0915    274.15851   -21.327243    20.749769    56.932988    40.132597 
60640000    269.31535    325.17798    272.47345   -21.324573     21.53119    52.704534    40.132342 
60644000    273.79486    332.52009    277.13682   -21.747066    21.357248     55.38327    40.131951 
60648000    266.04238    313.09223    256.98517   -21.458817    23.109953     56.10706    40.131355 
60652000    276.52068    332.05814    286.00555   -21.228817    21.482425    46.052586    40.132505 
60656000    272.90832     318.2195     270.7769   -20.445732    22.188823    47.442597    40.131398 
60660000    271.04053    314.97382    278.93134   -20.549972    21.699285    36.042471    40.131429 
60664000    265.30472    320.43962    265.46543   -21.724442    20.749757    54.974197    40.131164 
60668000    264.53997    315.25222    255.79465   -20.110642    22.351932    59.457573    40.130226 
60672000    273.19049    313.03511     281.9606   -20.950033    20.988363    31.074516    40.129607 
60676000    273.65106    321.50289    285.28952   -21.522298    20.705591    36.213363    40.129369 
60680000    267.40916    319.30609    278.65731   -21.167319     21.54727    40.648785    40.129337 
60684000    272.26499    324.04177    280.18158   -21.168446    21.538188    43.860191    40.128434 
60688000    276.35567    330.72749     285.1388   -22.385875    21.912823    45.588692    40.127305 
60692000    276.64978    319.72665    288.19547   -21.453668    21.185854    31.531177    40.126735 
60696000    269.33745    322.05025    273.32007   -20.819733    21.239123    48.730176    40.125885 
60700000    275.89248    314.38007    282.11312   -19.988119    20.862838    32.266945    40.125002 
60704000    283.69227    356.07819    274.35805   -21.880557    21.317486     81.72014    40.125016 
60708000    270.33805    299.80485      277.995   -20.057016    20.642304    21.809847    40.124436 
60712000    275.02403    328.70652    294.17065   -21.124989    20.228867     34.53587    40.122856 
60716000    271.16663    331.65159    280.67899   -21.059671    20.507964    50.972598    40.122909 
60720000    278.04253    345.77455    283.88057   -21.360813    19.900695    61.893979    40.122647 
60724000    271.49658    328.10802    269.25235   -20.412461    20.568085     58.85567    40.121984 
60728000    273.74651    333.33959    286.89892   -20.812926     20.70096    46.440665    40.122778 
60732000    271.87646    322.46487    265.98976   -20.605588      20.3145    56.475104    40.123285 
60736000    272.18659    328.06267    267.33756   -19.751491    20.762418     60.72511    40.124343 
60740000    276.47725    323.60145    286.47541   -20.264616    19.287715    37.126044    40.123348 
60744000    273.78096     312.4521    287.11188   -19.456227    19.324799    25.340221    40.121998 
60748000    281.03095    330.57449    291.04364   -20.089526    18.392033    39.530854    40.122534 
60752000    278.86434    321.61892    293.73657   -19.960356    19.266601    27.882352    40.123671 
60756000    270.07671    301.26166    285.75487   -20.476193    19.563792    15.506792     40.12139 
60760000    266.68835    291.85567     279.4028   -18.726354     20.39213    12.452865    40.120854 
60764000    266.79617    320.10988    274.31657   -20.443546    21.274869    45.793316    40.121606 
60768000    275.55695    323.66313    274.28251   -20.037184    21.699786    49.380616    40.122898 
60772000    271.39989    317.97902     277.9826   -19.988865     20.47024    39.996421    40.121329 
60776000    271.19469    310.47876     275.4272   -19.232486    20.097711    35.051561    40.119131 
60780000    269.40577     303.2672    262.25082   -19.675671    22.198287    41.016377      40.1179 
60784000    279.96676    323.52793    287.47617   -21.607836    20.460966    36.051764    40.119048 
60788000    278.22921    348.16326    266.58678   -21.889034    20.170624    81.576476    40.120766 
60792000    269.30805     309.8987    265.55377   -21.003288    20.661945    44.344931     40.12082 
60796000    264.57394    306.03555    280.60666    -19.51132    19.701008    25.428889    40.120176 
60800000    273.83359    311.69665    285.53415   -19.662466    19.560234    26.162492    40.119087 
60804000    280.57759     346.4553    270.34641   -22.614814    19.731482    76.108889     40.11947 
60808000    278.05289    324.12351    274.39747   -21.413069    19.821801    49.726036     40.12146 
60812000    280.70784    323.55566    287.89383   -21.935225    19.581891     35.66183    40.122499 
60816000    283.59642    332.68673    293.96712   -20.769907    20.040481    38.719601    40.123288 
60820000    280.49203    351.63098    263.51992   -22.121015    20.001073    88.111065    40.125426 
60824000     268.9959    302.43882    270.96086   -21.433595    19.774726    31.477959    40.124778 
60828000    273.22041    295.68726    288.60578   -19.305059    18.975832    7.0814855    40.126079 
60832000    272.44463    313.14092    273.52296   -19.556063    20.318906    39.617953    40.127327 
60836000    274.62939    328.00296     265.3931   -21.599346    20.941591     62.60986    40.128666 
60840000    280.43752    336.51703    290.52776   -21.942696    19.822964    45.989267    40.127684 
60844000    278.30589    318.34562    289.57706   -21.580626    19.744333    28.768561    40.127638 
60848000     282.1644    330.86978     295.9422   -22.217234    18.660808    34.927583    40.126274 
60852000    271.99225    299.54378    282.71853   -21.328079    19.175705    16.825256    40.123088 
60856000    282.57266    322.59895     283.5662   -21.766914    19.033732     39.03275     40.12413 
60860000    280.31414     335.9227    288.80793   -21.450945    19.014877    47.114769    40.124216 
60864000    268.48399    313.41086    264.40557   -20.799133    20.570068    49.005294    40.123816 
60868000    283.11599    335.65812    288.23542   -21.377237    19.008658      47.4227    40.123511 
60872000    271.75366    309.91217    282.18142   -20.047338    20.537725    27.730747    40.121958 
60876000    268.94566    319.59117    270.59708   -20.650516    20.922451    48.994097    40.123321 
60880000    275.73433    344.57607    265.57208    -21.06363    20.689275    79.003987    40.122687 
60884000    268.84367    313.66331    262.22098   -20.123888    20.992649    51.442326    40.122272 
60888000    283.66759    339.19725    285.36058   -23.106225    20.303362     53.83667    40.124434 
60892000    274.60088     330.6707    282.21977   -21.255175    19.634414    48.450928    40.123735 
60896000    272.59228     301.6032    281.46605   -19.175406    19.650266    20.137147    40.121422 
60900000    273.88537    329.51438    275.47684   -20.006632    20.044856    54.037536    40.121201 
60904000    270.51009    303.72813    296.89678   -18.845875    18.706603    6.8313547    40.120362 
60908000    268.92464    316.64212    272.93785   -20.376087    20.946005    43.704267    40.119482 
60912000    270.04392    306.74369    277.57529   -19.139017    19.921786    29.168395    40.118953 
60916000    274.12287    316.04233    279.60387   -19.793802    19.776603    36.438455    40.118479 
60920000    269.73876    322.06652     284.8643   -20.163008     20.07491     37.20222    40.119366 
60924000    280.45539    316.41378     300.1264   -20.345622    19.407017     16.28738    40.120384 
60928000    267.08392    322.74712    274.60452   -20.076463    20.826674    48.142593    40.119104 
60932000    278.63775    319.91008    300.84274   -19.849885    19.872429    19.067336    40.118081 
60936000    257.79408    291.11075    281.26369   -18.364413    20.622607    9.8470596     40.11908 
60940000    271.18505    328.58383    265.40266   -20.894276    21.693283    63.181162    40.119135 
60944000    271.04272    302.08931    293.25621   -20.350744    20.353225     8.833097     40.11751 
60948000    260.62988    300.70633    271.00174   -18.727938    21.102038     29.70459    40.118058 
60952000    277.93119    327.43974    305.51685   -19.754508    20.010422    21.922887    40.117853 
60956000    272.41172    332.91506    264.45531   -19.249454    21.628916    68.459752    40.117261 
60960000    263.20883    301.29722    279.59045   -18.302151    20.543503    21.706761     40.11899 
60964000    281.75138    337.23475    290.82336   -20.235806    20.665107    46.411386    40.118736 
60968000    266.26844    313.66081    276.33976   -20.950266    21.207245    37.321046    40.116956 
60972000    273.61619    325.15014    285.04592   -20.686534    20.934631    40.104215    40.116362 
60976000    271.58996    308.38172    296.16926     -18.4005    20.173312    12.212467    40.115574 
60980000    262.57049    312.66581    276.30068   -19.236729    20.810058    36.365129    40.113634 
60984000    271.00917    313.21438    275.27291   -20.197766    20.823681    37.941469    40.114715 
60988000    269.73951    301.99351    297.07765    -19.33222    19.871614    4.9158573    40.114805 
60992000     270.4935    325.73243    266.51712   -20.343214    20.975256    59.215315     40.11428 
60996000    275.53417    322.37584    297.74836   -20.805705    19.066944    24.627474    40.114338 
61000000    275.42791    327.99481    279.41277   -20.006635    21.690281    48.582044    40.113563 
61004000    273.20783    322.36664    289.43591   -20.612552    19.958876    32.930731    40.114222 
61008000    273.72952    327.44834    285.11069    -20.38102    20.815163    42.337649    40.112387 
61012000    273.22729    324.08655    284.83919   -18.909462    19.081754    39.247361    40.111314 
61016000    275.74051    314.60917    298.89168   -20.323889    17.929942    15.717491    40.110661 
61020000    277.42997    317.58591    270.31845   -19.973023    19.890848    47.267458    40.112437 
61024000    271.60596    333.19373    259.48823   -20.734434    21.145152    73.705508    40.111168 
61028000    273.28324    323.26292    266.73833   -20.403586    20.668552    56.524595    40.110187 
61032000     277.0466    324.10463    278.98219   -20.076047    20.779172    45.122432    40.109653 
61036000     270.5834    331.06624    248.75345   -19.813291     21.85198    82.312787    40.108076 
61040000    271.21402    323.03926    273.42284   -20.706368    20.228216    49.616425    40.107604 
61044000    272.61012    302.36466    284.76149   -20.272322    19.284191    17.603169    40.108195 
61048000    270.59315    317.50577    274.93411   -19.919113    21.507148    42.571658    40.109133 
61052000    265.36869    314.18935    260.44167   -20.496944    21.326795    53.747676    40.108434 
61056000    278.60996    348.67776    275.18433   -21.538692    21.111523    73.493436    40.108721 
61060000    272.16074    321.00808    273.27542   -19.511034    20.811971    47.732657    40.107338 
61064000    276.69768    320.31446    295.34774   -20.508697    19.903285     24.96672    40.107417 
61068000     276.7138    325.50431    274.14714     -21.1691    20.754936    51.357174    40.108079 
61072000    279.72679    330.16317    293.54375   -20.776301    19.415117    36.619412    40.107207 
61076000    275.57169    335.33054    276.04432    -21.36823    19.848981    59.286224    40.106401 
61080000    282.12446    308.44327     292.5094   -19.721185    20.587375    15.933877    40.108102 
61084000    269.45514    324.06513    259.43066   -21.935528    21.476921     64.63447    40.107644 
61088000    282.35408    338.29021    287.26924    -21.57415    21.202781     51.02097     40.10838 
61092000     270.3641    332.01443    261.42523   -21.693833    21.795447    70.589206    40.108695 
61096000    266.27413    328.22753    270.53956   -21.791934    21.785504    57.687966    40.109175 
61100000    282.76309    329.30946    303.85492   -21.417326    18.639747    25.454537     40.11136 
61104000     265.5933     313.6033    273.08323   -20.220483    21.835802    40.520069    40.110918 
61108000    270.44567    323.56264    262.49402   -19.998568    21.691566    61.068617    40.109482 
61112000    267.69361    308.84532    285.16368   -20.268146    20.139923    23.681632    40.110558 
61116000    265.42051    296.34107     280.0367   -19.148791     19.67579    16.304369    40.112837 
61120000    278.19403    339.22466    286.41766   -21.929487     20.17195    52.807003    40.111927 
61124000    274.55124    339.82885    274.40434    -21.15949    21.304074     65.42451    40.111037 
61128000    278.80042    314.74117    304.08375   -20.506374    20.661551    10.657423    40.109674 
61132000    259.97154    314.18667    266.74889   -19.442126    22.341841    47.437785    40.110156 
61136000    268.54351    324.18096    265.39804   -19.784621     21.82206    58.782925    40.111356 
61140000     274.9594     321.1979    291.85562   -20.455303    20.699568    29.342279    40.111623 
61144000    267.80055    310.69653    277.25407   -19.550908    20.943852    33.442464    40.111155 
61148000    266.14728    305.88056    280.63931   -18.503665    21.834827    25.241249    40.110766 
61152000    270.78451    318.97522    290.18945   -18.865217    21.340355    28.785765    40.111178 
61156000    261.99052     318.1401    271.23674    -18.56429    22.858805    46.903359    40.110658 
61160000     268.9493    309.45576    291.67392   -17.960686    21.311694    17.781834    40.110491 
61164000    252.00275     293.4682    271.21138   -16.985283    22.934087    22.256829    40.109553 
61168000    274.10469    319.66612    281.60587   -18.735058    20.985025    38.060248     40.10917 
61172000    273.74353    315.54749    273.95692   -19.858693    20.227644    41.590565    40.111869 
61176000    259.26037    308.91027    267.12222   -18.584405    22.597806    41.788046    40.110084 
61180000    265.17374    313.36035    279.80842   -18.482397    21.336369    33.551928    40.110433 
61184000    270.94372    312.68309    302.68755   -18.801076    19.723856    9.9955375    40.109859 
61188000    267.08906    326.79383    262.77681   -18.705434    20.994809    64.017024    40.109812 
61192000    267.27115    313.55922    280.10639   -19.171144    20.865422    33.452826    40.110576 
61196000    276.92108    329.05707     288.3569   -19.919634    21.206856    40.700174    40.108352 
61200000    269.29333    335.40925    280.68061   -19.607088    21.195638    54.728645    40.107213 
61204000    274.69147    317.88429    285.21997   -20.740168    21.474513    32.664322    40.106436 
61208000     273.7376    322.77112    296.82698   -20.189312    21.068212    25.944143    40.107657 
61212000    271.51358    312.04934    288.43428   -20.031362    20.493426    23.615056    40.106666 
61216000    267.77077    323.31646     282.5443   -18.501535    20.417198    40.772166    40.106567 
61220000    272.17271    307.11106    299.92623   -19.463765    19.519458    7.1848255    40.106115 
61224000      279.778    324.53914    290.97247   -20.904589    20.249313    33.566674    40.105607 
61228000     268.2056    320.65742    255.66766   -20.175232    20.862194    64.989757    40.104537 
61232000    267.22959    315.65086    270.69629   -19.277315    21.099266     44.95457    40.105973 
61236000    270.50362    318.70706    274.28338   -19.255704    21.269159    44.423674    40.104938 
61240000     272.5142    333.73942    272.42587   -21.528469    22.322266    61.313555    40.106006 
61244000     272.3334    346.36281    264.84663   -21.901484    21.733278    81.516179    40.106873 
61248000    276.95508    315.06481    296.81716   -19.606609    20.151791    18.247653    40.106277 
61252000    267.73344    315.52796    266.72273   -19.672091    21.131287    48.805229    40.106543 
61256000     277.1228    323.97543    285.38907   -20.481323    19.797837    38.586359    40.106847 
61260000     281.5242    329.82762    290.81837   -19.740973    20.034032    39.009253    40.106322 
61264000    274.97247    320.21395    275.58145   -21.090158    20.227691    44.632498    40.106614 
61268000    279.51325    318.41759    271.13349    -20.19083    21.266787      47.2841    40.105577 
61272000    278.52596    320.59126    273.72132   -21.158279    20.059822     46.86994    40.108338 
61276000     272.8727    327.43061    277.86086   -20.411186    20.647954    49.569747    40.109794 
61280000    281.72503    326.57807    301.22496   -20.429483    20.499883     25.35311    40.109959 
61284000    273.88273    322.30975    294.87251   -20.122315    20.640333    27.437243    40.109764 
61288000    268.86927    329.16889    273.54052   -20.137612    21.267494    55.628373    40.108867 
61292000    266.77062    319.20816    274.42822   -19.597781    20.679756    44.779939    40.109769 
61296000    268.19679    290.67844    282.66094   -18.284313    20.690617    8.0174989    40.108525 
61300000    264.97039    317.00744    267.46393   -19.650313    21.619511     49.54351    40.109236 
61304000    274.98823     335.4633    272.25235    -19.58305    20.692609     63.21094    40.109263 
61308000    261.11292      293.383    265.88458   -18.197138    21.767501    27.498419    40.109942 
61312000    271.81259    333.92123    280.53909   -20.958928    21.023094    53.382144    40.110407 
61316000    281.29477    339.78392    283.01715    -20.11443    19.436272    56.766762    40.108728 
61320000      263.428    293.79131    294.23574   -17.417704    20.323244  -0.44443643    40.110059 
61324000    277.06054    324.46318    280.27349   -18.848577    19.690416    44.189683    40.110146 
61328000    279.19209    342.95873    280.51789   -20.775618    19.500996    62.440838    40.110228 
61332000    279.29776    331.22466    303.64454   -19.195625    17.733959    27.580113    40.107646 
61336000     278.7624    302.86398    302.17321   -19.416652    17.694894   0.69077184      40.1066 
61340000    258.67722    273.51723    280.88094    -17.84386    18.019367   -7.3637024    40.102585 
61344000    272.35252    319.66211    286.42344    -19.68607    19.051999    33.238669    40.102556 
61348000    279.48342    337.43871    294.85767     -20.9207    18.253939    42.581043    40.103085 
61352000    272.12391    304.11502    287.57359   -18.268528    17.800455    16.541426     40.10235 
61356000     272.4622    310.35537    292.18712   -18.040504    19.197316    18.168256    40.100598 
61360000    270.97301    330.66003    273.94915   -18.147168    19.798729    56.710876    40.100029 
61364000    258.74664    307.57574    271.08906   -18.006753    18.773246    36.486675     40.10081 
61368000    271.31402    330.41257     279.0121   -19.570175     19.06895    51.400465    40.101449 
61372000    266.32921    312.02827    253.66918   -18.652229    21.370277    58.359084    40.101557 
61376000    274.94735    320.59904    294.22234   -19.854919    19.288043    26.376697    40.102464 
61380000    278.88177    326.58515    297.63184   -20.992931    18.536007    28.953305    40.102222 
61384000    272.52496    331.02854    260.39557    -19.76063    19.556966    70.632972    40.103634 
61388000     277.2747    322.54979    310.36331    -20.09429    17.978309     12.18648    40.101187 
61392000    268.38889    305.32883    282.75395    -18.46093    19.163978    22.574875    40.101877 
61396000     275.8951    303.21243    290.80592   -17.964804    18.413989     12.40651    40.100844 
61400000    278.75073    343.36053    285.86212   -20.135738    19.724855    57.498413    40.101427 
61404000    277.31763    313.23597    290.29432   -19.115122    19.289296     22.94165    40.100591 
61408000    269.08983    300.92875    284.67853   -17.782314    19.581106    16.250223    40.101466 
61412000    281.64745    331.74847    301.52059   -19.144918    18.596498    30.227883    40.101782 
61416000     273.5871    318.66946    275.81911   -19.129083    19.673469    42.850342    40.101885 
61420000    270.74268    325.96649    262.88391   -18.856071    20.224031    63.082583    40.103323 
61424000    267.67638    293.57984    281.99558   -16.796834    19.944882    11.584258    40.100311 
61428000    268.90012    309.90586    274.06858   -18.754379    21.159766    35.837288    40.100835 
61432000    272.35228    332.43066    266.17228   -20.508883    20.611377    66.258381    40.102194 
61436000     262.8223    317.68829    269.60734   -19.312632    21.368103     48.08095    40.104112 
61440000    283.97591    343.75437    290.50572   -20.429213     20.16767    53.248657    40.104543 
61444000    274.08427    320.88834    286.22234   -19.339384    19.985316    34.666001    40.103619 
61448000    271.91285    317.50306    290.15497   -19.948978     19.49018    27.348094     40.10229 
61452000    273.54208    336.13072    281.26944   -22.428403    20.005281    54.861281    40.102141 
61456000     274.1366    314.86449    291.32421   -20.322818    20.683562    23.540279    40.101945 
61460000    275.07285     320.3987    284.92793   -19.414526    19.563101    35.470762    40.100747 
61464000    270.83979    308.50581    287.77032   -19.000264    20.170573    20.735487    40.101301 
61468000    271.82281    312.54426    291.52255   -19.993224    20.000388     21.02171    40.101017 
61472000    272.10133    331.29318    276.14424   -20.610288    21.212771    55.148942    40.101397 
61476000    275.10925    323.79523    274.19981   -20.998656    19.996955     49.59542    40.101106 
61480000    264.90556    321.53661    265.09888   -20.589068    19.679359    56.437734    40.102793 
61484000    272.54846    315.28616    293.96566   -19.660343    19.188059      21.3205    40.102662 
61488000    275.43712    330.72715    299.19199   -20.413813    18.544474    31.535159    40.102403 
61492000    260.83646    327.87572    253.57477   -20.639328    22.800241    74.300954    40.102336 
61496000    261.04054    292.26319    270.85008    -18.89903    20.843686    21.413107    40.101554 
61500000    279.49396    336.98111    279.71902   -20.589837    20.974668    57.262084    40.103021 
61504000    274.79097    335.45092    260.03748    -20.90279    21.693061     75.41344    40.103286 
61508000    275.85172    345.39812     280.6566   -22.123976    20.461169    64.741524    40.103673 
61512000    271.66223    300.89209    292.34219   -19.551027    20.539452    8.5499069    40.102818 
61516000    271.94588    316.60853     283.7093   -21.433078    19.363681    32.899234    40.104622 
61520000    275.64258    341.60492      269.284   -20.990207    20.285918    72.320921     40.10659 
61524000    273.33699    301.49587    289.06985   -20.410527    19.990104    12.426013    40.104691 
61528000    267.47876    311.40473    277.96984   -20.877555    21.258614    33.434887    40.104433 
61532000    260.95995     294.6512    257.30993   -19.862658    21.725092    37.341266    40.104201 
61536000    272.06268    339.84951    274.20423   -21.510585    21.594147    65.645285    40.103897 
61540000    275.04897    334.92221    271.39672   -21.853155    20.978662    63.525493    40.103819 
61544000    279.88694    328.14445    287.37363   -21.020632    20.983472    40.770823     40.10362 
61548000    277.76569    325.56672    298.23716   -20.689229    20.292719    27.329551    40.105749 
61552000    278.71592    334.65842    289.92988   -20.222943    20.697834    44.728539    40.105521 
61556000    263.94847    286.25672    266.58891   -19.095145    22.131784     19.66781    40.105258 
61560000    262.76621    318.85764    279.32105   -20.302105    20.780045    39.536596    40.104299 
61564000    274.84509     329.1754    264.30965    -19.79891    20.839283    64.865751    40.106086 
61568000    270.23454     309.5084    273.40576   -20.440523    21.317177    36.102636    40.106278 
61572000    286.87449    345.67311    300.09523   -21.906227    20.275402    45.577875    40.106064 
61576000    278.08284    326.35347    274.10297   -20.743852    20.351249    52.250498     40.10593 
61580000    270.79839    310.76468    269.64794   -19.160656    19.806128    41.116745    40.106796 
61584000    274.74472    326.48158    281.47168   -21.175415    19.944475    45.009903    40.108062 
61588000    269.59436    298.60836    276.82123    -19.26899    21.068624    21.787124    40.108184 
61592000      268.934    328.33556    262.69448   -21.836597    22.043026     65.64108     40.10739 
61596000     272.5372    316.53666    258.00138   -20.610744    21.408772    58.535279    40.110094 
61600000    270.55014    314.96188    264.01288   -20.673521    20.459341       50.949    40.110584 
61604000    282.77944    354.60033    283.11123    -23.18141    20.666852    71.489108    40.111477 
61608000    271.16262    326.00768    263.65762   -20.951571    21.666941    62.350065    40.112728 
61612000    281.09589    324.88859    303.04235   -20.582725    20.120052    21.846239    40.111821 
61616000    273.40438    326.09443    257.40884   -21.261153    21.074279    68.685588    40.112948 
61620000    278.17396    328.23387     282.7985   -20.850814    20.385147    45.435366    40.113771 
61624000     279.5662    327.44997    294.45948   -20.212416    19.085127    32.990491    40.113807 
61628000    270.00231    312.91371    272.77419   -21.373781    20.122455    40.139517    40.114104 
61632000    265.59287    336.15751    257.09671   -20.626133    21.807464    79.060792    40.113471 
61636000    283.15752    318.97996    294.04542   -20.218417    19.745359    24.934542    40.114721 
61640000    268.61877     308.4558    279.66872   -20.681312    19.923303    28.787079    40.113742 
61644000    276.47092    333.00157    265.21645   -21.768126    21.280218    67.785113    40.114554 
61648000    275.82413    329.43851    280.79713   -21.485801    21.109414     48.64138    40.114975 
61652000    271.75499     306.8446    270.95385    -21.02848    19.970548    35.890745    40.114939 
61656000    294.40842     346.7535    297.69797    -23.02028    19.726883    49.055531    40.112694 
61660000    282.27087    328.59828    287.07139   -22.477308    19.943865    41.526895    40.111755 
61664000    280.46361    321.72454    282.34732   -21.361674    19.871536    39.377219    40.112438 
61668000    270.05457    321.11035    259.28902   -21.777313    22.724746    61.821326     40.11458 
61672000    273.28222    317.45083    285.45683   -21.854831    20.160429       31.994    40.116373 
61676000    276.09725    297.67648    290.81884   -21.857627    20.029182     6.857643    40.115538 
61680000    271.56622    310.23131    278.80073   -21.465457    20.379874    31.430579    40.114844 
61684000    273.56489    306.57969    285.03585   -21.240341    20.318531    21.543834    40.114434 
61688000    280.77109    336.93151    295.87144   -21.761962    20.053992    41.060077    40.116593 
61692000    272.59867    325.15814    278.00228   -20.441755    21.399821    47.155856    40.116517 
61696000    272.68172    301.65446    306.45011   -18.524755    18.957881   -4.7956516    40.115557 
61700000    265.05702    300.05092    285.83714   -20.570051    20.259382    14.213784     40.11445 
61704000    268.97932    320.26938    284.79316   -20.277563    19.844766    35.476226    40.114403 
61708000    290.87859    334.99262     314.6849   -21.594903    18.715099    20.307714    40.114194 
61712000    272.75773    307.94529     276.0259   -20.385822    20.809943    31.919384    40.112369 
61716000     271.8445    316.30831    289.76194    -21.01366    20.267235    26.546373    40.110173 
61720000    275.16774    316.51158    292.31469   -20.414443    20.410234    24.196889    40.109065 
61724000    274.79323    321.32761    293.58833   -20.899993    20.262486    27.739273    40.108139 
61728000    281.97157    326.72095    306.69656   -21.346158    20.395317    20.024391    40.104795 
61732000    274.09646    328.82961     290.6916   -20.944284    19.313956    38.138007    40.105245 
61736000    272.72344    318.16595    279.06274   -19.816145    19.949229    39.103216     40.10537 
61740000    273.40387    298.43856    285.18381   -19.660656    19.948495    13.254746    40.105195 
61744000    282.39551    341.73865     279.3056   -21.638393    20.977105    62.433052    40.105344 
61748000    278.44939    309.57349     286.6297   -20.057704    19.003927    22.943788    40.106503 
61752000    277.08739    331.12633     273.1194   -19.701775    20.769255    58.006927    40.106443 
61756000    274.31449     314.1052    283.57934   -20.258646    19.732678    30.525863    40.107035 
61760000    285.38283    345.96319    282.30996   -21.516217    19.700191     63.65323     40.10892 
61764000    279.71986    330.84264    277.12258   -21.743004    18.623924    53.720063    40.110104 
61768000    273.97962    310.10725    272.82225   -20.760106    21.219657    37.285001    40.109846 
61772000    266.26137    308.27296    273.62628   -21.407427    19.985491    34.646677    40.109273 
61776000    275.92061     317.8146    300.25937   -22.168171    19.147513     17.55523    40.108812 
61780000    273.76863    338.61159    266.19818   -21.978103    21.135572    72.413411    40.109049 
61784000    277.92455    328.45087    284.72486   -20.585195    20.787133    43.726007    40.109316 
61788000    269.69911    328.62011    268.20798   -22.352772    21.777468    60.412131    40.108482 
61792000    273.28406    328.81209    276.42231    -20.33197    21.074764    52.389786    40.109709 
61796000     280.0474     331.5488    293.44838    -21.46211    19.685222    38.100423    40.109233 
61800000    274.67217    331.12792    273.80753   -20.952656    21.619908    57.320392    40.109112 
61804000    277.54359    324.50203    291.71669   -21.728265    20.556414    32.785345    40.110598 
61808000    282.25169    330.06481    282.20491   -21.837784     20.59967    47.859901     40.11265 
61812000    280.90039    337.78027     289.0492   -22.067114    20.696849    48.731067    40.111724 
61816000    278.51763    346.43921    264.27629   -22.723254    21.202904    82.162916    40.112246 
61820000    274.46199    324.45383    264.15424   -21.296137    21.470871    60.299599    40.111368 
61824000    279.52323     325.7364    284.31515   -20.677471    19.795859    41.421253    40.108996 
61828000    267.36685    319.04491    268.88771   -20.034954    21.246032    50.157192    40.109703 
61832000    275.07861       315.03    280.51817    -21.38776    19.620529    34.511833    40.109958 
61836000    278.67422     331.7175    291.10464   -21.012329    19.117573    40.612859    40.107941 
61840000    269.02424    314.48914    269.03017   -20.423726     20.25695    45.458964    40.108485 
61844000    273.92372    306.92361    294.50391    -21.65195    18.993569    12.419698    40.108371 
61848000    269.41051    321.80466    275.77922   -20.469017    20.325235    46.025435    40.109882 
61852000    263.28633    330.55345    261.74269   -21.205688    19.919682    68.810757    40.109813 
61856000    283.51451    344.75404    285.91384   -23.243091    20.629397    58.840203    40.110041 
61860000    273.12221    310.67362    292.46278   -20.708484    20.143429    18.210838     40.10992 
61864000    276.60039    312.01863    271.66045   -19.903827    21.200461     40.35819    40.110276 
61868000    277.11207     320.8853    274.83782   -19.341095    20.872145    46.047482    40.111966 
61872000    277.76672    326.67437    294.57929   -20.979838    19.135594     32.09508    40.112126 
61876000    270.16348     312.5685    277.05615   -20.989406    20.287317    35.512358    40.111667 
61880000    273.55552    327.37514    280.50271   -21.145981    19.770871    46.872431    40.111848 
61884000    278.93593    335.48412    296.29579   -21.609692    19.760671    39.188328    40.111888 
61888000     263.4979    309.52125    267.82886   -19.581084    20.767086    41.692382    40.111553 
61892000    272.11017    316.36633    289.42164    -20.46159    19.139671    26.944683    40.111886 
61896000    271.43895    321.87022    261.37524    -21.21957    20.949295    60.494974    40.112847 
61900000    273.82981    315.66344    286.83283   -21.326766    19.397181    28.830607    40.114634 
61904000    274.88689    331.30151    279.18156   -21.126216    18.666464    52.119944    40.115386 
61908000    272.72168    298.11702    264.41974    -19.55451     20.76602    33.697281    40.115903 
61912000    267.91235    308.98065    275.86054   -20.056699    20.749088    33.120103    40.115374 
61916000     284.8283     333.8894    300.78887    -23.17831    19.701221    33.100532    40.115488 
61920000    275.96681    317.12545    271.13587   -21.958599    20.563754    45.989584    40.116991 
61924000    277.68641    314.93067    273.91585   -20.895033    20.602847    41.014822    40.117343 
61928000    276.43147    319.30758    284.74268   -20.925263    19.979851    34.564895    40.118099 
61932000    270.69343    306.14625    284.81305   -20.117126    21.625227    21.333202    40.116681 
61936000    280.10084    309.64517    295.02701   -20.310584     20.31182    14.618156    40.117325 
61940000    274.54761     314.1179    298.10136   -20.771344    18.945281    16.016544    40.117892 
61944000    278.46368    339.79959     276.4535   -22.531585    20.925958    63.346087     40.11803 
61948000    270.56847    322.87091    285.29475   -21.006141    21.442088    37.576161    40.118231 
61952000    286.19717    319.15067    312.53597   -22.794958    20.114749    6.6147034    40.116498 
61956000    270.88324    318.64439    280.59528   -22.003741    21.109434    38.049117    40.115006 
61960000    282.67939    337.69907    279.59677   -23.720388    21.331729      58.1023    40.113721 
61964000    278.43798    329.39113    277.60781   -21.463837    21.576153    51.783319    40.113309 
61968000    277.94574     324.8136    286.99616   -22.411683     20.69061    37.817439    40.111502 
61972000    273.95764    309.42416    280.45434   -21.779232    21.448009    28.969819    40.110379 
61976000      278.018    321.85684    274.80423   -21.211026    22.219394    47.052615    40.110357 
61980000    275.50957    313.81937    274.73113   -22.943355    20.711185    39.088244    40.109293 
61984000    275.10719    313.34045    265.24933   -22.036831    20.676918    48.091125    40.109438 
61988000    279.85226    335.67184    291.07687   -22.090655    21.296102    44.594963    40.110355 
61992000    280.89757     322.2017    281.79209   -22.826891    20.980067    40.409605    40.112305 
61996000    281.44461    343.38347    292.06705   -23.664158    19.795997    51.316424    40.112409 
62000000    279.52752     339.0156    294.46131   -23.565594     20.19857    44.554297     40.11338 
62004000    272.04953    330.70451    291.87026   -21.911956    20.758206    38.834252    40.113521 
62008000    265.27307    306.45782    285.00646    -21.88471     20.35383    21.451365    40.114791 
62012000    279.36447    335.33693    275.99061   -23.329838    22.367078    59.346317     40.11417 
62016000    270.19321    328.68018    286.36137   -21.687827    21.204385    42.318815    40.116177 
62020000     268.4268    330.52279    267.15869   -20.817368    22.237663    63.364092    40.116232 
62024000    269.84452    313.54751    277.92415   -20.197172    20.742602    35.623358    40.116016 
62028000     265.8777    300.69642    292.69247   -20.271662    20.647314    8.0039523    40.114627 
62032000    275.15943    325.10637    291.85356   -21.743814    20.712152    33.252811    40.114215 
62036000    273.93675     316.1079    283.36858   -20.060161    20.758981    32.739319    40.113191 
62040000     274.9608     333.2386    274.07473   -22.403969    22.214987    59.163874    40.115674 
62044000    268.11285    313.63838     275.7809   -20.632582    21.977411     37.85748    40.115136 
62048000    273.68359    327.37888     277.9192   -22.637028    21.310402    49.459685    40.114983 
62052000    270.49847    338.39551    272.05022    -21.25342    22.697694    66.345294    40.115735 
62056000    265.70823    294.28177    261.95315   -20.140556     23.24165    32.328617    40.116679 
62060000    272.05054    331.27963    266.69029    -22.02463    22.617073    64.589339    40.116702 
62064000    284.81253    311.93688    301.24981     -20.7992    20.561559    10.687069    40.116761 
62068000      274.421    304.44406    268.31586   -20.323488    21.579664    36.128199    40.114485 
62072000    272.35888    313.73017    269.87408   -20.762315    22.463192    43.856088    40.114191 
62076000    272.35279    305.70748    275.71339   -21.192235     21.53385    29.994091    40.115348 
62080000    276.40682    332.80802    272.18776   -21.592248    21.801192    60.620262    40.114052 
62084000    275.63029    302.97339    294.62777   -20.358697    20.418656    8.3456261    40.113171 
62088000    277.82181    328.36705     282.3613   -22.460278    20.658523    46.005757    40.113623 
62092000     279.8988    315.85595    295.18565   -22.348201    18.535261      20.6703    40.112382 
62096000    282.72853    333.42332    302.93491   -22.463876    19.011793    30.488413    40.111748 
62100000    269.55228    320.60344    267.21864   -21.179837    20.525457    53.384795    40.111245 
62104000    282.52458    326.17093    288.23441   -20.659123    19.839245    37.936522    40.110546 
62108000    277.64423    313.66848     312.1328   -20.959769     17.99142    1.5356732    40.112232 
62112000    284.46986    336.67278    290.26989   -21.571861    20.539534    46.402887    40.113089 
62116000    277.66395    337.09552    287.29529   -21.966592    20.319689     49.80023    40.113826 
62120000     277.2161    314.91523    279.30734   -20.888482    19.813893    35.607894    40.111298 
62124000    279.92301     325.1156    293.39866   -21.580259    20.507688    31.716939    40.112673 
62128000    267.80078    305.99364    267.52319   -20.115023    21.498387    38.470452     40.11306 
62132000    276.20721    310.62739    271.86285   -20.123584    20.185214    38.764534     40.11462 
62136000    271.43862    323.18746    256.37852   -21.034293    20.861004    66.808948    40.114625 
62140000    269.82993    335.65069    270.50907    -21.36843    20.846521    65.141619    40.113311 
62144000    281.09089    299.17916     290.2201   -19.694841    18.507814    8.9590598    40.113037 
62148000    278.46638    324.22385    293.53211   -20.287082    19.433187    30.691742    40.111216 
62152000    272.99783    322.70336    274.93246   -20.009019    20.894998    47.770898    40.111288 
62156000     262.5297    318.30323    259.53908   -20.555756    21.450777    58.764152    40.110815 
62160000    272.88172    328.29483    273.09514   -21.007304    20.606081     55.19969    40.109687 
62164000     276.6428    336.86571    279.43796   -21.499144    20.545711     57.42775    40.109378 
62168000    284.85695    353.77141    289.08054   -23.495357    19.721456    64.690874     40.10922 
62172000    278.95111    320.02068    293.03517   -22.144513    20.130635     26.98551    40.110808 
62176000    272.90842    307.98619    263.78537   -22.092782    21.770095    44.200819    40.110813 
62180000    280.04666    328.29755    277.28917   -22.532573    21.385513    51.008376    40.109892 
62184000     288.8473    330.51755    297.80302   -22.322765    19.380796    32.714536    40.108508 
62188000    273.41777    308.90021     287.8635   -21.498086    20.286187    21.036713    40.111156 
62192000    275.56968     338.4402     268.5175   -21.629758    20.945868    69.922701    40.112815 
62196000    278.64642    311.79478    279.49494   -21.385053    20.289672    32.299839    40.112541 
62200000    270.88706    318.21446    270.42609   -22.019232    19.984678    47.788371    40.113037 
62204000    275.94028    316.29309    275.03262   -22.663664    20.918992     41.26047    40.113144 
62208000    281.58734    310.19022    282.35964   -22.514292    21.065893    27.830576    40.113261 
62212000    278.61109    307.94196    296.05515   -20.615558    19.344138    11.886811    40.111936 
62216000    287.89688    333.43691    300.97416   -22.003988    20.387785    32.462745    40.111074 
62220000    277.97454    322.20195    296.51012    -21.93553    20.738333    25.691829    40.112084 
62224000    273.74781    307.31845     287.9914   -21.895238    21.757052    19.327056    40.110688 
62228000    274.73448    322.73363    276.82348   -22.073275    22.697464    45.910146    40.109786 
62232000    274.72014     324.5095    268.88522   -21.201605    21.845835    55.624277    40.110415 
62236000    277.41444    305.86893    293.72103   -20.703009    21.476456      12.1479     40.10902 
62240000    272.00897    308.69767    281.58936    -20.36068    22.623115    27.108301    40.109901 
62244000    281.96145    335.46862    288.73171   -21.280073    22.073555    46.736914    40.109267 
62248000    275.63787    334.13953    273.50443   -21.820576    21.829784    60.635095      40.1078 
62252000    281.27842    322.28397    290.68777   -21.418556    20.993377    31.596203    40.108825 
62256000    271.95328    285.15158    287.30532   -19.267401    21.295865   -2.1537388    40.109733 
62260000     276.2244     329.6146    292.92265   -21.225774    20.468352    36.691953    40.108985 
62264000    271.62406    322.39356    272.92003   -22.333035    21.091063    49.473536    40.109275 
62268000    279.04375     319.0788    277.70939   -22.823667    21.982357    41.369403     40.11044 
62272000    277.83403    299.11992    296.36415   -21.360441       20.971     2.755767     40.10907 
62276000    271.35943    307.05496    279.90372   -20.345342    20.824044    27.151237    40.108247 
62280000    271.01364    313.76959    284.26465   -20.895242    21.033749    29.504939    40.110634 
62284000    280.24109    327.16244    296.39666   -22.830017    20.488849    30.765786    40.111339 
62288000     278.1624    328.12117    274.18585   -22.818438    21.766031    53.935319    40.111827 
62292000    272.66295    312.22955    279.18892   -22.363566    21.461478    33.040624    40.112305 
62296000    273.45244    320.06017    273.96115   -21.403689    22.405178    46.099025    40.113627 
62300000    275.91952    333.19616    266.43552     -23.2583    21.309909    66.760634    40.113641 
62304000    276.81791    339.30089    258.76792   -23.291759    22.380643    80.532965    40.113754 
62308000    274.11727     303.0855    292.49081    -21.41446     21.31145    10.594689    40.115031 
62312000    277.33936    327.37232    279.72818   -22.500612    21.520194    47.644138    40.114705 
62316000    267.21772    321.50424    262.18733   -21.570107    21.611702    59.316915    40.116908 
62320000    275.39655    311.29259    297.79336    -21.43093    20.214653    13.499227    40.116779 
62324000    276.94872    309.30627    280.89176   -21.502858    21.446708    28.414511    40.118279 
62328000    276.36235    325.83086    291.73319   -22.562646    20.256594    34.097667    40.118001 
62332000    275.95017    316.43807    299.16904   -21.617228    19.158713    17.269028    40.115451 
62336000    282.25534    332.26603     287.5805   -23.092889    20.087262    44.685538     40.11495 
62340000    283.20058    353.93294     281.9169   -23.703951    21.398098     72.01604    40.115157 
62344000    268.61628    301.83415     273.6736   -21.970396    21.563969    28.160553    40.115764 
62348000    271.75494     320.4719    281.65343   -21.976591    21.018849    38.818472    40.115099 
62352000    284.81284    337.68879     291.7066    -22.55244    21.554619    45.982183    40.115781 
62356000    276.13925    328.07971     274.1247   -22.108734    23.052855    53.955011    40.115373 
62360000    281.00747      321.588    301.71761   -21.313893    20.965577    19.870384    40.115198 
62364000    273.70691    303.41733     271.9822   -20.811818    21.749055    31.435129    40.114828 
62368000    276.95933    310.79015    288.71093     -21.6349     20.72791    22.079212    40.115043 
62372000    269.47023    305.69408    284.35083   -20.122586    20.326402    21.343255    40.114693 
62376000    275.82952    318.35143    285.52371   -21.627706     20.57152    32.827722    40.113292 
62380000    280.84852    338.40212    285.32446   -22.277989    20.683476    53.077664    40.114547 
62384000     267.7807    309.63706    263.31204   -21.507982    21.867773    46.325021    40.114335 
62388000    279.41957     330.6962    284.39278   -22.627946    20.218518    46.303424     40.11733 
62392000    276.81748    304.35771    278.49305   -21.206465    20.918401    25.864659    40.119889 
62396000    273.97794    319.96939    272.75526   -21.772803    21.299006    47.214126    40.120268 
62400000    265.97127    324.11116    258.41769   -22.402679    21.431683    65.693465    40.121487 
62404000    265.85355    308.58638    268.24274   -20.878172    20.688136    40.343644     40.11974 
62408000    272.35458    305.24412    308.48817   -20.950632    18.467482   -3.2440521    40.117901 
62412000    273.29661    319.93338    278.10363   -21.180988    20.771278    41.829758    40.115088 
62416000    273.21796    310.43799    272.26353   -22.413533    21.030731    38.174461    40.116004 
62420000    277.37841     312.5441    268.70166   -21.540447    20.785664    43.842434     40.11565 
62424000    280.59492    309.10203    295.37874   -22.076733    19.924242    13.723286    40.116766 
62428000    275.22077    326.93061    280.51621   -22.991802    20.117235    46.414409    40.117179 
62432000    271.11532    317.90147    262.96558   -23.267731     21.15243    54.935894    40.116141 
62436000    278.34513    321.58431    272.75111   -22.614196    21.558122    48.833202    40.117337 
62440000    277.84751    303.43724    290.70337   -23.409743     20.30589    12.733872    40.116085 
62444000    273.45887    315.11758    295.24292   -22.560445    20.261237    19.874659    40.116493 
62448000    277.89447    328.15842    272.40281   -23.233405    20.942478    55.755605    40.116534 
62452000    279.59775     317.5942    281.52988   -22.956768    21.856125    36.064322     40.11732 
62456000    281.53823    331.28713    276.07564   -23.020777    21.602988     55.21149    40.117783 
62460000    281.51714    359.35367    271.51807    -24.66254    22.741502    87.835594     40.11821 
62464000    274.83728    329.82305    279.40795   -23.281455    22.280393    50.415096    40.118352 
62468000    268.87594    309.88801    269.40954    -22.66112    21.892399    40.478464    40.118711 
62472000    273.00318    304.68227    281.89132   -23.425504    21.180167    22.790947    40.119485 
62476000    274.49307    313.18165    279.14621   -23.668559    20.742101    34.035444    40.121304 
62480000    273.54959    317.85131    276.61849   -23.997354    21.920304    41.232819    40.120499 
62484000    279.57571    331.22267     273.2309   -24.992447    21.994632    57.991777    40.119634 
62488000    274.52653    302.81003    284.58955   -23.759181    20.686424    18.220477     40.12021 
62492000    276.90203    314.53882      268.681   -24.079783    21.901522    45.857821    40.120433 
62496000    279.84583    309.46559    288.64519   -23.603589    21.146353    20.820397    40.120799 
62500000    284.54086    331.95852      275.319   -23.874471    22.266346    56.639524    40.121004 
62504000    284.71747    339.67715    288.05852   -24.045501    21.638295    51.618631    40.119131 
62508000    277.03863    303.89931    309.90436   -22.623797    20.807655   -6.0050533    40.116941 
62512000     277.3443    309.54286    283.12211   -22.244745    21.193563    26.420743    40.116955 
62516000    282.10363    336.99566    286.87434   -24.019726    21.960477    50.121318    40.116581 
62520000    277.86811    337.07086     270.6734   -24.182507    21.971121    66.397463    40.114867 
62524000    274.02799    316.20246     269.0683   -23.288924    22.793751    47.134156    40.115631 
62528000    276.93693    332.59487    273.26981   -23.004933    22.427523    59.325059    40.117814 
62532000    277.01476    320.68273    276.37802    -23.26628    21.705036    44.304706    40.120581 
62536000    284.35126    332.55054    273.02114   -24.309447    22.527169    59.529404    40.119375 
62540000    280.75904    307.02751    295.67609   -23.109216    20.203092    11.351422    40.118306 
62544000    279.66042    303.16752    293.24507   -22.797901    21.666233    9.9224507     40.11824 
62548000    270.10137    293.36998    282.40955   -21.378769    21.505126    10.960435    40.117908 
62552000    269.99759    318.79533    270.23959   -23.768801    21.951253    48.555746    40.117997 
62556000    275.37288    310.37524    288.52951   -23.289709    20.569572    21.845732    40.119246 
62560000    276.78858    315.04379    268.03199   -23.556368    21.739213    47.011799    40.118373 
62564000    280.29838    324.43163    277.98679   -23.838966    22.502642    46.444844    40.119021 
62568000    281.12594    324.51866    276.55393   -24.708264    21.672653    47.964723    40.119237 
62572000    271.82943    328.37108    269.60592   -23.547942    21.741327     58.76516    40.119097 
62576000    275.32999    324.87071    253.69923   -23.538872    22.899752    71.171482    40.120401 
62580000    282.18341    320.83875    296.35479   -24.405989    19.925494    24.483961    40.119674 
62584000    283.51705    317.01414    296.98231   -25.219952    20.327478    20.031831     40.12057 
62588000    280.46426    314.60531    295.98381   -23.329697    19.117727    18.621492    40.119661 
62592000    284.69028    330.73661     282.5776   -23.573207    20.485409    48.159006    40.118869 
62596000    292.65533    339.95172    293.29557   -25.233709    20.608518     46.65615      40.1182 
62600000    281.47776    335.63346    283.37493   -24.982253    21.529625    52.258535    40.118291 
62604000    274.74338    337.77397    264.67842   -24.653114    22.235126    73.095553    40.118507 
62608000     274.5711    307.03487    269.72427   -22.370368    22.334841    37.310598    40.118719 
62612000    277.13567    323.79575    278.80223    -22.49264    21.879699    44.993524    40.119655 
62616000    279.08917    323.81073    288.43689   -24.487394    21.902216    35.373839    40.119561 
62620000    285.29769    341.14897    272.66098   -24.138544    22.871248    68.487988    40.119102 
62624000    267.06911    312.37256    262.52826    -22.81354     22.40456    49.844298    40.120285 
62628000    275.01379    313.09166    282.68173   -23.116633    22.747383     30.40993     40.11979 
62632000    278.39162    308.33506    286.23216   -23.499965    21.978128    22.102907    40.119996 
62636000    276.57236    323.25513    284.94071   -24.402012    22.171172    38.314421    40.119015 
62640000    274.52638     324.4967    280.80741    -24.40685    22.405048    43.689287    40.119437 
62644000    278.99636    304.93003     290.7241   -23.682855    22.350002    14.205934    40.119212 
62648000    271.70576     317.3156    272.92097   -24.439852    22.856378    44.394627    40.122135 
62652000    274.51666    300.74165    287.40296   -24.338579    21.930947    13.338683    40.120221 
62656000    277.53503    317.99335    279.53543   -24.724432    23.417201    38.457925    40.120317 
62660000    275.12702    308.04499    287.63355   -24.196714    22.273798    20.411435    40.119275 
62664000    275.53281    320.89133    285.71207   -25.247032     22.68944    35.179269    40.117813 
62668000    278.28947    338.13332    263.62394   -25.987688    23.880051    74.509377    40.117812 
62672000    283.34729    340.42411    286.04442   -27.187335     22.18411    54.379692    40.117391 
62676000    274.00392    305.29988    293.70889   -23.531547     22.31879    11.590988    40.117455 
62680000    275.37966    315.49909    281.02552   -24.422508     22.13316    34.473568    40.116659 
62684000    275.00218    316.09891     275.8382   -24.750545    23.180172    40.260714    40.118044 
62688000    281.03446      333.682     264.0761   -25.054924    23.906567    69.605904    40.118752 
62692000    275.91253    304.11922    294.23786   -24.259176    22.640202     9.881354    40.115715 
62696000    278.29438    336.34849    256.56685    -25.48499    23.169741    79.781634    40.116641 
62700000    289.03535    327.94832    280.14988   -25.944658    22.527705    47.798444    40.115085 
62704000    288.24617    321.53437    293.02143   -24.199658    21.450125    28.512936    40.114253 
62708000    283.14075    325.05395    294.84583    -24.72056    22.396412    30.208119    40.113253 
62712000    279.06306    290.08738     300.4682   -24.166858    22.418152   -10.380818    40.113084 
62716000    269.30686    318.77082     264.2583   -24.982071    24.390336     54.51252    40.114645 
62720000    289.20832    339.38413    299.95556   -25.498283    22.234424    39.428566    40.115074 
62724000    285.88176    342.73332     303.2719   -25.046608    21.902959    39.461421     40.11641 
62728000    278.26307    341.49025    268.22822   -27.789539    23.371815    73.262032    40.115713 
62732000     281.9803    321.20037    291.42531   -24.168082    21.920514    29.775059    40.115248 
62736000    277.11812    331.74304    271.01525   -24.712587    23.643805    60.727787    40.115558 
62740000    273.68491    345.20096    273.83537   -23.549198    23.276722    71.365588    40.118047 
62744000    271.05843    303.32007    281.05908   -23.646008    22.670381     22.26099    40.117507 
62748000    280.56482    334.67551    282.03819   -25.749572    22.518916    52.637318    40.117699 
62752000    275.81421    324.05902    273.08836   -24.284698    23.984269    50.970666    40.118339 
62756000    271.05888    337.50291    261.84655   -24.538377    24.242588    75.656364    40.120306 
62760000    281.40859    342.10783    292.27439   -25.874482    22.394557    49.833442    40.120392 
62764000    281.50847    329.93925    281.81092   -25.755145    22.513974    48.128327    40.119431 
62768000    272.89355     304.5915    281.43585   -23.570611    22.713417    23.155652    40.119901 
62772000    268.63695    323.44237    265.06339   -24.282966    22.877766    58.378983    40.119953 
62776000    281.13836    327.23412    279.33956   -24.486016     23.84004    47.894563    40.118341 
62780000    274.98728    324.62315    285.29011   -23.930021    22.592446    39.333046    40.118066 
62784000    272.13516    315.74669    269.84807   -24.804093    24.196603    45.898621    40.119199 
62788000    270.94831    314.52235    275.97452   -23.221415    23.305664    38.547828    40.120215 
62792000    271.96067    319.55168    276.57787   -23.663507    23.104626    42.973811      40.1199 
62796000    266.42864     318.9737    279.87063   -23.548476     23.50761    39.103076    40.120691 
62800000    277.50872    329.76167    273.16293   -23.916972    23.896931    56.598742    40.119662 
62804000    261.90711    285.15486    289.99427   -20.854205     22.85312   -4.8394103    40.119664 
62808000    270.03359    307.25145    272.78547   -23.398157    24.273823    34.465984    40.119496 
62812000    268.69116    314.19253    260.28083   -24.900624    23.658632    53.911699    40.119654 
62816000    275.66792     315.5204    284.05315    -25.09319    22.855705    31.467248    40.121014 
62820000    269.87136    333.34876     261.5652   -25.850503    24.169396    71.783563    40.121848 
62824000     272.9637    313.17379    301.64791   -24.832612    21.312206     11.52588    40.122383 
62828000    263.90184    292.30134    267.56382   -22.951511     24.69011    24.737522    40.122954 
62832000    269.48051    313.24032    279.24173    -25.05455    23.575099     33.99859    40.124135 
62836000    265.33667    320.80441    257.71713   -25.075875    24.489143    63.087282    40.124017 
62840000    285.19619     321.8367    305.08308   -24.683423    21.889165    16.753619    40.123452 
62844000    274.87179    294.27859    288.69658   -23.326442    23.108971    5.5820063     40.12392 
62848000    267.74771    299.10147    279.49728   -23.677715    22.356214    19.604193    40.124508 
62852000    274.12632    311.04155       278.62   -24.261695    23.006016     32.42155    40.124315 
62856000    278.73207    324.15625    278.70592   -24.998695    22.519311    45.450324    40.124157 
62860000    271.08062    323.54163    253.15595    -26.02291     24.30722    70.385678      40.1244 
62864000    263.42893    297.30623    263.86911   -23.979023    24.607055     33.43712     40.12427 
62868000    280.09231     315.4484    303.24198   -23.840287    22.293913    12.206424    40.124118 
62872000    279.09214    329.53217    275.31991     -24.6506    23.907066    54.212266    40.122852 
62876000    268.49925    299.68389    273.39161   -23.056563    24.739613    26.292283    40.120866 
62880000    278.73261    329.16112    279.44693   -25.445287    24.160067    49.714187    40.121044 
62884000    269.66034     308.5154    267.89261   -24.188433    23.874542    40.622798    40.120454 
62888000    276.89441    315.12661    286.71242   -24.298345    23.426247    28.414183    40.121144 
62892000    278.81991    301.37416     299.7221   -23.573048    21.492471    1.6520597    40.121068 
62896000    277.02192    318.63076    287.01505   -26.379993    22.623261    31.615712    40.123032 
62900000    280.03277    312.99061    286.57634   -25.730456    23.246068    26.414267    40.122763 
62904000    281.35296    316.17346    285.18247   -25.628674    23.238751    30.990995     40.12306 
62908000    279.82345    328.58031    286.97706    -26.38761    23.489911    41.603256    40.122249 
62912000    275.65359    326.64795    290.49216   -25.014886    23.025971    36.155787    40.123442 
62916000    273.65959    309.75541    279.54397   -24.970978    23.667411    30.211438    40.124483 
62920000    284.53419    342.06749     290.6543   -27.140515     23.99219     51.41319    40.123452 
62924000    274.63439    304.64229    289.09312   -24.254421    23.005987    15.549162    40.123551 
62928000    272.61185    298.68809    285.29002   -24.031134    23.141564     13.39807    40.123796 
62932000    273.26266    326.56991    281.18239   -24.958171    23.421298    45.387522    40.125709 
62936000    281.20309    325.48388    284.62097   -25.505499    23.545902    40.862905    40.125451 
62940000    269.02451    308.46948    275.51361   -23.696834    23.074374    32.955871    40.124943 
62944000    276.18559    316.20313    283.36338   -24.058516    23.877697    32.839749    40.125848 
62948000    278.57991    312.34545    288.10931   -25.477164    23.293483     24.23614    40.125478 
62952000    281.90455    326.73089    304.90908   -26.598544    22.782946     21.82181     40.12559 
62956000    284.87505    313.18999    291.70321   -24.365933    22.704207    21.486779    40.125296 
62960000    287.38813    317.07079    310.07929   -24.715738    22.225162    6.9915004    40.125124 
62964000    283.07702    316.65003    291.42248   -25.408325     22.71311    25.227552    40.127208 
62968000    277.15275    319.99626    272.45086   -24.980046    24.046425    47.545393    40.129572 
62972000    272.00929    304.24974    296.72771   -24.337009    23.745847    7.5220329    40.129628 
62976000    277.42198    336.95441    277.10774    -25.90422    24.049454    59.846673    40.129692 
62980000    275.26423    341.23309    269.85719   -26.563385    23.790605    71.375904    40.129822 
62984000    282.31572    307.17734    285.78782   -25.605792    23.347176    21.389515    40.130381 
62988000     275.7314     311.1585    298.26151   -25.534007    22.227388    12.896999    40.130304 
62992000    272.45636    313.34412    263.34475    -24.51743    24.395739    49.999372    40.131974 
62996000    274.60127    332.13963    279.05065   -25.895517     23.87581    53.088978    40.132596 
63000000    283.39989    334.22609    302.02809    -25.95022    22.185167       32.198    40.131446 
63004000    272.99744    311.53534    272.06402   -23.879566     23.31748    39.471322    40.130951 
63008000    275.32198     322.2821    281.05207    -24.11259    23.038219    41.230021    40.130639 
63012000    270.69374    321.65559    250.27477   -24.346881    23.941803    71.380828    40.130764 
63016000    277.56639    314.47261    292.04396    -24.07759     20.97679     22.42865    40.129197 
63020000    279.89401    348.29075    274.82193   -26.171288    23.140216     73.46882    40.129555 
63024000    279.37296    334.53153    270.13716    -24.60861    22.299193    64.394377    40.130204 
63028000    286.74648      340.624    287.46546    -25.42683    22.138708    53.158537     40.13056 
63032000    282.09708     325.9847    296.09433   -24.954487    22.726545    29.890362    40.131415 
63036000    277.61785    315.75928    281.91975   -23.366589    22.624054    33.839524    40.131372 
63040000    281.15677    330.14464    301.54952   -23.539972    21.773494    28.595112    40.129185 
63044000    284.46844    331.39475    271.73382   -23.459024    23.016143    59.660926    40.128746 
63048000    274.15363    309.93169    281.57954   -23.180497    22.046047    28.352152    40.129571 
63052000    273.38215    316.38325    290.81244   -23.903901    22.857369    25.570804    40.128752 
63056000    274.69609    318.16581    281.78552   -22.582312    23.127268    36.380288    40.128563 
63060000    273.17313     314.3042    281.79945     -22.7585    22.816429    32.504751    40.129483 
63064000    273.39684    326.72971    288.51247   -24.343324    23.076439    38.217234    40.129112 
63068000    275.62749    297.51813    284.20134   -23.118441    23.267577    13.316794    40.128753 
63072000    273.94734    291.10216    281.83433    -23.76652    23.065432    9.2678326    40.127267 
63076000    277.57979    324.20659    256.09751    -25.65961    22.826595    68.109087    40.126989 
63080000    281.81109    358.99111    286.63981   -26.167705    23.283974    72.351293    40.126361 
63084000    274.60109    323.88382    273.39043   -24.688179    24.343863     50.49339    40.125536 
63088000    282.57153    317.10911    296.07856   -24.432269      22.8469    21.030555    40.126404 
63092000    266.80115    302.33317    276.15804   -24.789013    24.599214    26.175128    40.125427 
63096000    276.44148    321.22371     285.1835   -24.823753    24.002955    36.040207    40.124357 
63100000    277.42123    301.28932    293.82754   -24.332771    23.273462    7.4617822    40.124992 
63104000    284.40844    329.09037    280.30677   -25.657628    23.043693    48.783604      40.1243 
63108000     286.8692     332.2333    295.20315   -26.677085    22.499796    37.030153    40.123495 
63112000    277.82611    308.20249    297.52476   -24.324707    22.785376    10.677732    40.121333 
63116000    281.18668    304.62819    285.40941   -25.062795    23.628726    19.218782    40.120035 
63120000    285.43535    340.03654    275.48848   -26.996286    24.897504    64.548066    40.122278 
63124000    276.96307     319.0618    263.88154   -25.786228    25.808078    55.180262    40.123172 
63128000    276.64376    314.67104    266.04487   -25.245336    24.766224     48.62617    40.123499 
63132000    264.48381      307.004    247.10152   -24.161666    25.149426    59.902478    40.122674 
63136000    281.04439    311.44861    287.32684   -25.192645    23.629339    24.121763    40.123302 
63140000    279.35567    337.50303    283.40117   -25.777035    23.761341    54.101861    40.122011 
63144000    283.58468    342.20825    293.71458   -26.514206    23.755607    48.493668    40.123018 
63148000     282.2862    317.70883    288.30385   -24.768641    22.147505    29.404983     40.12341 
63152000    285.77768    326.29492    284.40188    -24.05157    23.664759    41.893033    40.123576 
63156000     284.4809    323.05429    274.76289   -25.382217    23.029331    48.291397    40.124168 
63160000    275.78142    327.88844    267.20965   -25.067906    24.405238    60.678793    40.125028 
63164000     277.7468    336.58069    274.51803   -26.247267    22.985113    62.062663    40.126284 
63168000      281.797    328.82311    282.72151   -25.140259    22.472181    46.101603    40.125678 
63172000    277.47839    318.42863    276.21843   -25.491731    22.359916      42.2102    40.125951 
63176000    282.42379    323.17223    277.36249   -25.396987    23.184081    45.809735    40.126577 
63180000    275.15177    306.42609    291.16123   -24.918673     23.00931    15.264863    40.127812 
63184000    278.67599    315.51738    293.71792   -25.221151    22.666917     21.79946    40.128232 
63188000    283.17007    333.59676    287.23818   -26.190208    24.906118    46.358579     40.12787 
63192000    277.46794    318.51729    287.27518   -25.301546    23.754956    31.242111    40.128918 
63196000    280.11039    330.54735    289.87742   -25.654213    23.792457     40.66993    40.128049 
63200000    276.43969     332.2079    266.10469   -26.312122    24.607628     66.10321     40.12864 
63204000    275.51532    319.25113    267.51044   -24.805014    24.238039    51.740685    40.129848 
63208000    274.16806    314.23111     274.5492   -24.394583     24.17524    39.681912    40.130282 
63212000    268.39028    310.05716    279.10334   -23.939108    24.262097    30.953822    40.130336 
63216000    274.60626    327.00339    282.63948   -24.476137    24.450019    44.363909    40.130649 
63220000    274.50833     337.5873    272.50316   -23.608635    24.448287    65.084137    40.132143 
63224000    277.96039    327.23606    261.35209   -25.743942    24.893408    65.883963    40.132592 
63228000    285.89219    333.18028    289.31734   -25.726503    24.211226    43.862941    40.132684 
63232000    275.21756    311.41919    287.20595   -22.491256    23.916459    24.213238    40.132519 
63236000     271.3894    316.12851     273.0767   -23.637651    23.949211    43.051813    40.133009 
63240000    275.76378    337.04901    281.40753   -24.629622    24.128979    55.641476     40.13465 
63244000    263.95697    317.71522    263.03802   -24.235088    24.924658    54.677204    40.135855 
63248000    284.28291    334.89664    298.39878   -24.619726    23.924533    36.497865    40.135592 
63252000    272.83682    334.55327    272.50541   -25.446664    25.103385    62.047855      40.1369 
63256000    281.83155    337.55078    297.11287   -24.334292    24.253348    40.437903    40.137465 
63260000    274.53658      318.763    288.83355   -25.511894    24.951616    29.929451    40.137007 
63264000    274.42953    320.30804    285.02719   -23.961851    24.148923    35.280845    40.135936 
63268000    272.19438    299.42558    289.02025   -23.907624    23.948431    10.405333    40.136037 
63272000    273.99643    315.20281    276.30261   -24.070306    25.112292      38.9002    40.138033 
63276000    276.38401    327.97883    279.49781   -25.069422    24.360934    48.481022    40.137744 
63280000    274.36149    304.14273    267.33098   -23.761483    25.568836    36.811746    40.138006 
63284000    269.24716    303.19995     273.1636   -25.249606    25.018802    30.036351    40.138426 
63288000    277.92692    312.01611    289.71725   -24.301326    25.340652    22.298869    40.139437 
63292000    269.11554    321.41829    266.17903   -25.650798    26.514506    55.239261    40.139099 
63296000    269.08376    298.80122    263.21694   -23.619652    26.610673    35.584282      40.1385 
63300000    270.79924    340.62935    268.60056   -25.327213     25.95134    72.028791    40.137838 
63304000     271.2394    321.32599    283.35968   -23.517224    24.615562     37.96631    40.137941 
63308000    277.94264    340.70385    284.39039   -25.285164      25.7614    56.313459    40.137029 
63312000    270.58474    313.92025    285.91605   -23.768969    25.271093    28.004192    40.136385 
63316000    266.78513    297.29602    275.36142   -22.833552    25.567358    21.934604    40.137143 
63320000    274.68103    331.19819    282.78406   -24.106081    25.133857    48.414125    40.137179 
63324000    265.92898    313.62527    248.26775    -23.97915    27.558868    65.357513    40.137027 
63328000    269.35928    330.32198    278.16003   -25.293986     25.81199    52.161955    40.136276 
63332000    270.23052    308.92428    290.27864   -25.286098    24.472041    18.645649    40.136541 
63336000    275.11722    319.75918    290.57163   -24.876286    23.994095    29.187554    40.136165 
63340000    280.17159    324.07415    304.04191   -25.346526    24.027267     20.03224    40.135295 
63344000    276.39007    322.06969    280.65733    -23.68551    25.952437    41.412356    40.137187 
63348000    272.59608    326.91211    282.16191   -25.289164    24.585018    44.750201    40.136967 
63352000    273.48193    323.16889    279.57382   -25.608127    25.110184    43.595066    40.136547 
63356000     270.4573    316.07658    281.59478   -23.995443    25.089445      34.4818    40.137636 
63360000    274.29131    321.69164    298.01737   -24.216995    24.549698     23.67427    40.137731 
63364000    273.80163    329.98393    268.03616   -25.854508    25.591828    61.947773    40.138636 
63368000    282.65013    320.87543    304.81913   -25.282443    22.788031    16.056302    40.137227 
63372000    268.51555    314.16206    259.77638   -25.288561    25.718696    54.385679    40.137631 
63376000    277.34875    335.15275    266.79908   -26.136573    25.307123    68.353667    40.138506 
63380000     272.0651    310.79631    288.59302   -25.302415    24.918594    22.203291    40.139255 
63384000    274.86005    344.76337    271.04622   -26.766958    25.868055    73.717151    40.137994 
63388000    266.00779    303.74345    272.58096    -25.85286     25.13543    31.162494    40.137923 
63392000    278.03104    329.52218    275.45368   -26.911381    24.503542    54.068496    40.138505 
63396000    278.40214     318.6408    287.08229   -25.414086    24.617877    31.558506      40.1372 
63400000    268.54581    299.78447    272.80051   -24.614249    25.436475    26.983962    40.137397 
63404000     262.8607    276.57381    285.76454   -24.039934    23.309744   -9.1907257    40.138311 
63408000    273.79658    327.18158    259.61959   -25.008546    25.989869     67.56199    40.138533 
63412000    267.61523    299.34085    273.97387   -24.544663    25.410129    25.366982    40.137975 
63416000    271.87477    327.55465    263.14529   -26.382432    26.572588    64.409361    40.138489 
63420000    274.06909    322.39963      272.592   -25.692247    25.852185    49.807637    40.138452 
63424000    270.41872    321.78542    280.76429   -24.981537    26.358754    41.021124    40.140229 
63428000    278.67079    337.86241     262.3611   -27.306229    27.149051    75.501309    40.140794 
63432000    263.66282    300.75711    264.31612   -25.257434    26.505696    36.440997    40.141004 
63436000    269.20018    308.05294    293.49456   -25.624676     24.75523    14.558377    40.141358 
63440000    268.63165    308.73039    272.61746   -25.911676     25.51402    36.112934    40.140995 
63444000    273.18314    312.67397    299.44793   -26.769627    24.286795    13.226041    40.141737 
63448000    278.77093     324.4717    278.16822   -26.842296    25.681861    46.303482    40.141195 
63452000    280.32687    335.64515    279.16105    -27.68989    25.426526    56.484093     40.13989 
63456000    275.26498    328.80475    290.58097   -27.291586    24.912813    38.223785    40.140527 
63460000    284.86672     355.7116    299.47885   -27.878996     25.14339    56.232747    40.141183 
63464000     266.9294    307.06724     275.9899   -26.310185    26.493628    31.077344    40.141189 
63468000    278.49573    315.16165    311.65215    -25.31038    24.777443    3.5095027    40.141159 
63472000    273.30719    311.78755    293.40621   -24.713555     24.65411    18.381339    40.140715 
63476000    274.00212    338.49162    264.73934   -26.493328    26.044712    73.752276    40.140519 
63480000    279.86241    344.21443    266.47681   -26.070999    26.274215    77.737622    40.141521 
63484000    276.16337    341.46538    273.71217   -26.830415    26.136327    67.753209    40.140894 
63488000    280.91155    332.83474    279.95226   -26.705744    26.254558    52.882476    40.141167 
63492000     281.8745    323.06311    286.63174   -26.168709    25.886409    36.431376    40.140902 
63496000    273.88656    324.07065    266.55859   -26.501237    26.722671    57.512061    40.140708 
63500000    270.45374    320.81761    272.36577   -25.335758    26.898441    48.451842     40.14252 
63504000    276.35566    326.99323    299.13697   -26.995191    25.769541    27.856256    40.142726 
63508000    280.40223    321.89248    284.55418   -26.716043    26.713276    37.338297    40.142416 
63512000    280.10148    327.58451    301.25193   -25.739364    26.015855    26.332587    40.142349 
63516000    279.14318    316.64087    289.76409   -26.393874    25.768729     26.87678     40.14223 
63520000    278.01684    328.95442    278.57415    -25.30946    26.037487    50.380271    40.142441 
63524000    268.58309    303.32559     287.7938   -25.670309    26.375257    15.531788    40.140944 
63528000    274.63354     331.2573    271.74989   -26.949789    27.663887    59.507412    40.142507 
63532000    278.56322    326.78579    288.55444   -26.983226    26.774074    38.231341    40.141171 
63536000    269.03701    314.01792    267.53013   -27.159391      27.3915     46.48779    40.142167 
63540000    278.34102     329.3237    285.41863   -28.391516    25.328981    43.905066    40.141299 
63544000    277.29516    319.19191    299.07058   -27.704014    24.570599    20.121333    40.141273 
63548000    276.11324    313.96876    293.64541   -26.912103      26.2067     20.32335    40.140646 
63552000    272.64187    321.34513    281.55144   -27.222563    26.891557    39.793687    40.141274 
63556000    283.51505    344.17407    301.39896   -27.463583    25.505737    42.775115    40.139927 
63560000    273.36722    322.59129    275.13035   -26.541461    25.636421    47.460931     40.14216 
63564000    272.86889    303.09063     294.6275   -27.680518    25.915888      8.46313    40.140768 
63568000     278.2566    329.85544    294.76516   -28.207046    25.869116    35.090282    40.141465 
63572000    281.64133    349.03928    272.48413   -29.209725    27.325616    76.555148    40.142454 
63576000    274.41887    307.17666    291.35088   -26.964776    26.939044    15.825774    40.143087 
63580000    271.95442    301.71456    291.88945   -26.417337      25.4916    9.8251054    40.142686 
63584000    279.32223     331.6919    275.77614   -27.150668     26.58311    55.915755      40.1438 
63588000     264.5657    291.51249     266.4165   -25.917103    26.534031    25.095995    40.143013 
63592000    280.58886    321.80027    275.12794   -29.045095    25.798291    46.672331    40.142913 
63596000    282.00592    321.77848    278.15368   -27.914095    26.510903    43.624796    40.143801 
63600000    280.56339     309.4641    297.38295   -26.786218    24.908901    12.081151    40.143396 
63604000    283.65421    339.36225     270.6951   -28.854285     25.72096    68.667153    40.144195 
63608000      268.615    314.64547    277.90637   -27.528861    26.712559    36.739104    40.144639 
63612000    281.03772    322.19474    274.28445   -27.501717    27.395293    47.910295    40.145378 
63616000    272.48391    330.81086     263.7201   -28.034952    27.710134     67.09076    40.146891 
63620000     269.0233    306.31261    265.54765   -26.171873    27.399486    40.764958    40.147623 
63624000    276.87459    324.50992    267.38347   -28.642742    27.757789    57.126455    40.148351 
63628000     279.8945    333.37907    285.22676   -29.351416    26.701095    48.152313    40.148736 
63632000    273.86046    330.14833    269.93146   -28.383312    27.210197    60.216869    40.148935 
63636000     271.9883    300.55864    282.77555   -27.028114     25.63473    17.783089    40.147606 
63640000    280.88362    335.94756    253.75252   -29.146508    27.424952    82.195042    40.147659 
63644000    278.11873    327.25664    274.95597   -26.837492    26.590885    52.300672     40.14884 
63648000    275.17609    317.81453    271.68753   -25.793293    26.057748    46.127004    40.148415 
63652000    277.21142    326.63881    284.47578    -26.97535     25.66619    42.163029    40.147788 
63656000    275.73694    310.95985    262.09527   -26.292067    26.161576    48.864582    40.147544 
63660000    285.06844     333.2695    303.33547   -26.808762    24.641974    29.934033    40.146558 
63664000    288.30633    346.62262    293.23056   -28.108475    24.788892    53.392056    40.147344 
63668000    267.38349    299.18191    259.45962   -26.240297    27.085652     39.72229     40.14767 
63672000     275.0787    309.89279    286.29352   -26.119631    24.734459     23.59927    40.148089 
63676000     281.0073    326.98036    309.06559   -27.262388    24.007671    17.914765    40.148865 
63680000    285.52611    326.72875    302.28329   -27.198476     24.69959    24.445453    40.147975 
63684000    285.52317    337.37797    299.32567   -27.170508    24.567766    38.052301    40.147953 
63688000    278.33119    350.07307    289.37703   -27.201285    25.453797    60.696042    40.147099 
63692000    276.78864    336.47688    263.17007   -27.402998    26.211256    73.306807    40.148043 
63696000    281.49142    314.15912    288.25457   -26.209613    25.432559    25.904555    40.148326 
63700000    273.60082    333.26026    261.02932   -26.671665    26.087185    72.230944     40.14778 
63704000    269.25051    290.08345    289.31855    -24.07778    24.628495   0.76490802    40.147064 
63708000    274.22923    303.21783    281.73463    -26.33922    25.491764    21.483192    40.147409 
63712000     280.9946    314.06336    274.65292   -25.938521    26.034277    39.410443    40.147426 
63716000    274.22072    313.03859    282.04226   -26.248575    27.129341    30.996327    40.145422 
63720000    271.01529    309.92685    282.90473   -25.958317    27.062178    27.022117    40.145299 
63724000    266.09047    319.80739    284.04013   -25.613595    26.043382    35.767266    40.143994 
63728000    274.01916    302.52109    273.52877   -25.280389    26.725959    28.992324    40.144999 
63732000    279.26966    330.39454    297.29323   -26.448211    26.040603    33.101303    40.144835 
63736000    271.30297     321.5556    280.26092   -24.805945     26.97839    41.294681    40.145739 
63740000    269.11362    310.42076     274.2272   -24.178615     27.54546     36.19356    40.145545 
63744000    273.99079    318.37053    281.47164   -24.818645    27.296746    36.898884    40.144024 
63748000     268.9528    301.60675    278.58876   -25.061429    26.299719     23.01799    40.143133 
63752000    266.13189    312.03099    279.90897   -24.987323    26.763959    32.122026    40.143549 
63756000      278.819    345.13942    292.64312   -27.320065    25.283821    52.496301    40.145397 
63760000    275.41847     314.5998    292.66779   -25.515214    25.745324    21.932006     40.14513 
63764000    267.72274    327.37572    278.30063   -25.551052    25.213754    49.075083    40.144594 
63768000    275.73056    327.79709    283.31917   -26.372936    26.869865    44.477921     40.14345 
63772000     272.3228    334.51175    262.61494   -27.343436    27.630592    71.896809    40.143577 
63776000    263.04669    293.42466    278.35373   -26.211339    25.106695    15.070926    40.144259 
63780000    284.18981    344.60204    289.22224   -27.391697    26.416233    55.379797    40.143694 
63784000    272.65347    318.78371    285.13379   -25.982406    25.149862    33.649916    40.143174 
63788000    263.97755    306.83819    275.55344   -24.999683    26.486187    31.284751    40.142132 
63792000     272.7327    319.06598    285.27935    -24.91429    25.531912    33.786625    40.140839 
63796000    265.37398    329.53051    265.69616   -26.325434    26.936419    63.834347    40.140828 
63800000    264.56939    304.48575    279.95222   -25.869883    26.372846    24.533524    40.139143 
63804000    275.39339    330.09258    289.68289   -27.006659    26.659004    40.409691      40.1388 
63808000     270.4659    307.83751    300.22618   -25.526666    26.580906    7.6113293    40.137346 
63812000    265.07432     322.6671    275.80578   -26.186596    26.092507    46.861321    40.137784 
63816000    263.84664    289.60616    281.34575   -24.202619    26.966493    8.2604143    40.138615 
63820000    265.49668    322.19386     273.5526   -24.747818    27.184786    48.641262    40.138955 
63824000    280.20559    341.46943    289.72566   -26.525026    25.761112    51.743764    40.138024 
63828000    275.95249    325.24221    312.77055   -25.407805    25.007343    12.471666    40.137368 
63832000    280.81282    321.30956    303.46631   -25.953498      26.3251    17.843254    40.136404 
63836000    264.71638    286.59228     285.4628    -22.94648     26.27395    1.1294745    40.136954 
63840000     271.8036    297.31927    304.09294   -25.421132     25.93324   -6.7736743    40.136848 
63844000    269.66386    319.97077    290.53806   -25.904451       26.699    29.432711    40.137541 
63848000    273.41637    315.59149    298.11758   -23.975347    26.342532    17.473915    40.136119 
63852000    276.74119    327.11058    295.31867   -24.945891    26.237524    31.791918    40.134892 
63856000    270.22503    337.17934    277.25468    -25.26885    28.011516    59.924658    40.135386 
63860000    271.57727    328.69201    286.84942   -24.975073    27.393085    41.842586    40.134662 
63864000    277.24924    321.83049     298.6743   -26.481186    26.735366    23.156187     40.13517 
63868000    270.93377    334.57453    285.71177    -26.91958    26.345203    48.862758     40.13391 
63872000    269.58583    313.08605    276.11943   -25.228583    27.650607     36.96662    40.134658 
63876000    276.10742    337.98882     293.0011   -26.114264    26.873234    44.987724    40.134684 
63880000    265.69443    305.28553    283.93854   -24.591016    26.883107    21.346995    40.135357 
63884000    277.17251    356.07473    283.03462   -26.337202    26.828047    73.040103     40.13627 
63888000    268.48461    319.14014    293.65092   -24.326747    26.059495     25.48922     40.13688 
63892000    266.92835    325.60666    267.02784   -24.713671    28.164746     58.57882     40.13533 
63896000     271.8018    330.30068    275.23724   -24.465492    26.799544    55.063446    40.134044 
63900000    266.09922    315.48886    273.33119   -24.184742    26.517525    42.157673    40.134259 
63904000    265.10071    314.40317    264.75432   -25.045619    27.616881    49.648844    40.134139 
63908000    272.01128     346.7327    265.85789   -26.449721    27.874747    80.874808    40.134649 
63912000     271.3352    315.87135     307.3624   -24.551145    26.213277    8.5089551    40.134679 
63916000    266.56548    316.44408    262.64037    -24.96438    28.795868     53.80371    40.133088 
63920000    265.11873    321.67265    288.04898   -25.274559    27.249768    33.623673    40.134369 
63924000    275.33578    342.09621    285.97232   -26.786856    27.169377    56.123892    40.134928 
63928000    282.77418    344.07414    294.38222   -26.466992    26.677673    49.691919    40.135868 
63932000    263.15139    285.65414    276.90182   -23.356644    27.354213    8.7523179    40.135144 
63936000    278.18139    317.51004    292.34224   -25.223384    25.854063    25.167801    40.133577 
63940000    264.83815    339.45666    266.25498   -24.400298    26.665373     73.20168    40.133585 
63944000    268.35814     310.8993    296.13193   -25.084411     26.47068    14.767373    40.133713 
63948000    268.34197    336.21325    279.27757   -26.264872    27.666054    56.935672     40.13226 
63952000    278.00847    344.17474    293.22155   -25.750296    27.480997    50.953189    40.131904 
63956000    270.22367    310.14231    266.75548   -24.514833    28.702049    43.386834    40.131638 
63960000    263.69951    315.10482    250.10084   -24.623679    29.220462    65.003985    40.132059 
63964000    258.22038     311.6275    258.19346   -25.741451    28.227119    53.434039    40.131054 
63968000    268.01696    332.62763    280.76518   -27.054752    26.521694    51.862451    40.131025 
63972000    273.31612    320.28035    291.94116    -25.84552    26.884613    28.339189    40.131729 
63976000    271.34814     326.2995    285.66161   -26.071389    26.813333    40.637883    40.133038 
63980000    262.12903    322.08724    263.81008   -26.400192    28.112889    58.277154    40.131436 
63984000    275.38663    331.74104    287.99354   -25.713794    26.032188    43.747501    40.130839 
63988000    270.61187    339.60986    274.72235   -27.414121     26.34819    64.887505    40.131401 
63992000    260.34028    296.79526    277.60073   -25.942121    26.716171    19.194529    40.129975 
63996000    266.75715    315.34321    264.59184   -25.335727    27.685529    50.751369    40.130949 
64000000    257.76087     271.8307    275.23008   -23.912786    27.066832   -3.3993782    40.130609 
64004000    279.93325    353.50473    282.33557   -28.179514    27.390988    71.169164     40.13117 
64008000    267.45826    295.61223    287.13956   -25.466323    27.579469    8.4726636    40.130401 
64012000    275.51921    332.79989    278.25711   -26.334043     26.56248    54.542775      40.1292 
64016000    264.52487    302.53293    265.98044   -26.770606    27.168643    36.552497     40.12996 
64020000    267.45587    314.70973    272.41041   -27.059213    27.798796    42.299321    40.131326 
64024000    276.22015    304.50998    305.53805   -26.263433    25.896299   -1.0280736    40.130382 
64028000    276.24825    343.10361    287.51098   -26.939415    26.071678    55.592631    40.130612 
64032000    263.35349    309.20963     280.5143   -26.021705    26.312865    28.695336    40.130165 
64036000    263.99793    308.03882    272.67724   -25.762822    27.543139    35.361573    40.129859 
64040000    266.19273    290.17294    288.04538    -25.06719    26.078163    2.1275621    40.130254 
64044000    274.14449    326.60817    288.87156   -25.906208    25.780892    37.736605    40.129075 
64048000     269.4659    319.28137    282.49775   -25.358448    27.380767    36.783619    40.129505 
64052000    276.92032    339.12918    282.59573     -28.1602    27.327155    56.533455    40.128424 
64056000    273.13109    332.70822    285.24318   -26.650343     26.91198    47.465039    40.128164 
64060000    275.88096    333.09051    277.08546   -26.586418    27.884124    56.005058    40.128541 
64064000    272.84326    333.99004    285.18292   -28.014087    25.574211    48.807126    40.127568 
64068000    283.11663    343.42122    273.79084   -27.040973    26.125983     69.63038    40.127375 
64072000    282.41557    331.19676    295.18874   -26.719275    25.993043    36.008028    40.128114 
64076000    266.07063    298.41022    277.42137   -24.627734    26.352758     20.98885    40.128991 
64080000    277.58174    316.54221    278.67608   -25.908205    27.129151    37.866137    40.126763 
64084000    276.44226    319.35903     285.4542   -24.731527    26.313046     33.90483    40.125498 
64088000    266.36901    310.38565    264.21893   -26.468368    27.484711    46.166721    40.125487 
64092000    276.97105    329.13261    280.26627   -27.011332    26.357775    48.866345    40.124471 
64096000    268.46578    332.83347    280.23269   -27.547569    26.197278    52.600777    40.125523 
64100000    268.47589    319.57875    283.86718   -27.216473    27.142842     35.71157    40.125943 
64104000    278.31052    322.71742    293.98105   -28.054256    26.183622     28.73637    40.123425 
64108000    277.23841    336.04994    292.79426   -27.329959    26.440836    43.255689    40.124164 
64112000    282.69251    332.04379     300.4831   -26.550191    25.181321    31.560692    40.123774 
64116000    275.49156    313.18718    268.72192   -27.217051    27.747283    44.465264    40.124294 
64120000     282.4888    336.41432    276.73557     -28.8353    26.302282    59.678753    40.124024 
64124000    274.62908    323.12785    288.16168    -27.20275    27.800717    34.966168    40.124525 
64128000    273.68588    327.34023    275.36988   -26.562848    27.912147    51.970351    40.124707 
64132000    269.87869    321.33578     268.9865   -26.986485    28.777195    52.349276    40.125279 
64136000    263.49228    287.80551    270.04103    -26.26421    28.777483    17.764481    40.124434 
64140000     280.2029     325.9837    294.33578    -27.74355    26.963372    31.647929    40.123423 
64144000    272.61927    325.34345    266.40228   -27.771247    27.979046    58.941167    40.122836 
64148000    266.61756    306.03775    287.52233   -26.051184    27.378355    18.515422    40.122493 
64152000    271.00332    311.27784    289.11312    -27.22728    27.209422    22.164724    40.123957 
64156000    274.23328    304.71746    277.46717   -26.540367    28.762352    27.250298     40.12358 
64160000    270.28276    329.99361    267.05155   -29.275795     27.94696    62.942064    40.122547 
64164000    286.72872    353.04248    293.91173   -30.828979    26.575457    59.130745    40.122255 
64168000    271.38754    290.68826    283.24419   -26.624568    27.802954    7.4440644    40.122247 
64172000    276.24373    325.45739    269.25375   -27.906386    27.766462    56.203642    40.122112 
64176000    278.59301    324.29476    286.28431   -28.954727    26.734353    38.010455    40.122187 
64180000    276.33431    325.82987    267.15117   -28.275568    27.653219    58.678701    40.122646 
64184000    267.55368     301.9986    279.34961   -27.033534    27.859219    22.648984    40.122678 
64188000    276.49633    336.81564    286.26334   -28.886873    27.636846    50.552303     40.12324 
64192000    275.74679    318.60729    281.50247   -29.120707    29.277528    37.104823    40.121729 
64196000     267.7204    315.77335    272.23072   -28.780271    29.130655    43.542634    40.121668 
64200000    279.46996    345.96788    287.70338   -29.769947    28.526773    58.264495    40.121192 
64204000    285.14475    341.45228    285.84074    -28.44481    28.419068    55.611535     40.12114 
64208000    280.89321    343.68494     279.6764   -28.107244    28.673287    64.008538      40.1208 
64212000    271.75524     310.0534    275.47182    -27.19542    28.668026    34.581587    40.120452 
64216000    281.98395    327.32297    286.79435   -28.982053    28.923255    40.528623    40.120235 
64220000    274.94348    316.38348    277.43696   -27.660617    28.782917     38.94652     40.11946 
64224000    265.57807    313.34187    270.60163   -27.741376    28.399091    42.740248    40.119429 
64228000    271.46726    306.62373    293.23012   -27.420156    26.962584    13.393609    40.118842 
64232000    275.20546      325.223    282.04416   -27.574286    28.102071    43.178836    40.118935 
64236000    266.86662    296.09574    284.12749   -25.143645    27.236116    11.968247    40.119785 
64240000    269.76194    306.09169    290.48678   -25.878512    26.860956    15.604904    40.119933 
64244000    269.64085    318.73221    256.32044   -27.718004    27.689452    62.411767    40.121469 
64248000    272.30847    323.85907    276.41049   -26.597232    27.572001    47.448582    40.120651 
64252000     281.7006    344.40406    278.33879   -28.792762    27.435382     66.06527    40.122842 
64256000    270.18471    319.90339    261.44131   -27.209854    27.954868    58.462073    40.122836 
64260000    270.46038    323.68045    274.18341   -27.224523    27.309794    49.497047    40.124593 
64264000    277.27249     343.4372    278.82586   -28.829826    27.032094    64.611345    40.125313 
64268000    271.49001    336.68933    274.09208   -28.508111    27.104127    62.597252    40.124439 
64272000    285.96777    349.02096    307.20923   -29.379735    26.951882    41.811725     40.12478 
64276000    255.57796    291.67961    254.11845   -25.978186    28.867991     37.56116    40.125078 
64280000    270.73601    317.13112    285.54378   -27.585261    27.932299    31.587335    40.125011 
64284000     269.2289    302.06717    284.95727   -26.699535    28.140098    17.109906       40.126 
64288000    274.96026    318.63091     296.6282   -27.407568    26.428575    22.002709    40.126847 
64292000    276.04028    342.69414    281.37357   -28.650001    26.561178     61.32058     40.12661 
64296000    268.61363     314.3132    270.93888   -27.969573    28.027291     43.37432    40.126221 
64300000    265.60928    325.38824    268.75956   -27.729454    28.482906    56.628676    40.126906 
64304000    275.24279    315.99149    298.94442   -27.332091    26.516749    17.047068    40.126439 
64308000    271.41207    316.36959    272.30984   -27.083601    28.139082    44.059749    40.125925 
64312000    268.67453    322.61507    272.89429   -27.747694    27.446825    49.720781    40.125229 
64316000     270.1742    311.49615    276.40617   -26.697243    27.525708    35.089976    40.125892 
64320000    268.82196    292.23407    292.62969   -25.834395     26.36199  -0.39561218    40.125796 
64324000     267.0796    303.43175    274.49999   -25.934542    28.515809    28.931763    40.125671 
64328000    278.59079    326.65137    303.66663    -27.14353    26.490619    22.984741    40.125841 
64332000    274.40649    324.65347    278.86418   -26.285732      28.0101     45.78929    40.124477 
64336000    273.69809     322.0049     309.2724   -25.836677    26.121176    12.732505    40.125533 
64340000    281.99407     330.8414    291.27243   -26.572914    27.564529    39.568975    40.124979 
64344000    268.75729    295.48555    282.04821   -25.433418    26.993279    13.437341    40.123047 
64348000    276.11934    333.43705    276.38085   -27.385537    27.745975    57.056195     40.12257 
64352000    271.94124    308.69115    289.95533   -25.918762    27.633578    18.735819    40.122071 
64356000    279.88052    311.42234    304.37965   -26.875648    26.142795    7.0426988    40.121912 
64360000     271.6437    309.91736    278.59344   -27.447095    27.991483    31.323911    40.122253 
64364000    270.06524    316.85648    286.43343   -26.974131     28.30472     30.42305    40.122298 
64368000    269.54857    313.55703    283.18065   -27.313173    26.765342    30.376376    40.123323 
64372000    283.32718    336.27449    284.04992   -28.078427    26.857919    52.224575    40.125433 
64376000    265.29113    292.36907    268.61712   -26.882099    27.809928    23.751942    40.125374 
64380000    274.42591    319.42089    294.10325   -26.483698    28.105103    25.317637    40.125242 
64384000    272.65445    314.17207    272.80203   -26.643136     28.25572    41.370044    40.125736 
64388000     267.7109    296.21413    285.54843   -24.561227     27.24279    10.665709    40.123749 
64392000    270.17892    300.83401    286.30626   -26.269776    27.205737    14.527752    40.125703 
64396000    268.32485    310.74772    272.83291   -26.654868    27.093627     37.91481    40.123992 
64400000    275.14987     311.6663    291.77334   -26.880243    26.950628    19.892961    40.124597 
64404000    280.48402    320.33971    303.33325   -27.048036    26.709502    17.006454    40.123746 
64408000    278.12419    346.38425    288.34732   -27.586754    27.277532    58.036932    40.125038 
64412000    273.55894    323.02659    288.27012   -26.778001    28.365276     34.75647    40.125743 
64416000    279.52627    332.59786     302.2226   -28.295401    26.986366    30.375259    40.125655 
64420000    274.20452    323.91477    284.13632   -26.652493    27.809808    39.778452    40.125222 
64424000    268.35615    311.05371    275.78379   -27.266117    27.905414    35.269922    40.124849 
64428000    278.49137    333.98299    297.23758    -27.70291    26.962925    36.745414    40.126038 
64432000    264.87105    306.60728    280.14006   -25.704383    27.955441    26.467225    40.125757 
64436000    269.25491     298.4066    271.51631   -25.754023    27.922933    26.890293    40.126949 
64440000    271.34902    312.62958    291.34715   -26.571518    27.071644    21.282429    40.126379 
64444000    276.40406    326.68198    282.08943   -27.621773    27.486058    44.592559    40.127662 
64448000    277.96893     319.8712    315.88231   -26.942373    26.124182    3.9888907    40.127344 
64452000    264.89332    305.74868    279.73194   -25.627374     27.23515    26.016737    40.128974 
64456000    274.30427    320.76608    288.62546   -25.997017    25.897638    32.140618    40.128973 
64460000    275.23674    319.10273     291.5115   -26.290828    26.767312    27.591232    40.129755 
64464000    266.36816    302.14134    272.29359   -24.945577    28.017262    29.847759    40.130334 
64468000    271.28585    340.11317     276.6077   -26.360219    27.537806    63.505471    40.130567 
64472000    272.21532    330.87515    272.46834   -26.119352    27.283921    58.406806    40.130882 
64476000    277.30198    333.06543    291.39118   -27.043448    26.417145     41.67425    40.130069 
64480000    271.01966    311.33802    272.18115   -24.973678    26.156529    39.156873    40.130138 
64484000    265.15529    300.93749    266.64165   -24.414923    26.693508    34.295843    40.128166 
64488000    276.30484    332.77813    280.26003   -25.919269    26.866338      52.5181    40.127884 
64492000    271.24888    334.87543    262.69887   -28.585914    27.078019    72.176553    40.125811 
64496000    271.32175    317.32029    289.08939   -26.408582    26.541881    28.230896    40.125542 
64500000    262.33186    315.56882    261.65591   -26.160999    28.300376    53.912913    40.125825 
64504000    271.52986    305.09236    275.87514   -26.508033    28.165611    29.217222    40.126526 
64508000    277.36443    308.91439    293.33734   -26.843988    26.689971    15.577049    40.128114 
64512000    279.21525    320.50292    280.83103   -27.014731    27.408026    39.671888    40.128989 
64516000    280.20296    328.98606    288.56943   -28.672517    26.851973    40.416621    40.128071 
64520000    275.47375    327.40907    274.82452   -28.675231    27.209417    52.584544    40.128229 
64524000    269.21449    294.63839    273.62375    -25.87687    28.191847    21.014636    40.129573 
64528000      267.742    310.04408    276.60949    -27.46733    27.513747    33.434593    40.130019 
64532000    272.37953    327.95524    272.74264   -28.090218    28.623817    55.212604    40.129034 
64536000    268.66848    333.06186    278.41706   -27.218745    28.501742    54.644798    40.129042 
64540000    278.79949    330.32801    268.71686   -28.406513    27.916293    61.611147    40.128561 
64544000    272.06208    312.21131    269.93792   -27.342703    27.892673    42.273388    40.128451 
64548000    271.54084    332.83282    261.45667   -28.843018    28.675329    71.376144    40.127834 
64552000    275.96931    327.41245    276.51834   -28.823461    27.100383    50.894114    40.126785 
64556000    270.10809    323.77225    262.19822   -28.781761    28.840115    61.574028     40.12727 
64560000    278.26376    320.11481    272.12915    -27.83114    28.331759    47.985661    40.128093 
64564000    280.96584    341.47366    271.60758   -29.078509    28.457585     69.86608    40.128247 
64568000    282.19579    314.61723    277.21697   -27.997535    27.205031     37.40026    40.128691 
64572000    282.37817     343.2458    285.21332   -29.669369      26.7892    58.032473    40.128778 
64576000    280.95419    334.60364     283.9088   -27.815238    26.736759    50.694839    40.128168 
64580000    278.13462    321.94467    273.02548   -28.436726    27.525948    48.919186     40.12899 
64584000    282.97406    319.55633    291.30331    -27.76038    25.973956    28.253018    40.127753 
64588000    275.95299    332.74173     280.1295   -28.098851    26.801849    52.612229    40.126952 
64592000    279.89865    326.91491    295.47309   -27.595566    24.689577     31.44182    40.126889 
64596000    279.36136    334.11407    270.90611   -28.434965    26.751418    63.207962    40.124599 
64600000    263.59728    310.68495    264.90761   -27.551475    27.801475    45.777343     40.12444 
64604000    287.51465    351.55645    282.95451   -29.576166    26.863547     68.60194    40.125041 
64608000    275.58023    316.66537     284.3707   -26.936681    27.196414     32.29467    40.124833 
64612000    280.23662    320.34864      294.381   -26.819688    26.628856    25.967637    40.124567 
64616000    274.54622    331.93349    273.41121   -27.506648    26.821754    58.522279    40.123445 
64620000    282.02381    349.18597    297.38425   -28.291449    26.364991    51.801718    40.123693 
64624000    273.02657     310.6618    267.49041    -26.68968    27.280444    43.171397    40.123239 
64628000    278.89403    349.31145    285.74189   -27.591643    27.042541    63.569558    40.121766 
64632000    277.10105    327.52466    279.60235   -26.586483    26.999988    47.922304    40.122682 
64636000    266.68525    300.82765    285.53212   -25.758006    26.992687    15.295533    40.123043 
64640000    273.29008    314.46728    275.02604   -26.443612    27.329259    39.441242    40.123601 
64644000     276.3464    347.92862    267.01866   -27.161479      26.9599     80.90996    40.124708 
64648000    282.05033    340.36961    294.56114   -26.594185    26.821039    45.808473    40.124259 
64652000    277.80953    331.14532    281.00859   -27.730171    27.832171    50.136732    40.125017 
64656000    276.36017    317.74113    284.64616   -26.594106    27.185606     33.09497    40.126071 
64660000    274.20497    329.03163    275.66555   -26.765819    27.342159    53.366086    40.125947 
64664000    282.46771    335.09533    278.35306   -27.076991    27.750986    56.742269     40.12508 
64668000    273.53957    314.73371    286.64082   -26.786264    26.675153    28.092892    40.125267 
64672000    273.49174    324.40682    278.65604   -26.418095    27.538662    45.750785    40.125205 
64676000    271.61686     325.5241    264.75474   -27.025405     27.58507    60.769364     40.12347 
64680000    282.04286    335.75622    273.45409   -27.916733    28.050494    62.302125    40.123489 
64684000    270.67096    308.18592    281.37456   -25.474709    27.093646    26.811362    40.122958 
64688000    274.14182    311.81057    286.23552   -26.323839    26.849002    25.575051    40.124288 
64692000      275.323    328.92577    288.72622   -26.123523     26.78113    40.199545    40.123997 
64696000    275.11686    334.45919    285.82485   -27.025979    26.262845    48.634335    40.122595 
64700000    274.56208    306.17012    279.48937   -26.376339    27.006819    26.680751    40.123011 
64704000     278.9224    330.20196    284.34711   -28.019823    26.922243    45.854851    40.122375 
64708000    277.05323    310.55648    286.30353   -27.159607     26.45078    24.252942     40.12258 
64712000    281.82187    333.75155    305.76824   -26.715987    25.713149    27.983307    40.122102 
64716000    272.75521     302.4796    276.30396   -25.929569    27.498521    26.175639     40.12195 
64720000    282.18708    342.91956    287.56234   -28.366493    27.074737    55.357214    40.122101 
64724000    266.31059    301.87449    264.26468   -27.223337    28.215082    37.609812    40.124573 
64728000      278.002    318.35995    295.69358   -27.385698    27.658425    22.666373    40.123475 
64732000    278.42621    316.22045    305.54698   -27.129237    26.773948    10.673473    40.123777 
64736000    270.28019    301.94513    280.91627   -26.533838    27.950201    21.028856    40.122141 
64740000    267.78118    321.80382     262.8051   -27.252053    27.213683    58.998711    40.121796 
64744000     277.7269    325.18958    291.79612   -27.010644    26.635127    33.393452    40.121623 
64748000    283.53213    330.69675    290.19869   -27.840409    26.496192    40.498061    40.120575 
64752000    268.75505    308.04673    287.92008   -27.556551    27.034036    20.126653    40.121477 
64756000    262.52211    297.39964    279.79038   -27.231495     28.02454    17.609263    40.120507 
64760000    274.54255    307.52855    281.21394   -26.646033    27.970278    26.314617    40.118557 
64764000     277.4721    324.98627    291.72346   -27.532548    27.927552    33.262808    40.118868 
64768000    261.95764    305.95986    258.39323   -27.176071    29.054468    47.566629    40.118293 
64772000    276.48811    312.10144    288.57791   -27.193507    28.475379    23.523524    40.117326 
64776000    273.44308    335.65656    266.15544   -29.595237    29.619413    69.501121    40.118362 
64780000     281.7722    342.06228    292.42083   -28.671485    27.774575    49.641447    40.118413 
64784000    281.00593    353.38376    292.80055   -29.056989    28.873799    60.583212    40.118408 
64788000    264.81712    305.01246    260.00261   -27.593795    29.609289    45.009848    40.118385 
64792000    270.73404    313.05223    276.36891   -28.743677    27.328864    36.683321    40.118746 
64796000    279.63503    337.29946    267.54828   -28.868066    28.492285    69.751175    40.118293 
64800000    275.67446    311.82992    288.57046   -27.878712    28.207724    23.259462     40.11799 
64804000    280.72166    310.73058    305.96531   -27.996273    26.383394    4.7652732    40.116989 
64808000    276.20833    326.49705    293.09161   -28.825786    27.111838     33.40544    40.116718 
64812000    266.99326    299.81066    262.71557   -28.549338    28.101395    37.095087    40.117872 
64816000    277.37232    313.11245    287.58689   -28.686805    27.191617    25.525558    40.119327 
64820000    273.50855    327.36031    270.61629     -29.4587    28.456696    56.744019    40.120089 
64824000    277.76857    321.06478    282.68991   -28.856408    28.896381    38.374865    40.120038 
64828000    283.79452    322.27648    297.74082   -29.034214    26.348021    24.535659    40.119878 
64832000    278.29707    344.91395    267.13764   -30.649705    28.147882    77.776313    40.119863 
64836000    269.40201    321.33536    252.42849   -29.224487    28.525995    68.906868    40.119526 
64840000    272.33087    323.76363    292.41037   -29.900292    28.110976    31.353264    40.119591 
64844000    277.47187    337.91152    275.99616   -29.037576    29.744792    61.915357    40.118817 
64848000    279.26941    330.86373    282.78962   -28.557862    27.844261    48.074116    40.120207 
64852000    266.68338    301.98376    276.43806   -26.793298    28.850295    25.545698    40.119978 
64856000    270.90949    305.80849    284.63082   -26.678225    28.585226    21.177675    40.120726 
64860000    279.57705    327.49071    287.05941   -28.741181    28.281002    40.431302    40.120564 
64864000    268.82456    334.03164     261.6293   -28.682465    29.793361    72.402346    40.121363 
64868000    284.63408    342.23124    274.16075   -30.195008    28.800337     68.07049    40.120105 
64872000    270.87367    322.84612    260.99371   -29.603934    29.780626    61.852403    40.121227 
64876000    273.84558    306.11474    295.79362   -28.605109    27.368648    10.321123    40.121156 
64880000     269.2459     299.9359    296.80321   -30.026703    27.664136    3.1326903    40.121314 
64884000    271.66828    302.49978    272.86428   -27.704118    29.262025    29.635495    40.121388 
64888000    267.13512    314.28463     278.6853   -28.018182    29.489907    35.599334    40.120798 
64892000    272.08981    289.83823    283.66194   -28.221626    28.450167    6.1762929    40.120445 
64896000    263.49155    274.70357    282.73989   -27.188617     29.13286   -8.0363189    40.120527 
64900000    276.71658    336.94903    273.19362   -29.417549    28.517307    63.755412    40.121566 
64904000    269.84854    323.62112    274.57102   -28.914925    28.156456    49.050101    40.120447 
64908000    270.51639    323.79667    270.95163   -29.171849    28.233607    52.845031    40.120563 
64912000    275.17374    313.27182    282.76905    -27.64624    28.901281    30.502765    40.120635 
64916000    275.66184    320.20214    289.59408   -29.303366    28.568812    30.608056    40.120679 
64920000    272.00465    307.59085    284.45574   -29.482037    28.344164    23.135113    40.119965 
64924000    284.41713    333.99719    307.30671   -30.814731    26.873649    26.690479    40.119794 
64928000    274.20496    332.13033    265.18454   -29.971221    28.785072    66.945788    40.121171 
64932000     275.9443    316.20428    298.65405   -28.863724    28.359855    17.550228    40.120113 
64936000    269.34876    311.64536    271.00491   -27.632155    29.388025    40.640447    40.121114 
64940000     272.4279    333.48334    284.46093   -29.387213    28.720121    49.022405    40.121489 
64944000    274.45897    334.78921    273.87555    -30.14337    28.859325    60.913656    40.120788 
64948000    280.52494    326.70648    290.15111   -30.562016    28.326228    36.555374    40.122322 
64952000    279.40762    335.68956     285.6813   -30.394929     28.28087     50.00826    40.122667 
64956000    263.93548    285.34783    273.28922   -28.478583    28.295791    12.058608    40.121509 
64960000    286.05418     360.2684    273.17096   -31.337896    28.403177    87.097439    40.121569 
64964000    278.96032    328.78699    280.21996    -28.38903    27.622598    48.567026    40.122212 
64968000    277.70794    334.38286    304.92183   -29.444444    27.442117     29.46103    40.121554 
64972000     275.4674    314.50443    286.86748   -29.152097     28.92264    27.636948    40.120659 
64976000    270.61231    300.66623    290.16414   -28.257116    28.440478    10.502097    40.121214 
64980000    275.52598     322.7046    269.42381   -29.299955     27.62141    53.280792    40.121144 
64984000    276.14281    312.06181    300.29638   -29.237599    27.852156    11.765434    40.120198 
64988000    278.90427    310.56274     282.0571   -27.349566    27.839442    28.505646    40.118107 
64992000    274.69454    321.25696    277.52477   -29.473459    28.291938    43.732191    40.118593 
64996000    283.34101    331.33572    304.92439   -29.900304    26.900062    26.411324    40.119379 
65000000    277.01037     317.5072    268.55629   -28.929925      29.6029     48.95091    40.118638 
65004000    272.32274    319.16023     292.1952   -29.175725    28.322464    26.965032    40.117963 
65008000    276.18042    343.96498    270.84841    -30.56965    28.533246    73.116574    40.118446 
65012000    278.37957    314.18962    287.56895   -29.232661    26.779388    26.620665    40.117769 
65016000    279.18087    307.85379    286.49911   -29.432151    27.974593    21.354677    40.118196 
65020000    278.04919    333.02534    269.70345   -29.483791    28.041059    63.321884    40.119007 
65024000      269.738    323.58225    272.93556   -28.460412    29.320743    50.646689    40.118578 
65028000    277.62773    328.04152    281.55409   -29.924112    27.656035    46.487433    40.119948 
65032000    276.10374    334.03059    276.32582   -30.147527    27.597509    57.704764    40.118278 
65036000     280.7807    348.12123    269.12359    -31.30581    29.369779    78.997642    40.119493 
65040000    275.01497    321.12397    280.85474   -28.933372    27.818837    40.269227    40.119924 
65044000    277.75485    324.89224    287.24602   -29.419581    27.101724    37.646221    40.120256 
65048000     273.8996    343.73352    282.51595   -29.331443    27.400268    61.217567    40.118554 
65052000    274.23028      338.453    281.55978   -30.735061    27.629431    56.893227    40.118556 
65056000    267.94272    290.18934    277.89855   -28.127598    28.774354    12.290791    40.117811 
65060000    272.80301    313.50076    280.67029   -29.348313    27.972415    32.830462    40.117513 
65064000    276.47119    322.36651    288.53597   -29.549917    28.306693    33.830544    40.118362 
65068000    272.80689    331.02275    277.74789   -28.824207    28.444253    53.274862    40.118573 
65072000    275.90491    339.88753    264.44947   -30.189763    28.836231    75.438061    40.118517 
65076000    276.67529    316.93803    300.42404   -29.384386    28.161113     16.51399    40.118332 
65080000    270.66162    321.07375    286.24287   -28.952545    28.226907    34.830875    40.117628 
65084000    267.27997    310.29349    268.65283    -28.03514    29.064307    41.640657     40.11825 
65088000    276.38456    304.89029    280.75563   -28.240445    27.871903    24.134658    40.119639 
65092000    275.35802    327.82472    289.15528   -29.609603    27.750586    38.669436    40.119617 
65096000     255.4993      302.078    250.23256   -27.545494    30.515271    51.845448    40.120639 
65100000    275.76147    325.89812    283.36651   -27.977886    28.899629     42.53161    40.121078 
65104000    269.14128    303.96693    296.19438   -27.706286    27.784478    7.7725474    40.120935 
65108000    280.61347    348.95811    275.08446   -29.612824    29.551293    73.873649    40.121236 
65112000    262.48177    294.20067    290.12002    -28.61322    28.702862    4.0806533    40.121868 
65116000    283.72455    318.73562    312.14651   -29.010475    26.698351    6.5891118    40.122143 
65120000     279.8673    351.96361     290.8095   -30.483177    27.645146    61.154111    40.123499 
65124000    270.08285    330.90961    281.06314   -28.991967    27.911883    49.846467    40.123607 
65128000    272.51551    307.48283    296.99338   -27.852107    27.661058    10.489452    40.122886 
65132000    269.59731    318.85355    269.97594   -27.885862    29.376835    48.877615    40.122046 
65136000    275.93164     339.6782    277.03049   -29.127528    28.038305    62.647714    40.121982 
65140000    271.06813    344.67072    257.56623    -29.26639    29.617466    87.104489    40.120909 
65144000    268.59333    317.83057    285.13878   -28.390547    28.847746    32.691789    40.121745 
65148000    266.38194    318.30769     259.7558   -27.485378    30.352402    58.551886    40.121356 
65152000    268.42667     304.0334    279.03213   -27.019308    28.587429    25.001268    40.121369 
65156000     262.8798    312.56175    253.01479   -28.037545    30.245967    59.546963    40.121005 
65160000    284.70418    344.35784    285.26547   -29.692025    28.777383    59.092371     40.12158 
65164000    267.82099    328.29534     263.2716   -28.933366    29.852802    65.023747     40.12221 
65168000    266.12196    308.74479    281.34325   -28.008226    29.640813    27.401536     40.12333 
65172000    260.20202    287.10709    286.24696   -26.727623    28.569719   0.86012984    40.123995 
65176000    285.68672    336.81773    299.01016   -29.786712    28.606863    37.807575    40.122921 
65180000    267.49417    332.24033     259.0642   -29.142741    30.845568    73.176129    40.120866 
65184000    273.73418    307.99677     286.8238   -27.929299     28.52257    21.172966    40.121391 
65188000     268.5514    315.52722    275.40471   -28.417131    29.921813    40.122515    40.120994 
65192000    266.80879    304.16137    261.16561   -26.551072    30.928742    42.995758     40.12027 
65196000    276.54837      322.276    287.00711   -29.518126    28.307005    35.268898    40.120064 
65200000    273.71913    309.93642    299.22714   -26.943471    28.820514    10.709279    40.120639 
65204000    273.42379     323.3191    274.10091   -28.235987    29.320061    49.218188    40.120039 
65208000    272.45764    318.76222     264.7208   -28.287972    29.236939    54.041424    40.120398 
65212000    267.85279    326.39509    279.19919   -28.714491     29.12917    47.195907    40.121239 
65216000    271.25668    321.54099    258.27886   -28.934486    29.462462    63.262129    40.121175 
65220000    281.04126    326.06416    305.79084   -29.050786    28.212754    20.273318    40.121986 
65224000    271.99759    316.76772    267.05523   -28.757705    29.509069    49.712489    40.122579 
65228000    274.01103    325.09712    286.98426   -28.594517     29.26178    38.112862    40.122524 
65232000    268.20418    314.62021    278.24369    -27.91024    28.256564    36.376524    40.123563 
65236000    271.16804    310.21315    287.58446   -29.530823    29.009186    22.628687    40.122178 
65240000    275.77065    320.54109     276.5955   -29.653912    29.286181    43.945591     40.12254 
65244000    282.79643    334.23941      298.209   -29.729435    28.497132    36.030411     40.12192 
65248000    275.44915     325.9232    292.53611   -29.572624    28.362813    33.387088    40.121535 
65252000    271.04063    308.98367    285.78451   -28.425184    27.889575    23.199162    40.121836 
65256000    278.17859    316.00695    278.93864   -27.466839    27.951754    37.068313    40.121791 
65260000    273.85355    328.96204    278.25581   -29.149623     27.97302    50.706231    40.122409 
65264000    270.50844    323.87417    256.16967   -29.154797    29.148015    67.704502    40.122834 
65268000    265.45014    298.80952    290.98485   -28.159395    27.528481    7.8246718    40.122388 
65272000     275.1578    330.83049     273.6076   -30.099814    29.082682    57.222886    40.122136 
65276000    279.30694    336.53058     290.4675   -28.998673    28.342747    46.063081    40.122029 
65280000    273.77158    325.78251    282.48423   -28.344438    28.183298    43.298281    40.122561 
65284000    274.68135    338.01361     285.2646   -28.914201    28.678003    52.749007     40.12244 
65288000     277.7617    325.41067     283.4446   -29.159327    29.504984    41.966068     40.12075 
65292000    268.93023    312.80694    278.14855   -28.646849    29.217654    34.658389    40.120728 
65296000    276.00375    298.83356    282.24071   -27.586673    28.207883    16.592847    40.119694 
65300000    273.97624    336.49585    295.18425   -29.768525    28.637469    41.311599    40.120536 
65304000    279.43645    324.79749    296.03631   -28.935836    27.349328    28.761181    40.119427 
65308000    275.20581     303.4493    286.82576   -28.030709    27.091601    16.623542    40.119472 
65312000    272.62837    326.50733    269.89672   -30.130025    28.492115     56.61061    40.119297 
65316000    274.19813    313.61732    273.45571   -30.343565     28.43064    40.161609    40.119324 
65320000    280.76245    317.90893    294.38803   -30.054929    27.466086    23.520906    40.119452 
65324000    281.25989    324.67945    294.03507   -29.839656    28.453928    30.644377    40.119551 
65328000    274.05768     304.9514    277.90812   -29.130904    28.470118     27.04328    40.119118 
65332000    283.79531    323.51594    292.09177   -29.940772    29.150143    31.424166    40.117814 
65336000    277.09836    340.73937    272.14125   -31.703608    29.478706    68.598122    40.116569 
65340000    288.33874    345.99356    298.74782   -30.971502    27.069873     47.24574    40.115786 
65344000    270.53534    308.38199    277.74909   -28.268832     29.02294    30.632901     40.11804 
65348000    276.63621    339.32364    271.57135   -31.744075    28.313877    67.752293    40.118568 
65352000    275.45392    317.83504    282.20908   -29.261019    29.187591    35.625961    40.117601 
65356000     275.7036    325.27877    286.71075   -29.739275    29.400094    38.568018    40.117891 
65360000    276.90593    315.52539    281.12503   -30.608767     29.39611     34.40036    40.117817 
65364000    281.37208    334.44791    293.42013   -30.988606     27.84257    41.027776    40.118251 
65368000    266.84952    297.42396    272.64003   -29.010493    28.802805    24.783931    40.117269 
65372000    275.04324    317.04911    284.25246   -29.893341    28.701155    32.796658    40.118008 
65376000    271.51776    318.26172    291.54586   -30.339956    28.855205    26.715868    40.117314 
65380000    279.37754    330.11168    277.80956   -30.251412    29.478376    52.302112     40.11742 
65384000    268.01771    310.64479    270.30045   -29.300904    29.445213    40.344342     40.11807 
65388000    260.69118    292.04953    263.72202   -27.956756    30.166903     28.32751    40.118194 
65392000    267.15725    305.18378    258.97548   -29.586698    30.323404    46.208307    40.119195 
65396000    270.08356     309.1159    285.50666   -29.605999    29.911306    23.609236    40.118744 
65400000     264.8291    310.67296    273.37419   -28.883726      31.4289    37.298768    40.119311 
65404000    271.34624    338.69396    262.82138   -29.755471    30.325137    75.872578    40.118947 
65408000    268.88076    324.12049    281.93341   -30.233324    30.253832    42.187077    40.119192 
65412000    269.14469    317.21103    281.27127   -28.927908    30.994337    35.939758    40.118569 
65416000    273.00346    341.17182     275.4395   -29.400821    31.369232    65.732318     40.11861 
65420000    280.83146    342.31608    303.24459   -29.802163     29.36311    39.071492    40.118743 
65424000     274.3965    324.32836    283.27825    -29.51587    30.585247    41.050111    40.118048 
65428000    276.57226      311.321    303.38898   -29.025901    29.990674    7.9320212    40.118588 
65432000     273.2792    310.70553    288.02052   -27.994734    30.105017    22.685009    40.117518 
65436000    263.35004    304.41436    280.81008   -27.692158    30.066328    23.604282     40.11907 
65440000    277.58669    337.46323    276.07344   -29.973227    30.222741    61.389795     40.11945 
65444000    274.81801    327.43102     286.0585   -29.686973    29.282665    41.372523     40.11957 
65448000    275.50135    330.90438    293.88781   -30.351842    29.422741    37.016572    40.119282 
65452000    268.47963    315.73073    268.09756   -29.161432     30.57528     47.63317    40.120167 
65456000    277.03818    331.18793    282.95052   -30.778725    31.082554    48.237418    40.121222 
65460000    273.18053     309.1073       270.84   -29.090245    30.169694    38.267299    40.120901 
65464000     267.6536    313.35553    268.35476   -28.886695     31.61843    45.000767    40.120927 
65468000      275.639    323.62092    289.52909   -28.752657    30.135662     34.09183    40.121901 
65472000     273.2546     318.8414    289.26876   -29.659812    29.025118     29.57264    40.121683 
65476000    278.01991    311.11195    280.89081   -29.450908    29.952137    30.221136     40.12141 
65480000    277.03126    339.68115    269.71594   -30.077323     30.21842    69.965207    40.121281 
65484000    265.44057    316.80595    263.22011   -29.407954    30.815306    53.585846    40.120742 
65488000    274.39525    330.44293    279.66299   -30.590151    30.342486     50.77994    40.121291 
65492000     266.5776    311.19939    265.36192   -29.856126    31.761578    45.837475    40.121048 
65496000     273.7073    314.11291    279.73359   -29.451144    31.058478    34.379318    40.119895 
65500000    273.23726    315.89729    274.50397   -28.816804    31.058475    41.393316     40.11847 
65504000    273.66036    325.22735    277.38017   -30.241325    30.472364    47.847177    40.119302 
65508000    253.56833    298.45931     276.9884   -28.298514    32.012089     21.47091    40.118931 
65512000    271.21805    314.67653    285.32821   -28.732686    30.610438    29.348314    40.120185 
65516000    273.72249    322.83377     288.1675   -28.464747    30.334299    34.666276    40.119147 
65520000    269.61204    321.39048    292.67249   -28.957455    30.083073     28.71799    40.119835 
65524000     272.0365    323.75189    285.35878   -29.626624    30.611534    38.393116    40.119384 
65528000    271.19166    314.10963    290.13047   -29.642218    30.577441    23.979164    40.118998 
65532000    275.74994    343.37982     282.4725   -30.300833    30.843344    60.907317    40.121181 
65536000    276.76813    349.85702    294.92006   -31.851992    30.166888    54.936961    40.120888 
65540000    274.81343     320.1951    296.93532   -29.897711    30.074648     23.25978    40.121108 
65544000    273.80207     323.2665    292.09698    -29.42341    30.006035    31.169521    40.121094 
65548000    273.42996     338.8585     265.8181   -30.960969    30.865788    73.040399    40.121795 
65552000    274.24076     321.0347     281.7845   -29.315969    30.733631    39.250204     40.12183 
65556000    277.15009     345.6864    290.42102   -30.572174    29.459533    55.265386    40.121516 
65560000    270.83238     305.4546    284.21337   -27.800873    29.953738     21.24123    40.121485 
65564000    275.38191    310.35286    297.47147   -29.768277    29.799176    12.881387     40.12026 
65568000    262.95765    302.73461    274.64012   -28.531483    29.818305    28.094496      40.1193 
65572000    273.18218    329.95866    285.13026   -28.627208    31.309526    44.828409    40.119058 
65576000    271.81732    317.85458    290.32491   -27.867188    30.354529    27.529674    40.119095 
65580000    273.99178    337.59896    277.50499   -29.868901    30.444232    60.093977    40.119003 
65584000    265.23443     300.8678    286.68597   -28.079298    29.083178    14.181833    40.119191 
65588000    280.21528     335.7844    295.48993    -30.07033    28.870275    40.294467     40.11928 
65592000    269.72509     312.4066    272.27881    -29.50297    30.475984    40.127788    40.120501 
65596000    273.89686     325.5337    279.86554   -29.974894    29.598483    45.668156    40.120196 
65600000    274.75932    330.30439    273.03882   -31.303892    30.788698    57.265571     40.11951 
65604000     280.2614     317.1226    311.28908   -29.941866    27.782106    5.8335216    40.118369 
65608000    276.03243    307.22031    293.22553   -30.189612    29.100564    13.994785    40.117748 
65612000    281.36167    325.42129    282.07103   -31.090157    29.792454    43.350265    40.118722 
65616000     283.1072    354.25303    271.70677   -32.182358    29.802812    82.546257    40.118977 
65620000    270.14238    301.08683    274.28168   -29.123054    29.986886    26.805154    40.118549 
65624000    274.10824    326.66457    273.44364   -30.785643    30.658698    53.220937    40.119056 
65628000    273.18602    334.59734    259.74177   -31.082377    29.673984    74.855567    40.120564 
65632000    278.63733    304.29315    303.47391     -30.1291    28.421556   0.81923799    40.119626 
65636000    276.01657    313.49685    291.26003   -30.930864    29.756098    22.236821    40.119413 
65640000     266.9352    310.90974    267.68054    -30.34748    29.991562    43.229199    40.120379 
65644000    273.50012    311.12661    284.70439    -29.31413    29.913146    26.422226    40.118927 
65648000     269.8543    315.71988    265.06156   -29.910998    31.871333    50.658325    40.119101 
65652000    280.71457    321.22407    280.83943   -29.002266     31.31804    40.384636    40.118175 
65656000    268.77173    311.52206    279.10787   -29.762408    30.648197    32.414197    40.116667 
65660000    271.71547    314.09363    278.58408   -28.435329    29.603022    35.509551    40.117531 
65664000    272.21303    313.35609    270.08021   -29.224299    30.712375     43.27588    40.117818 
65668000    265.31324     305.5539    268.63905   -29.695289    31.281796    36.914844    40.118339 
65672000    277.81162    314.73393     295.0977   -29.905155    29.025428    19.636228    40.118459 
65676000    273.88458    301.91182     290.9937   -27.911035    28.743921    10.918119    40.118849 
65680000     277.0078    348.19415    270.90332    -31.64316    30.850888     77.29083    40.119294 
65684000    275.59146    326.14785    292.16113   -30.321454    29.876092    33.986723    40.118286 
65688000    271.79606    305.39898    281.40946   -29.149896    30.187469    23.989523    40.117809 
65692000    283.22484    334.41119    294.68395   -31.126732    29.536462    39.727243    40.117152 
65696000     273.1519    306.96719    303.53577   -30.045946    28.993542    3.4314197     40.11834 
65700000    273.60878    339.92544    264.76989   -30.817952    29.456631    75.155542    40.119345 
65704000    279.91686    346.83251    271.95984   -30.330807    30.358576     74.87267    40.119262 
65708000    281.96463    327.75019     279.0765   -30.275052     29.62373    48.673688    40.119172 
65712000    272.84881     323.1132    280.75065    -30.34746    30.112757    42.362547    40.119529 
65716000    285.51234    345.43254    300.05828   -32.283604     29.70964    45.374256    40.120722 
65720000    285.99168    310.77124    315.22748   -30.729121    28.591149   -4.4562413    40.121443 
65724000    276.25238    307.25647    287.80287   -30.360931    29.865159    19.453599    40.120998 
65728000    270.92688    330.10469     280.7391   -32.167241    29.997916    49.365598    40.122031 
65732000    279.90549     330.0374    278.60155   -31.631515    30.401826    51.435849    40.122068 
65736000    280.50601    323.73591    293.90228   -30.588283    30.663618    29.833631    40.122195 
65740000     273.3238    311.06282    276.42108   -29.052842    29.226386    34.641738     40.12282 
65744000    283.66521    326.30457    279.32212   -32.213434    29.000351    46.982453    40.121368 
65748000    270.87859    309.89987    275.26782   -30.671405    30.438329    34.632047    40.122324 
65752000    277.84719    326.99531    287.19366   -30.102479    28.637752    39.801656    40.122362 
65756000    286.45236    330.11137    288.04118   -30.424592    29.097481    42.070193    40.122732 
65760000    266.94181    294.27864    266.75119   -29.694811    31.141056    27.527446    40.121669 
65764000    273.49383      330.135    270.89996   -31.235882     30.84315    59.235048    40.121193 
65768000    285.38381    328.06633    303.59208   -32.013894     29.34304     24.47425     40.11998 
65772000    268.44285    319.91306    255.40942   -31.452405    31.696763    64.503633    40.120537 
65776000    287.16151     354.8367    280.69807   -31.129543    30.623111    74.138627    40.121265 
65780000    275.58772    317.24187    279.34673   -30.558222    30.407504    37.895147    40.121946 
65784000    279.29247    332.62028    280.97484   -30.452259    30.044815    51.645442    40.121806 
65788000    278.56246    312.57169    290.06708   -29.574305    29.553704     22.50461    40.120404 
65792000    292.02666    348.26704    324.99736   -31.587111    28.465567    23.269675    40.119755 
65796000    277.95245    313.19382    286.03804   -30.952067    30.918038    27.155782     40.11992 
65800000    275.23792    325.68512    279.51583   -31.606278    30.755028     46.16929    40.120425 
65804000    277.77677    300.87384    301.46881   -29.780408    29.251855  -0.59497017    40.121479 
65808000    271.95261    308.29506    289.44349   -29.749673    29.170514    18.851577    40.121292 
65812000    287.74937    339.55026     321.7061   -31.379083    27.176161    17.844155    40.121484 
65816000    279.98536    316.55759     301.0934    -30.79871    29.513877    15.464192    40.121248 
65820000    275.14373    315.24168    271.07832   -29.722176    30.024112    44.163355    40.120906 
65824000      273.899    315.05799    306.30809   -30.177094     29.81071    8.7499016    40.119949 
65828000    271.97193     334.4783    271.12197   -31.359246    31.390315    63.356331    40.119753 
65832000    276.30001    338.48794    286.32559   -30.398988    29.802117    52.162355    40.119707 
65836000    274.32236    304.59412    303.74924   -29.774835    30.071421   0.84487464    40.119044 
65840000    280.35274    335.43868    275.16854   -31.226791    31.644903    60.270143    40.118028 
65844000    267.42338     300.5451    289.18313    -29.80293    29.801294    11.361972    40.119251 
65848000    261.87332      302.731     274.3371   -29.613102    32.261602    28.393897    40.119648 
65852000    278.75289    332.59858     298.9757   -31.098109    31.077606    33.622882      40.1188 
65856000    274.77365    325.21562    262.96721   -30.094294    32.085857    62.248413    40.119631 
65860000     267.5424    312.65619     273.6375   -30.496561    31.353858    39.018693    40.118754 
65864000    265.11914    291.39025    282.11191   -28.692412    31.176693    9.2783447    40.118384 
65868000    266.95387    296.36766     260.8364   -29.032623    31.490599    35.531264    40.118748 
65872000    273.58436    336.83487    276.42001   -30.670236    31.183576    60.414863    40.118461 
65876000     263.6455     317.7763    261.57126   -29.488657    32.019454    56.205037    40.119246 
65880000    280.41576    336.95713    309.45731   -29.962407    30.012881    27.499822    40.119016 
65884000    278.41775    318.89847    290.43553   -30.349951    30.797826    28.462946    40.119495 
65888000    268.78017    325.12982    284.54861   -29.212261    30.968445    40.581206    40.118291 
65892000    269.24262     321.1849    264.91082   -30.261077    32.135537     56.27408    40.118786 
65896000    273.24653    324.60151    286.59058   -30.658595    30.423034    38.010923    40.118484 
65900000    272.05093    310.80522    285.50854   -29.375575    31.282957    25.296682    40.118039 
65904000    272.47822    329.80782    262.86449   -30.359335    31.683515    66.943337    40.117601 
65908000    270.41638    349.69944    277.30322   -32.902474    32.216848    72.396221     40.11694 
65912000    266.69967    314.99843    272.08999   -30.678612    31.352104    42.908441    40.117856 
65916000    273.35691    307.01702    294.11075   -30.320719    30.046284    12.906269    40.117273 
65920000    261.38098    306.25774    254.62596   -30.535583    31.824873    51.631782      40.1178 
65924000    276.95939    316.80739    299.62088   -32.189876    30.243939     17.18651    40.116857 
65928000    276.28011    314.35484    288.37245   -30.091507    30.617464     25.98239    40.117101 
65932000    283.22681    337.86081    297.37295   -30.965833    31.135464     40.48786    40.117291 
65936000     277.4128    336.45121    265.44208    -31.75241    32.165618    71.009122    40.117527 
65940000    266.24376    308.14226    273.95942   -30.467249    31.379106    34.182838    40.117164 
65944000    279.74114    345.37031    289.31627   -31.060275    30.647023    56.054039    40.117193 
65948000    270.50343    315.49523    289.27987   -30.066692     30.43236    26.215366    40.117194 
65952000    269.84931    310.23983    287.64189   -29.368757    30.594172    22.597934    40.117094 
65956000    283.82264    339.52617    294.75188   -31.682339    29.820447    44.774291    40.117692 
65960000    276.03643    323.51338    303.55211   -30.589987    30.346715    19.961269    40.115657 
65964000     263.4724    321.37156    253.90193   -28.581832    33.278215    67.469628    40.114699 
65968000    275.37233     333.6069    286.58473   -30.403603    31.309238    47.022176     40.11494 
65972000    269.24294    305.37291     265.3921    -29.50503    31.385833     39.98081    40.115256 
65976000    262.12335    286.11879    269.47246   -28.809234    31.804843    16.646327    40.115116 
65980000    265.60361    312.42881    281.73702   -31.053306    31.861542    30.691789    40.115166 
65984000     270.9177    317.72815    276.51566   -30.751618    31.562877     41.21249    40.114928 
65988000    271.47635    292.33079    300.45305   -31.303392    30.403985   -8.1222529    40.115287 
65992000    276.13119    325.20914    278.28117   -30.635909    31.466904    46.927971    40.115695 
65996000    275.57433    304.84545    287.53592   -32.304344    30.515352    17.309532    40.115199 
66000000    274.23489    334.50095    281.58483   -32.795184    30.776805    52.916122    40.116382 
66004000    267.29211    308.87839    281.88774   -29.989748    30.787461    26.990643    40.118088 
66008000    270.44916    330.73464    259.64954   -30.510147    31.950291    71.085098    40.117703 
66012000    277.64658    324.97478    283.55051   -31.136927    30.706729    41.424271    40.117413 
66016000    279.51202    330.13906    291.50424   -30.993271    29.007746    38.634826    40.118442 
66020000    270.24483    320.93104    268.04408   -30.168159    30.253192    52.886954     40.11749 
66024000    273.81364    322.86813    277.18545   -31.431274    29.709582    45.682681    40.116453 
66028000    284.47894     367.0707    273.50347   -32.529987    30.328182    93.567227    40.116788 
66032000    271.59839    315.51895    277.91033   -30.483038    29.646838    37.608618    40.118893 
66036000    274.19798     313.5516    292.08056   -30.228638    29.116069    21.471046     40.11959 
66040000    272.15617    312.91871    274.45092   -30.459712    30.898173    38.467794    40.119976 
66044000     267.5903    309.99008     270.8676   -30.486871    30.317429    39.122479    40.120374 
66048000    278.38262     326.5029    288.20496   -30.616885    29.884756    38.297935    40.121738 
66052000    265.19321    299.57053    275.47564   -30.631328    30.458131    24.094892    40.121263 
66056000    282.90326    330.39493    283.56932   -29.993844    30.003169    46.825603    40.123183 
66060000    277.33648    330.80353     272.6545   -31.443964    31.787969    58.149028    40.122936 
66064000    273.17403    332.58434    267.28866    -30.97484    32.044497    65.295682    40.123147 
66068000    272.08568    313.88716    283.97072   -30.692476    31.683535    29.916438     40.12239 
66072000    271.06611    327.70909    269.87458   -31.564829    31.307359    57.834511     40.12284 
66076000    270.67302    314.12362    271.26653   -30.821691    30.916927     42.85709    40.123434 
66080000    278.36379    330.74493    278.84451   -31.664337     31.68074    51.900412    40.123656 
66084000    263.92534    316.36093     274.7044     -30.6326    31.813507    41.656527    40.123771 
66088000    268.23197    318.88294    261.87967   -30.151504    32.163047    57.003267    40.123518 
66092000    261.78842    318.34228     268.9192   -30.702801    32.680797    49.423085    40.122474 
66096000    273.49205    321.09932    266.59727   -31.533331    32.122139    54.502047    40.122721 
66100000    272.44054    310.94352    281.83377   -29.750741    29.954899    29.109748    40.123034 
66104000    268.86772     306.5016    287.10876   -31.196744    30.381656    19.392837    40.123236 
66108000    279.40426    336.57499    276.31728   -31.409684    32.135791    60.257709    40.123056 
66112000    273.71777    336.15553    287.48638   -31.407152    31.306556    48.669153    40.123067 
66116000    275.64677    337.95021    280.13416   -31.743815    32.303858    57.816045    40.123549 
66120000    275.65213    321.54618    295.75087   -29.159732    30.460087     25.79531    40.123391 
66124000    276.93329    350.88059    283.19413   -31.619462    30.389095    67.686453    40.124042 
66128000    272.72015    322.46831    288.00058   -29.303368    30.019994    34.467733    40.125394 
66132000    269.89161    318.64196    278.75256    -29.83767    29.880423    39.889405    40.123896 
66136000    271.55662    338.33733    284.33019   -31.029513    30.021423    54.007141    40.123275 
66140000    262.25037    300.59318    261.63253   -29.858263    32.040004     38.96065    40.122375 
66144000    270.59652    324.25712    291.64375   -31.113458    30.734152    32.613364    40.123269 
66148000    275.38937     317.8949    293.03403   -31.163969    30.840004    24.860878    40.124142 
66152000    274.48021    341.78142    266.16385   -31.994578    32.077183    75.617576    40.124398 
66156000    265.88596    303.20243    291.16852   -30.542338    31.010256    12.033908    40.123596 
66160000    281.79256    330.73605    299.38406   -31.849557    30.347936    31.351993    40.123267 
66164000    271.00779    316.04478     276.8183   -31.083519    30.709808    39.226484    40.123889 
66168000    265.80692    318.70669     265.4681   -29.986527     33.20459    53.238586    40.124131 
66172000    266.28019    318.22198    280.67969   -30.796489    31.444867    37.542299    40.123601 
66176000    266.55488    312.03543    282.90539   -29.792529    31.449777    29.130036    40.122572 
66180000    268.78432    304.29014    289.44979     -30.6445    30.829002     14.84035    40.121954 
66184000    276.68992    316.51073    306.76734   -29.764725    30.661353    9.7433933    40.121937 
66188000    260.34061    320.36467    263.06214   -29.912228    32.905811    57.302523    40.122409 
66192000    267.83709    314.61694    270.74465   -29.684141    32.500251    43.872284    40.122553 
66196000    277.04682     325.8803    287.15177   -29.064081    30.041286    38.728528    40.121882 
66200000    270.60032    314.63603    277.99264   -29.118256     31.36464    36.643394    40.121707 
66204000    271.38251    322.37416    285.16926   -29.124383    30.243126    37.204902    40.121194 
66208000    272.27207    326.19146     288.2049   -29.543298    31.109627    37.986554    40.121274 
66212000    269.70447    320.88352    278.73893   -29.268413    32.032124    42.144589    40.121678 
66216000    263.88233    302.13911    286.86977   -28.426022     31.47236    15.269331    40.121263 
66220000     274.5151    338.16141    291.09243   -30.214287    30.828253    47.068984    40.121372 
66224000    280.43786    325.72968    288.20709   -29.727318    30.716047    37.522591     40.12167 
66228000    273.29917    320.32384    292.71225   -29.949803    30.737645    27.611588    40.121869 
66232000    269.09625    309.78803    272.42872   -28.655392    31.250874    37.359304    40.121976 
66236000    273.62531    320.85775    280.08745   -30.236437     32.41688    40.770295    40.122514 
66240000    270.99548    302.36294    286.74452   -29.392407    30.665655     15.61842    40.123669 
66244000    275.47551    333.97696    276.76013   -31.104771    31.101924     57.21683    40.124477 
66248000    276.66081    314.97553    285.27219   -30.081365    30.256954    29.703332    40.123731 
66252000    284.81794    333.70091    306.91782    -30.87237    30.046998    26.783088    40.124454 
66256000    270.50209    318.71262    273.28335   -29.759195    31.221685    45.429276    40.124559 
66260000    274.01522     324.8582    296.80453   -29.297154    29.808939    28.053674    40.124379 
66264000     277.9117    339.69197    287.02665   -31.407962    31.066219    52.665322    40.124035 
66268000    271.12192    313.30331    295.43514   -30.002815    31.044036    17.868172    40.123638 
66272000    268.36009    299.58099    276.08974   -29.479351     31.20937    23.491251    40.123163 
66276000    274.16199    327.36258    271.43203   -29.963093    30.157111    55.930555    40.123956 
66280000    276.92522    352.62305    280.29095   -32.633551    29.623773      72.3321    40.123717 
66284000    271.30754    300.35557    286.14466    -30.57172    29.340378    14.210913    40.123221 
66288000    264.31026    291.42658    281.14285   -28.585618    30.114487    10.283731    40.122948 
66292000    276.01379    331.88939    285.30251   -31.523565    30.101164    46.586882    40.122019 
66296000    273.44906    326.19895    290.18583   -32.322649    30.613003    36.013127    40.122346 
66300000    267.70004    310.06033    269.94859   -30.520456    31.945813    40.111731    40.121369 
66304000     278.8692    323.87276      306.131   -31.492954    29.807649    17.741759    40.120996 
66308000    277.56795    323.63145    284.03352   -32.847209    30.336194     39.59793    40.121375 
66312000    277.24713    319.59702    283.36893   -32.377926    30.904549    36.228082    40.120433 
66316000    279.02646    333.77046    279.91257   -31.810987    30.117186    53.857893    40.121298 
66320000    273.67338     321.6916    290.44554   -30.430995    29.786049    31.246062    40.119968 
66324000    275.91305     312.5263    283.10125   -29.935964    30.378004    29.425055    40.119488 
66328000    281.91238    337.64715    269.34894   -30.788096    30.798727    68.298209    40.119145 
66332000    274.05804    330.99763    261.90784   -31.408675    30.481934    69.089792     40.11882 
66336000     276.9576    323.01479    290.71708   -30.528061    30.616061    32.297703    40.118416 
66340000    268.45621    326.12116    274.62424   -31.911697    29.773745    51.496926    40.118344 
66344000    271.30023    322.03623    273.36263   -31.002208    30.984892    48.673599    40.117592 
66348000    283.50068    335.71152    288.33165   -31.963528    31.009324     47.37987    40.118517 
66352000    282.95922    325.41768    304.27261   -31.840116    31.258166    21.145071    40.117699 
66356000    270.90425    344.45714    269.50748   -32.307831    33.056072    74.949658    40.118739 
66360000    276.37561     328.8665    268.92375   -30.725323    33.243406    59.942753    40.119986 
66364000    269.36229    303.16908     287.2042   -30.193786    31.952963    15.964882    40.120495 
66368000    270.13705    308.73715    277.10334    -30.45423    32.380437    31.633808    40.120476 
66372000    260.30254    317.01237    256.74162   -31.496228    33.008413    60.270755    40.120776 
66376000     271.6031    313.83076    272.05011   -30.960305    32.979452    41.780654    40.120457 
66380000    280.76312    326.79195    304.40289   -31.983703    30.670098    22.389065    40.119845 
66384000    276.91984    339.77424    260.80985   -33.444977    33.305116    78.964388    40.119409 
66388000    273.19347    341.10417    257.86277   -33.792593    32.403967      83.2414    40.118765 
66392000    271.54415    305.96044    288.47535   -31.265202    30.854357    17.485089    40.119827 
66396000    275.23356    326.33865    266.79458   -33.208517    31.981543    59.544068    40.120057 
66400000    272.78102    319.03035    283.83036   -32.390089    31.612846    35.199995    40.119481 
66404000    274.35266    334.95039    281.32922   -32.987848    31.976221    53.621166    40.118681 
66408000    272.06957    325.93037    271.87859   -32.319162    31.103197     54.05178    40.117342 
66412000    272.05672      322.857    281.91291   -32.042982    31.375883    40.944091    40.116853 
66416000    262.83126    289.25903    269.33277   -29.702676    32.240629    19.926258    40.117022 
66420000    270.19371    302.16416       284.15   -32.377164    31.484368    18.014153    40.117975 
66424000     267.8409    292.78823    276.09346   -30.470669    31.507656     16.69477    40.117452 
66428000    272.93089    351.84912    260.58773   -32.395025    32.011715     91.26139    40.118953 
66432000     277.2294    328.19542    283.35942   -30.845295    31.779007    44.836002    40.119209 
66436000    284.14323    341.81887    306.89811   -30.939083    30.130765    34.920751    40.118373 
66440000    271.84614    317.66303    283.57061   -30.774445    31.222753    34.092418    40.118608 
66444000    276.34561    325.78713    272.71372   -31.422323    32.890606    53.073416    40.118428 
66448000    267.58684    315.10328    278.03031   -29.937537    32.118916    37.072977    40.117354 
66452000     276.6038    341.16442    271.17774   -32.556441    32.316102    69.986681    40.116427 
66456000    263.44959    304.41605    272.67983   -30.292709    32.486812     31.73622    40.115905 
66460000    264.28022    317.06794    263.89557   -31.384303     32.19709    53.172365    40.115805 
66464000    273.66316     310.7884     279.2451    -30.86042    32.311906    31.543302    40.115531 
66468000    263.21618    303.22532    278.92948   -30.853859    32.182681    24.295844     40.11515 
66472000    267.11803    323.31455    264.59363   -31.584377    32.252719    58.720919    40.115575 
66476000    275.64154    314.72022    283.26074   -30.164999    31.738977    31.459478    40.115246 
66480000    270.59818    321.02818    284.50762     -29.6373    32.143332    36.520562    40.115831 
66484000    275.28037    323.39748    275.23649   -31.037329    32.643706     48.16099    40.115539 
66488000    265.60184    307.40486    273.12877   -30.812388    31.734993    34.276093     40.11642 
66492000    269.33991    315.60386    267.16781   -29.231148    32.810271    48.436047    40.116389 
66496000    260.10895    316.47823    258.67028   -29.157253    32.195355    57.807952    40.116579 
66500000    272.30134    323.78847    276.93368   -30.393347    30.856105    46.854791    40.116484 
66504000    270.21805    313.34281    293.65369    -29.82452    29.452946    19.689124    40.116723 
66508000    272.04609     318.2979    281.91294   -30.223948    31.600089    36.384963    40.117762 
66512000    269.44573    315.54292    281.56348   -31.713015    31.422623    33.979439    40.117338 
66516000    262.87689    306.26571    261.17818   -28.715241    33.934596    45.087527    40.118334 
66520000    265.29567    304.70003    285.27109   -29.769304    31.891908    19.428945    40.116933 
66524000    271.92373    307.09415    287.26344   -30.458456    32.124768     19.83071    40.117511 
66528000    265.51098    302.97851    276.56091   -29.816792    32.633392    26.417599    40.118091 
66532000    274.01263    334.50594    269.75683    -32.63465     32.93705    64.749112    40.119025 
66536000    268.95232    326.79307    267.90679   -30.159122    32.899592    58.886278    40.119897 
66540000    259.90217    309.21921    272.00194   -29.365383    31.869457    37.217278    40.119439 
66544000    277.60927    320.17534    296.98759   -31.363217    31.653414    23.187749    40.120625 
66548000     270.9683    316.40824    293.40753   -30.660978    31.224982    23.000711     40.12122 
66552000    268.66665    324.59725    278.65386   -31.584623    31.757027    45.943384    40.121751 
66556000    265.45515    311.13966    283.98147   -30.751906      31.9241    27.158188    40.120928 
66560000    271.27218    328.92858    288.56067   -31.921006    32.362445     40.36791    40.120266 
66564000     274.5886    325.36489    291.54504   -31.749372    31.385932     33.81985    40.121062 
66568000    280.35623    317.35644     293.0046    -31.93051    31.612641    24.351837    40.122755 
66572000    277.19753    330.42493    292.08367   -32.489656    31.084622    38.341261    40.122933 
66576000    270.85772    324.62375    290.70565   -31.034483    32.232159    33.918094    40.122488 
66580000    266.04717    300.87988    276.20009    -29.95094    32.526335    24.679786    40.122071 
66584000    271.86858    323.94257    287.08328   -31.965086    31.760038    36.859296    40.122439 
66588000    279.18237    332.17627    288.26584   -32.048294     32.25995    43.910432    40.121688 
66592000    268.42983     331.6909    261.05191   -32.478636    32.007697    70.638988    40.122079 
66596000    268.77455    327.22399    275.55276   -31.755229    31.600592    51.671234    40.121264 
66600000    273.94656    318.57206     301.1732   -30.123465    30.896457    17.398856    40.121375 
66604000    276.33073    328.04618    269.70496   -31.517482    32.370452    58.341226    40.121696 
66608000    277.86634    323.14373    296.09836    -32.36124    30.402245    27.045364    40.121619 
66612000    265.50066    300.46317    284.29391   -30.412691    31.103755     16.16927    40.121944 
66616000     266.2001    315.16614    271.09747    -30.73513    32.641593    44.068678    40.121857 
66620000    272.39799    301.09393    294.13449   -30.309263    30.530241    6.9594474    40.121377 
66624000    272.60665    311.28728    286.39877   -30.032488    30.153274    24.888503    40.122637 
66628000    285.19333    326.54293    299.15349   -32.093305    30.654975    27.389444    40.121235 
66632000    274.84411    309.12312    286.45811   -31.847349     31.49477    22.665016     40.12001 
66636000    261.13271    300.80808     279.7013   -32.132816    31.993124    21.106783    40.121397 
66640000    263.66158    284.20469    270.25161   -30.485669    32.450635    13.953084    40.120827 
66644000    266.85141     312.1763    265.45365   -32.353083    32.903644    46.722651       40.121 
66648000    279.37454    346.56765     271.4603   -34.828936    31.844635    75.107353    40.121162 
66652000      270.311    320.75989    281.08437   -32.402881    31.210869    39.675512    40.121687 
66656000     275.1946    328.62384    272.95311   -32.447113    32.508608    55.670735    40.121613 
66660000    264.39321    314.80548    263.93087   -30.610338     32.74003    50.874608    40.120762 
66664000    264.11735     302.0642    274.56101   -30.840023    32.734726    27.503191    40.120319 
66668000     270.1911    307.93347    275.17526   -31.361649    33.464931    32.758217    40.119489 
66672000    275.34633    334.87441    276.86208   -32.095904    32.565281    58.012331    40.120055 
66676000    270.46118    311.65079    289.94669   -31.045924    31.602927    21.704107    40.121244 
66680000    278.93247    325.68589    293.36597   -31.485667    30.143033    32.319914    40.121075 
66684000    278.55968    336.47588    310.29236   -31.451316    30.555256    26.183524    40.121189 
66688000    265.13936    307.64223    257.48672   -30.398343    33.205491    50.155512    40.121342 
66692000    268.31361    305.40287    276.80187   -29.734033    33.333527    28.600997    40.122061 
66696000    270.83168    323.42366    272.85087    -32.58777    33.456213    50.572793    40.122348 
66700000    259.21898    299.84668    262.84173   -30.915738    32.678393    37.004948    40.121996 
66704000    280.55954    313.89039    308.20755   -31.231336    30.790737    5.6828341    40.121339 
66708000     278.7309     327.1562     281.2022   -32.501477     31.83692    45.953999    40.121258 
66712000     270.9462    322.22134    297.66162   -31.633827    30.603815    24.559724    40.119754 
66716000    262.48467    296.30455    277.64228   -30.404839    32.108412    18.662268    40.120462 
66720000    273.74032     325.7804    277.88185    -31.86267    32.932406    47.898544    40.120539 
66724000    269.01898    328.54563     262.3737   -31.859635      33.4644    66.171935    40.119774 
66728000     276.4587    329.61254    288.65372   -31.620121    31.341307    40.958816    40.119641 
66732000    277.70251    336.49346    293.04014   -31.698758    32.244708    43.453322    40.119838 
66736000    273.63116    322.31193    297.41061    -30.90349    31.421587    24.901312    40.119343 
66740000    274.52274    338.42836    269.65775   -33.111058    32.436277    68.770611    40.119559 
66744000    276.91529    322.41528    269.91207   -32.288816    32.243674    52.503209    40.117923 
66748000    270.79836    320.55851     272.3852   -31.172178    33.002636    48.173311    40.117198 
66752000    264.12436    320.71731    267.85683     -30.5254    33.010126    52.860479    40.116597 
66756000    278.61175    327.45236    289.64281   -31.032991    31.589644     37.80955    40.117399 
66760000    273.58834     310.6309    277.64812   -30.112169    32.839163     32.98278     40.11737 
66764000    275.02136    334.12778    291.16026   -31.030531    32.644793    42.967516    40.117143 
66768000    265.12008    306.86043    272.11645   -29.348321    33.160497    34.743975    40.118865 
66772000    269.44055     302.3557    301.41231    -30.28215    32.014037   0.94339455    40.118391 
66776000    271.95972    324.46033    287.94293   -31.530009    31.881327    36.517408    40.118562 
66780000    280.65861     325.2212     290.4949   -31.375749    31.376971      34.7263    40.118504 
66784000    275.04995    336.75833    290.86113   -32.008006    32.380048    45.897205     40.11897 
66788000    271.61207    316.76991    267.48435   -31.075944    33.767426    49.285557    40.119228 
66792000    270.38241    302.05769    289.44225   -30.997979    31.584818    12.615444    40.118389 
66796000     268.6985    316.99468    279.39232   -32.271926    32.342007     37.60236    40.118438 
66800000    283.11172    320.80377    310.13453   -32.888937    31.005054    10.669242    40.118707 
66804000    265.66164    298.12786    274.08459   -31.625146    32.822764    24.043273    40.116895 
66808000    272.34377    319.02962     281.8375   -32.721951    32.223846    37.192121    40.116076 
66812000    266.40105    313.00483    261.84837   -31.741345    34.357364    51.156457    40.116463 
66816000    269.26198    300.67782    284.16098   -32.218642    33.395629    16.516838    40.116257 
66820000    267.33004    322.84823    279.17476   -32.771991    32.223094    43.673471    40.116462 
66824000    278.96311    324.33231    290.20384   -32.801028     31.58313     34.12847    40.115795 
66828000    266.53653    315.90825    282.16987   -32.738713    31.648202    33.738384    40.115894 
66832000    276.75429    334.79687    281.93553    -33.09862    33.650349    52.861342    40.115006 
66836000    269.79823    312.50854     262.6343   -31.185771    33.755726    49.874243    40.115537 
66840000    286.59642    361.75914     281.7305   -33.961211    33.040605    80.028641    40.116094 
66844000    271.48254    327.03645    282.00183   -32.445108    32.656276    45.034618     40.11506 
66848000    273.05248    315.68406    282.82881   -31.756849     33.84222    32.855256    40.115464 
66852000    275.18901    326.92883    284.23761   -33.380828    32.067203    42.691214    40.115914 
66856000    273.84418    318.85381    302.23697    -32.97453    31.798162    16.616841    40.115985 
66860000    262.36071    300.50905    273.23206   -31.755181    33.325306    27.276996    40.116349 
66864000    276.64431    312.89691    286.01271   -31.732846    32.425282    26.884197     40.11696 
66868000    273.09007    319.72713    286.54788   -32.451723    31.695116    33.179241    40.116259 
66872000    274.38384    340.58239    275.79282   -33.983992    31.535018    64.789562    40.116947 
66876000    269.53743    301.80086    265.82497   -30.512078     33.37457    35.975888    40.116986 
66880000    281.40349    346.72868    289.50918   -33.422484      32.5235    57.219499    40.116937 
66884000    273.32589    315.59603    288.00574    -31.35658    32.302346    27.590294    40.115302 
66888000    273.91592    316.54088     295.1373   -31.525629    32.036428    21.403581    40.115329 
66892000    273.59034    334.65561    282.94401   -31.446039    33.236446    51.711604    40.115583 
66896000     264.7716    304.61609    285.77086   -30.307014    31.664777    18.845233    40.115657 
66900000    264.95013    325.70676    264.65011   -31.483913    33.573774    61.056652    40.116154 
66904000    268.81918     325.2666    279.55862   -30.411361     32.87248    45.707986    40.116572 
66908000    275.66623    309.28065    281.40231    -31.17587    32.845705    27.878337    40.115986 
66912000     269.2079    328.04918    277.35604   -31.202498    32.447658    50.693141    40.115316 
66916000    264.22504    302.16035    286.30309   -30.036569    31.596717    15.857255    40.113643 
66920000    277.25554    318.32808    286.93382   -29.676251    30.842189     31.39426    40.112461 
66924000    268.20756    306.40593    287.16056   -30.521662    31.224561    19.245375     40.11286 
66928000    268.43664    330.69824    292.12957   -31.205249    31.069105    38.568671    40.111846 
66932000    272.07312    326.14833    271.91476   -31.410504    32.404757    54.233573      40.1105 
66936000    269.67024    301.43221    303.56771   -30.817799    31.047727   -2.1354999    40.110089 
66940000    275.61533    322.19575    274.77905     -31.9761    32.448797    47.416695    40.110372 
66944000    265.99928    313.41071    266.28725    -31.32586    33.416276    47.123459    40.112049 
66948000    269.69679    308.60761    260.73086   -31.566738    34.217843    47.876754    40.111756 
66952000    260.06023    291.01239    282.65634   -30.983745    32.440308    8.3560446    40.110411 
66956000    266.66515     315.9171    270.82377   -31.404953     32.60453    45.093323    40.109921 
66960000     271.9068    312.29322    294.93651   -32.605203    31.039272    17.356707    40.109868 
66964000    269.15201    320.76368    270.86852   -31.852976    32.722839    49.895155    40.110814 
66968000    268.24801    321.43013    265.71591   -32.317514    34.753591    55.714224    40.110636 
66972000    273.09505    323.09346     274.7632   -31.588257    33.260891    48.330263    40.111079 
66976000    266.22234    328.91476    272.04283   -33.781199    32.300412     56.87193    40.112332 
66980000    275.06534    319.62416    291.45213   -31.924369    32.734216    28.172036    40.113584 
66984000    273.39912     331.7593    293.69593   -32.564405    32.058837    38.063376    40.113233 
66988000    263.60477     324.8536    254.94453   -32.650552    34.421968    69.909072    40.113723 
66992000    267.26785    314.69754    262.98719   -30.956898    32.977347    51.710349    40.113347 
66996000    272.72114     322.1805     265.9183   -31.906784    31.933078    56.262204    40.113747 
67000000    269.78146    326.67369    276.84518    -32.47339    31.611468    49.828508    40.113362 
67004000    276.79198    325.82188    297.96844   -33.024986    31.459001    27.853439    40.112838 
67008000    277.48716    321.28704    293.93632   -31.448819    32.036141    27.350716     40.11217 
67012000    268.07935    322.98835    281.93223   -32.426064    32.829313    41.056118    40.112594 
67016000    273.24423    326.81431    288.48702    -31.39878    32.600957    38.327288    40.113947 
67020000    273.01487    321.39266    293.80312   -31.042031    32.643556    27.589532    40.115249 
67024000     272.9787    321.27979    284.05723   -31.193337    33.459028    37.222566    40.114962 
67028000    270.26431    323.92049     275.8486   -31.186675    32.953587    48.071885    40.115013 
67032000    276.70108    341.97175    294.45018   -32.012814    32.568569    47.521577    40.114775 
67036000    262.33607    299.89663    269.42656   -30.197469    33.410896    30.470067    40.115672 
67040000    275.24371     304.1759    296.97635   -31.424427    31.779813     7.199546    40.115296 
67044000    278.16783    322.64048    286.53369   -32.344198    33.125899    36.106793    40.114681 
67048000    270.47224    307.88491    289.86165   -33.224175     31.82362    18.023258     40.11541 
67052000    274.32064    311.22107    286.50913   -33.227316    32.611718    24.711944    40.114605 
67056000    276.55086    339.59666    282.51677   -33.924474    31.874548    57.079895    40.114868 
67060000    271.46864    312.46121    274.68291   -33.782456    32.610653    37.778301    40.114838 
67064000    271.64643    331.41301    265.92428   -33.735681    33.357109     65.48873    40.116048 
67068000    274.84965    330.06939    275.94871   -33.327109     31.42837    54.120679    40.115738 
67072000    280.00698    346.00885    277.16834   -34.011919    32.517007    68.840509     40.11625 
67076000    272.66482    315.18708    264.80482   -33.549534    32.678765    50.382264    40.116877 
67080000    284.19247    340.74443    283.37019   -33.874396    31.730997    57.374245    40.117233 
67084000    266.91463    329.98993    259.34676   -32.608946    31.410035    70.643163    40.117938 
67088000    270.05149     299.2987    308.31873   -31.676537     30.22487   -9.0200301    40.117008 
67092000    275.82249    313.89807    279.78995   -34.282531    31.430654    34.108123    40.117386 
67096000    281.67469    339.29744    276.54233   -35.222138    31.372862    62.755113    40.117042 
67100000    278.78744    314.12248    291.05676   -33.688502    30.432034    23.065719    40.117624 
67104000    276.30456    319.88103    295.98221   -33.841916    30.494126    23.898818    40.117602 
67108000    279.19482    329.11669    283.72054   -33.669469    31.112668     45.39615    40.118139 
67112000    267.36925    311.15383    254.94495   -32.441446    32.052172    56.208882    40.118884 
67116000    280.74718    328.12238    296.73097   -33.207557    30.754315     31.39141    40.118978 
67120000    281.07153    330.27426    276.51794   -33.693181    32.745926     53.75632    40.119911 
67124000    271.97974    323.83638    268.65301   -32.957354    32.806874    55.183371    40.120144 
67128000     279.4955      319.998    294.14969   -33.689941    30.202959    25.848307    40.119614 
67132000     281.5484    348.84129    264.47457   -34.558439    32.292685    84.366727    40.119894 
67136000     277.6414    307.43623    295.53165   -32.610825    31.489524    11.904586     40.11975 
67140000    287.31926    321.63024    329.62281    -33.36387    30.135016   -7.9925709    40.120257 
67144000    276.70093     318.9556    266.50585   -33.258905    33.175295    52.449756    40.121173 
67148000    279.22575    317.21493    289.21058   -33.152377    31.315319    28.004347    40.122125 
67152000    268.95325    303.47092    272.94923   -32.348734    31.413852    30.521688    40.122061 
67156000    267.83486    318.18774    265.12209   -33.410723    32.265351    53.065652    40.121436 
67160000    276.11719    324.80871    300.53145   -32.938286    31.494135    24.277264    40.122302 
67164000    274.21698    308.75174    281.92212   -31.907802    32.420432    26.829614    40.121826 
67168000    270.50345    309.71402     264.6325   -33.676426     33.48825     45.08152    40.122108 
67172000    280.39269    335.25735    285.61179   -34.882539    32.076016     49.64556    40.121075 
67176000    278.50588     316.8166    283.39015   -34.524564    31.791868    33.426451    40.121758 
67180000    278.01112    337.31256    289.09013   -34.476089    31.744474    48.222433    40.121653 
67184000    267.63064    297.29326     275.0477   -32.559671    32.879408    22.245562    40.121464 
67188000    279.89677    329.28085    283.52897   -34.179998    33.210029    45.751876    40.123022 
67192000    285.23057    330.52133    295.32438    -34.59472    31.648088    35.196945    40.123517 
67196000    283.07366    329.77329    315.37428   -35.011171    31.681816    14.399011    40.122247 
67200000    273.68386    308.37032    300.32647   -34.319876    32.310571    8.0438478     40.12111 
67201000    276.50984    301.54892    293.05199   -33.507829    33.019215    8.4969332     40.12111 
Loop time of 22675 on 4 procs for 16000000 steps with 1498 atoms

Performance: 15.241 ns/day, 1.575 hours/ns, 705.624 timesteps/s
99.5% CPU use with 4 MPI tasks x no OpenMP threads

MPI task timing breakdown:
Section |  min time  |  avg time  |  max time  |%varavg| %total
---------------------------------------------------------------
Pair    | 11342      | 15633      | 20118      |3365.9 | 68.94
Bond    | 70.613     | 109.32     | 145.95     | 349.1 |  0.48
Neigh   | 125.86     | 125.88     | 125.91     |   0.2 |  0.56
Comm    | 285.14     | 4412.1     | 8719.1     |6203.6 | 19.46
Output  | 8.2983     | 8.3459     | 8.488      |   2.8 |  0.04
Modify  | 1204.3     | 1853.9     | 2536.7     |1102.8 |  8.18
Other   |            | 532.2      |            |       |  2.35

Nlocal:    374.5 ave 714 max 35 min
Histogram: 2 0 0 0 0 0 0 0 0 2
Nghost:    2374.25 ave 4253 max 496 min
Histogram: 2 0 0 0 0 0 0 0 0 2
Neighs:    13095.2 ave 25971 max 313 min
Histogram: 2 0 0 0 0 0 0 0 0 2

Total # of neighbors = 52381
Ave neighs/atom = 34.9673
Ave special neighs/atom = 0.518024
Neighbor list builds = 28696
Dangerous builds = 0

write_restart FINALCONFIG
WARNING: Using a manybody potential with bonds/angles/dihedrals and special_bond exclusions (../pair.cpp:218)
Neighbor list info ...
  update every 1 steps, delay 0 steps, check yes
  max neighbors/atom: 2000, page size: 100000
  master list distance cutoff = 16
  ghost atom cutoff = 16
  binsize = 8, bins = 3 3 23
  4 neighbor lists, perpetual/occasional/extra = 4 0 0
  (1) pair lj/cut, perpetual, skip from (4)
      attributes: half, newton on
      pair build: skip
      stencil: none
      bin: none
  (2) pair morse, perpetual, skip from (4)
      attributes: half, newton on
      pair build: skip
      stencil: none
      bin: none
  (3) pair eam, perpetual, skip from (4)
      attributes: half, newton on
      pair build: skip
      stencil: none
      bin: none
  (4) neighbor class addition, perpetual
      attributes: half, newton on
      pair build: half/bin/newton
      stencil: half/bin/3d/newton
      bin: standard

#and everyone lived happily ever after, THE END
Total wall time: 6:36:20
