LAMMPS (16 Mar 2018)
#lammps script for united atom polymer simulation (full-scale run)

# 1. INITIALIZATION
#allows pair, bond, bending and dihedral interactions
atom_style molecular

  # periodic (video game) boundaries in all cartesian directions
boundary p p s

  # uses real units (instead of units based on pair potential parameters).  List of units used in manual
units metal

###########
# 2. ATOM DEFINITION
##########

   ##
   # Read in data from starting configuration file
   ##

#read_data lammps-AT-config

 #use to restart
read_restart RESTART
  orthogonal box = (0 0 -29.1214) to (20 20 152.979)
  1 by 1 by 4 MPI processor grid
  1498 atoms
  197 bonds
  96 angles
  95 dihedrals
  2 = max # of 1-2 neighbors
  2 = max # of 1-3 neighbors
  4 = max # of 1-4 neighbors
  6 = max # of special neighbors

   ##
   # Specify the nature of the bond interactions
   ##

bond_style harmonic
bond_coeff 1 19.51 1.54
bond_coeff 2 22.45 1.82
bond_coeff 3 10000.0 2.0
special_bonds lj 0.0 0.0 0.0 angle no dihedral no

angle_style harmonic
angle_coeff 1 2.683 114.00
angle_coeff 2 2.683 114.40

dihedral_style opls
dihedral_coeff * 0.06071 -0.011743 0.1363628 0.0

mass  1   14.00
mass  2   32.06
mass  3  196.97
mass  4  196.97


pair_style hybrid lj/cut 14.0 morse 14.0 eam
pair_coeff 1 1 lj/cut 0.00395 3.95 14.0
pair_coeff 2 2 lj/cut 0.01594 3.62 14.0
pair_coeff 3 3 eam Au_u3.eam
Reading potential file Au_u3.eam with DATE: 2007-06-11
pair_coeff 4 4 eam Au_u3.eam
pair_coeff 1 2 lj/cut 0.0000 3.785 14.0
pair_coeff 1 3 lj/cut 0.00258 3.44 14.0
pair_coeff 1 4 lj/cut 0.00 3.44 14.0
pair_coeff 2 3 morse 0.879 1.47 2.7 14.0
pair_coeff 2 4 morse 0.000 1.47 2.7 14.0
pair_coeff 3 4 lj/cut 0.00 2.934 14.0


group freeze type 4
100 atoms in group freeze
fix startend freeze setforce 0.0 0.0 0.0



################
# 3.  Simulation Settings
###############

neighbor        2.0 bin
neigh_modify    every 1 delay 0 check yes



# Define some variables
variable Lx          equal xhi-xlo   # Ang
variable Ly          equal yhi-ylo   # Ang
variable Lz          equal zhi-zlo   # Ang

variable dz          equal ${Lz}/30  # Ang
variable dz          equal 182.100820164033/30  

variable zzlo        equal zlo  # Ang
variable zzhi        equal zhi  # Ang
variable vol         equal ${Lx}*${Ly}*${Lz}  # Ang^3
variable vol         equal 20*${Ly}*${Lz}  
variable vol         equal 20*20*${Lz}  
variable vol         equal 20*20*182.100820164033  
variable TEMP        equal 300.00 # K
variable TThi        equal 320.00 # K
variable TTlo        equal 280.00 # K
variable dt          equal 0.00025 # ps

timestep     ${dt}
timestep     0.00025

variable zlo1      equal -26.0
variable zlo2      equal -11.0
variable zhi1      equal 135.0
variable zhi2      equal 150.0

# heat layers

region          hot  block  INF INF INF INF ${zlo1} ${zlo2}
region          hot  block  INF INF INF INF -26 ${zlo2}
region          hot  block  INF INF INF INF -26 -11
region          cold block INF INF INF INF ${zhi1} ${zhi2}
region          cold block INF INF INF INF 135 ${zhi2}
region          cold block INF INF INF INF 135 150
compute         Thot all temp/region hot
compute         Tcold all temp/region cold


# Second Equilibration
fix             1 all nve
fix             hot all langevin ${TThi} ${TThi}  0.005 59804  tally yes
fix             hot all langevin 320 ${TThi}  0.005 59804  tally yes
fix             hot all langevin 320 320  0.005 59804  tally yes
fix             cold all langevin ${TTlo} ${TTlo} 0.005 287859 tally yes
fix             cold all langevin 280 ${TTlo} 0.005 287859 tally yes
fix             cold all langevin 280 280 0.005 287859 tally yes
fix_modify      hot temp Thot
fix_modify      cold temp Tcold

variable        tdiff equal c_Thot-c_Tcold
thermo_style    custom step c_Thot c_Tcold f_hot f_cold v_tdiff
thermo            4000
run             800000
WARNING: Using a manybody potential with bonds/angles/dihedrals and special_bond exclusions (../pair.cpp:218)
Unused restart file peratom fix info:
  fix style: STORE, fix ID: layers_COMPUTE_STORE
Neighbor list info ...
  update every 1 steps, delay 0 steps, check yes
  max neighbors/atom: 2000, page size: 100000
  master list distance cutoff = 16
  ghost atom cutoff = 16
  binsize = 8, bins = 3 3 23
  4 neighbor lists, perpetual/occasional/extra = 4 0 0
  (1) pair lj/cut, perpetual, skip from (4)
      attributes: half, newton on
      pair build: skip
      stencil: none
      bin: none
  (2) pair morse, perpetual, skip from (4)
      attributes: half, newton on
      pair build: skip
      stencil: none
      bin: none
  (3) pair eam, perpetual, skip from (4)
      attributes: half, newton on
      pair build: skip
      stencil: none
      bin: none
  (4) neighbor class addition, perpetual
      attributes: half, newton on
      pair build: half/bin/newton
      stencil: half/bin/3d/newton
      bin: standard
Per MPI rank memory allocation (min/avg/max) = 10.93 | 11.62 | 12.32 Mbytes
Step c_Thot c_Tcold f_hot f_cold v_tdiff 
134401000    319.07772    282.72778           -0           -0    36.349942 
134404000    338.62272    263.23554  0.071052164     1.037857    75.387182 
134408000     334.7589    265.67826   0.42575127    1.2108192    69.080636 
134412000    321.46688    284.86496  0.038990281 -0.025573719    36.601919 
134416000    313.62846    286.62224    1.0430669  -0.69758213    27.006213 
134420000     305.9558    299.50575    1.4434264   -1.1447741    6.4500474 
134424000    321.14325    272.52932   0.43474666   0.60019203    48.613924 
134428000    335.85914     281.5902  -0.72615525  0.076191866    54.268941 
134432000    332.50946    290.45663   -1.0834837  -0.69118023    42.052837 
134436000    344.50433    274.04891   -2.4710328    1.1430483    70.455413 
134440000    323.70495    266.67498  -0.21281471   0.67194902    57.029966 
134444000    331.45209    282.39489   -1.3210119  -0.31421753    49.057198 
134448000    336.40281    280.31892   -1.8413241   0.47610359    56.083888 
134452000    326.25515     268.8704  -0.45477266   0.40152353    57.384746 
134456000    306.37318    272.25561  -0.61226253     1.090498    34.117573 
134460000    325.69222    284.99437  -0.78093075  -0.30674169    40.697849 
134464000    319.92527    284.89389  -0.87473218   0.11469966    35.031378 
134468000     319.2826    299.44841   -1.3079958  -0.81098613    19.834186 
134472000    333.53632     289.5069   -1.2001147   0.63471416     44.02942 
134476000    337.36643    281.29916  -0.63747406   0.90049881    56.067274 
134480000    307.27466    288.86639   0.51307335   0.50537801    18.408267 
134484000    324.21112    282.56592  -0.69165146   0.93979399    41.645201 
134488000    339.83843    292.21883   -1.0481108 -0.087115368    47.619596 
134492000    302.56536    286.54589     1.907259   0.28197749    16.019471 
134496000    324.24971     270.9536  -0.37551113    1.9496431    53.296111 
134500000    325.03235    294.45943  -0.14393009    1.5252791    30.572923 
134504000    313.18333    280.29167  -0.61628721    1.3022541    32.891659 
134508000    327.05498     280.7586   0.58748679    1.3384379    46.296386 
134512000    335.36779    256.77345  -0.43807546    1.2270941    78.594335 
134516000    333.10735    296.86825  -0.81088181   0.15942482    36.239101 
134520000    317.31538    285.97856   0.18744942 -0.077933265    31.336812 
134524000    306.78165    265.56663   0.48962057   0.61277714    41.215023 
134528000     296.7876    284.29413   0.98337211   0.19866929    12.493467 
134532000    335.76473    269.62723   -0.9106749    1.7039941    66.137501 
134536000    310.21984    302.72333   -1.5663712   -0.4014888    7.4965156 
134540000    319.05077    298.68547   -1.1563902  -0.46234535    20.365295 
134544000    332.96941    293.93704   -2.1887568  -0.28208099    39.032372 
134548000    330.44895    274.46171   -1.7282658   0.30521485    55.987246 
134552000    324.42121    262.11084   -1.5603023     2.462172    62.310374 
134556000    324.30633    276.82925   -1.5729358    1.4259462    47.477086 
134560000    307.89528    284.06051   0.30343122   0.95722313    23.834769 
134564000    339.86818    289.80307   -1.6077156  -0.19116949    50.065106 
134568000    322.55148    300.46664   -1.3491457  -0.22548566    22.084837 
134572000     319.2555     256.5686   -1.6696883    1.6222347    62.686898 
134576000     290.8228     261.7768  -0.19938128    1.7773553    29.045997 
134580000     303.2809    290.73532   -2.1472141    1.4198808    12.545582 
134584000    334.30914    274.14353    -1.396522    1.4400319    60.165612 
134588000    313.44865    301.03887  -0.58169233  -0.18332566    12.409781 
134592000    337.89081    281.37422   -2.5935086    2.3242798    56.516585 
134596000    336.51421    281.40698   -3.3155596    1.7401033    55.107229 
134600000    310.58776    297.28231    -2.246406   0.26630481    13.305452 
134604000    306.20136    282.74764   -1.5495335   0.47319428    23.453719 
134608000    324.45314    280.89494   -1.4251896    1.5914386    43.558195 
134612000    315.88648    263.02971  -0.79152891    2.6440959    52.856767 
134616000     328.3284    274.21679  -0.70509615    1.5941627    54.111613 
134620000    315.04834    290.14269   0.19711653 -0.031597688    24.905645 
134624000    313.27639    275.16633  -0.86674694    1.2923558    38.110059 
134628000    322.84637    265.38684  -0.64055563    2.2314243    57.459527 
134632000    365.38843    258.91286   -2.9481072    1.0064247    106.47557 
134636000    301.30373    283.53879   0.33548111   0.87806575    17.764943 
134640000    308.58013     286.0176   0.69217033   0.55899549    22.562528 
134644000    306.11742     263.7045   0.69739743    1.3236754    42.412917 
134648000    318.99716    286.23378   0.24068082   0.95815902    32.763385 
134652000     305.5122    296.28291   0.37986723    1.0180409    9.2292873 
134656000    324.21907    285.44574   0.14266555    1.4565324    38.773333 
134660000     317.9631    275.37802   -1.0721631    1.9498712    42.585081 
134664000    324.94694    272.14073  -0.97993698    1.4601736    52.806212 
134668000    321.00595    296.11561   -1.4766363 -0.023756237    24.890347 
134672000    323.35913    263.63224   -1.2637841    2.2659949    59.726892 
134676000    314.84815    276.01941   -1.2282537    -0.123721    38.828741 
134680000    332.44204    285.46644    -3.465612  -0.15018118    46.975594 
134684000    311.71386    305.75531   -1.8419179  -0.71106432     5.958544 
134688000    318.28154    291.09406    -1.880601   0.35694972    27.187474 
134692000    327.59746    278.84012   -1.4480695   0.62056035    48.757344 
134696000    336.77707    259.48334   -2.0373797    1.3805614    77.293739 
134700000    329.28584    294.57834   -1.7533095  -0.37367779    34.707505 
134704000    299.09765    278.10461   0.28599165     2.037778    20.993046 
134708000    319.72187     270.4989  -0.11514543     1.986012    49.222968 
134712000    318.83597    295.24819  -0.89274196   0.30308206    23.587774 
134716000     331.0677    283.71795  -0.44082183    1.4285225    47.349747 
134720000    303.49322    267.56301   -1.0522783    1.2382663    35.930202 
134724000    299.90151      260.558  -0.97455156    3.0385719    39.343507 
134728000    295.15659    278.36281   0.29140099    2.7296233     16.79378 
134732000    328.34332    279.56724   -2.1829105     1.622701    48.776081 
134736000    337.12857    278.07911   -2.5597392   0.99418108    59.049466 
134740000    303.16911    293.53391   -1.2392904    1.3765066    9.6352001 
134744000    330.27323    273.85986   -2.1401504    2.5503587    56.413363 
134748000    322.64057    278.28179   -1.0844587    2.7466593     44.35878 
134752000    301.49851    279.85167  -0.86391584    2.5480335    21.646837 
134756000    307.35749    277.81095  -0.66634596    2.5335425    29.546539 
134760000    327.53783    272.61309   -1.3976941    2.0826642    54.924745 
134764000     341.4872    288.48133   -1.7315595    2.2064193    53.005872 
134768000    318.88718    290.64094   -2.5813046    1.9137584     28.24624 
134772000    307.07177    289.28796   -1.7472772    1.3904868    17.783809 
134776000    310.10639    300.49498   -1.3383162   0.95137856    9.6114144 
134780000    300.68535    262.60751   -1.3483104    2.2519271    38.077842 
134784000     311.9389    272.81056   -1.6612333    2.6757975    39.128342 
134788000    314.33325    295.43434   -2.4601242     1.161523    18.898914 
134792000    312.46824    300.62119   -2.7727688    0.9943495    11.847051 
134796000     327.4047     271.3559   -3.2521548    2.6177488    56.048799 
134800000    300.14409     270.2354   -1.7301422    3.2814445    29.908693 
134804000    334.84892    284.78727   -3.2500313    1.8460352    50.061653 
134808000    330.69031    282.34526    -3.705565    1.6014557    48.345052 
134812000    334.45793    294.42941   -3.1337618    2.0281254    40.028527 
134816000    315.60156    264.47427   -1.8993019    3.7713543     51.12729 
134820000     344.6792    291.91171    -3.976425      1.61626    52.767487 
134824000    314.23424    280.56403   -3.5063832    2.5153708    33.670207 
134828000    307.88124     291.1929   -2.2737978    1.2782862    16.688339 
134832000    305.51405    296.25864   -2.1480019    1.8013774    9.2554091 
134836000    337.10237    290.44394   -2.9628919    2.0091452    46.658435 
134840000     308.4267    271.15006   -1.7087229    1.7310407    37.276646 
134844000    319.83035    271.63413   -4.1711779    2.4376058     48.19622 
134848000    338.25162    262.06586   -4.4019751    4.1710715    76.185766 
134852000    305.36585    239.04329   -1.8096556    4.4155303    66.322556 
134856000    310.85314     294.7916   -1.1240101   0.60807754    16.061537 
134860000    323.16934    305.01713   -2.4505762   0.63214405    18.152211 
134864000     330.1937    283.84359   -2.6565521    1.0614704    46.350108 
134868000    309.23894     276.2537   -3.0598561    1.3859546    32.985234 
134872000    317.62893    301.01521   -3.2425884   0.64289003    16.613712 
134876000    324.02506      295.975   -2.8740845    1.3759426    28.050053 
134880000    305.72983    241.30411   -1.1714256    3.6654604    64.425716 
134884000    337.27001    280.14674   -3.4470926    1.4224556    57.123262 
134888000    318.58985    276.10783   -2.4410371   0.86731888    42.482025 
134892000    318.42352    263.01745   -1.8078276    1.8731512    55.406066 
134896000    327.69162     276.5101   -1.4752146    1.3329538    51.181522 
134900000    326.27688    275.75003   -2.2760416    1.1626276    50.526854 
134904000    306.96213    283.51973  -0.13027414   0.78273434    23.442398 
134908000    314.62427    289.43206   -1.6071709   0.78390408    25.192205 
134912000    318.83289    289.40028    -2.176533   0.12539725    29.432613 
134916000    343.77311    292.24685   -2.1709933  -0.55972688    51.526263 
134920000    317.76257    279.17806   -1.1667476    1.4008017    38.584512 
134924000    318.98684    279.20991   -1.6710685   0.81909531    39.776929 
134928000    334.77735    271.09492   -3.2374032    0.9755218     63.68243 
134932000    314.00393    275.06965   -2.3246283    1.6029115    38.934273 
134936000    296.69838    276.33009   -1.9882221    1.4492973    20.368291 
134940000    314.41812    295.07777   -2.6828394   0.98842242    19.340346 
134944000    315.77471    270.25594   -2.4907555    2.0302718    45.518774 
134948000    329.12596    270.50339   -1.9176472    2.0658609    58.622564 
134952000    298.30243    291.18613    -1.428464   0.89903138    7.1163023 
134956000    331.22961    268.18021    -2.276809    1.7909626    63.049405 
134960000    339.51016    282.63458   -2.9550238   0.35514905     56.87558 
134964000    324.10841    276.71377   -2.0729514     1.468389    47.394647 
134968000    333.58288    287.76493   -1.7307569   0.57458046    45.817957 
134972000    344.84101    276.84028   -3.2919375    1.9054401    68.000733 
134976000    312.31303    275.82146   -2.3553302     1.769626    36.491573 
134980000    308.29058    300.14239   -1.5825903 -0.010150326    8.1481896 
134984000     319.5585    287.28798   -1.6322174   0.98163513    32.270522 
134988000    329.45921    288.21583   -2.8356226     1.316224    41.243378 
134992000    307.17221    303.18261   -1.5708764   0.55606665    3.9896067 
134996000    328.28862    289.44763   -1.5243448     1.302611    38.840996 
135000000    332.09448    282.89714   -2.4264936    1.4069498    49.197348 
135004000    317.48009    280.87892   -1.4175593    1.6932999     36.60117 
135008000    333.60656    259.46318   -3.8340261    1.5739694    74.143385 
135012000    298.00539    276.84858    -2.575806      1.84945    21.156803 
135016000    318.57153    292.41925   -3.5357296 -0.040087484    26.152274 
135020000     310.4348    280.90634   -3.2877469     2.401081    29.528463 
135024000    320.41325    279.92967   -2.9773478    1.9109011    40.483589 
135028000    326.66661     291.6152     -3.79358   0.81557237    35.051415 
135032000      337.383    288.93038   -3.5028129   0.68603465    48.452625 
135036000    341.29909    281.41484   -2.5686231    1.5424021    59.884254 
135040000    321.35198    285.92526   -2.6673026    1.3966162    35.426719 
135044000    309.04953    274.08341   -2.8051484    1.1092107    34.966114 
135048000    310.59641    280.27147   -2.9689826   0.55784519    30.324932 
135052000    329.07419     282.9271   -3.7026264     0.376631    46.147093 
135056000    344.73609    290.47972   -4.2509255   0.65873696     54.25637 
135060000    319.83108    263.66536   -2.8362322    2.1737391    56.165722 
135064000    312.49764    283.59269   -4.0416387    2.1637968    28.904947 
135068000    303.12316    280.77925   -2.0400625    1.9141126     22.34391 
135072000    311.78984    263.95623   -2.7975372     1.949865    47.833608 
135076000    323.61549     271.6603   -3.4500855    2.2970398    51.955189 
135080000     330.8419    291.24988   -2.9738818   0.27878556    39.592012 
135084000      304.842    278.99945   -2.3869962    1.2754615     25.84255 
135088000    348.56497    288.48697    -3.173012  -0.16803599    60.077998 
135092000    334.98121    291.55727    -3.150154  -0.18006631    43.423946 
135096000    347.69622    294.31648    -3.742066   0.15479599     53.37974 
135100000     307.4672    281.14943   -3.1515001    1.4394033    26.317767 
135104000    326.74135    285.30195   -2.5521753    2.0912491    41.439397 
135108000    310.17703     291.4206   -2.4311254  -0.13198829    18.756427 
135112000    326.87279       271.85   -1.3253445    1.2924335    55.022788 
135116000    319.30375    266.99955   -1.6626835    1.5223418    52.304201 
135120000    310.08713    280.08939    -1.628434    1.0499006    29.997745 
135124000     342.8979    282.27768    -3.572185   0.43449063    60.620225 
135128000    323.90117    271.85526   -2.2169008     2.143714     52.04591 
135132000    308.08028    274.19193   -1.7547784    1.5110664     33.88835 
135136000    304.80704    271.10657   -1.4953657    2.2404887     33.70047 
135140000    306.30346    272.92427  -0.25211995    2.7830531    33.379186 
135144000    338.32333    267.99558   -1.9026567     2.713951    70.327747 
135148000    328.15951    279.86587   -1.8444939    2.1482936    48.293638 
135152000    328.95122    283.03031   -2.1835501   0.61449925    45.920913 
135156000    328.03308    284.84004   -2.7264259    2.2473952    43.193039 
135160000    324.94442     277.3032   -2.5339393    2.0336642    47.641217 
135164000    332.94374    271.64245   -2.6338798     3.711939    61.301284 
135168000    335.36487     274.1694   -2.9568766    2.6932324    61.195467 
135172000     320.7753     285.3654   -2.2859164    2.0872901    35.409897 
135176000    320.91905    280.22219   -2.0113837    1.5383671    40.696859 
135180000    317.63283    297.50949   -2.1862326   0.86279684    20.123335 
135184000    320.68032    274.91838   -1.5593496    3.2569438    45.761936 
135188000    329.09908    259.99921   -2.3404498     3.317398    69.099869 
135192000    304.54965    286.09045  -0.99793023    1.9908833    18.459192 
135196000    314.88429    271.69024   -1.5525857     3.646736     43.19405 
135200000    304.09482    256.89415   -1.4232691    4.9999168    47.200666 
135201000    332.65601    286.13671   -2.2732231    3.8509792    46.519292 
Loop time of 1060.09 on 4 procs for 800000 steps with 1498 atoms

Performance: 16.300 ns/day, 1.472 hours/ns, 754.652 timesteps/s
99.7% CPU use with 4 MPI tasks x no OpenMP threads

MPI task timing breakdown:
Section |  min time  |  avg time  |  max time  |%varavg| %total
---------------------------------------------------------------
Pair    | 529.78     | 733.61     | 940.88     | 739.3 | 69.20
Bond    | 3.2593     | 5.1104     | 6.8578     |  77.3 |  0.48
Neigh   | 5.7286     | 5.7319     | 5.7333     |   0.1 |  0.54
Comm    | 13.685     | 210.72     | 409.71     |1351.3 | 19.88
Output  | 0.005352   | 0.013412   | 0.017261   |   4.1 |  0.00
Modify  | 56.04      | 80.102     | 105.62     | 212.4 |  7.56
Other   |            | 24.81      |            |       |  2.34

Nlocal:    374.5 ave 714 max 35 min
Histogram: 2 0 0 0 0 0 0 0 0 2
Nghost:    2372.75 ave 4252 max 496 min
Histogram: 2 0 0 0 0 0 0 0 0 2
Neighs:    13076.8 ave 25844 max 315 min
Histogram: 2 0 0 0 0 0 0 0 0 2

Total # of neighbors = 52307
Ave neighs/atom = 34.9179
Ave special neighs/atom = 0.518024
Neighbor list builds = 1398
Dangerous builds = 0
unfix 1


# PRODUCTION

fix             1 all nve
fix             hot all langevin ${TThi} ${TThi}  0.005 59804  tally yes
fix             hot all langevin 320 ${TThi}  0.005 59804  tally yes
fix             hot all langevin 320 320  0.005 59804  tally yes
fix             cold all langevin ${TTlo} ${TTlo} 0.005 287859 tally yes
fix             cold all langevin 280 ${TTlo} 0.005 287859 tally yes
fix             cold all langevin 280 280 0.005 287859 tally yes
fix_modify      hot temp Thot
fix_modify      cold temp Tcold

variable        tdiff equal c_Thot-c_Tcold
thermo          4000

dump gigo all atom 4000 dump.cords_xyz.dat
dump_modify gigo scale no
dump vfgigo all custom 4000 dump.velo.dat id vx vy vz fx fy fz

# thermal conductivity calculation
# # reset langevin thermostats to zero energy accumulation
#
compute         ke all ke/atom
variable        temp atom c_ke/1.5/0.00008617333262

fix             ave all ave/time 100 40 4000 v_tdiff ave running
thermo_style    custom step temp c_Thot c_Tcold f_hot f_cold v_tdiff f_ave

#compute         layers all chunk/atom bin/1d z lower 0.05 units reduced
compute         layers all chunk/atom bin/1d z lower ${dz} units box
compute         layers all chunk/atom bin/1d z lower 6.0700273388011 units box
fix             2 all ave/chunk  100 40 4000 layers v_temp file profile.langevin

run             16000000
WARNING: Using a manybody potential with bonds/angles/dihedrals and special_bond exclusions (../pair.cpp:218)
Neighbor list info ...
  update every 1 steps, delay 0 steps, check yes
  max neighbors/atom: 2000, page size: 100000
  master list distance cutoff = 16
  ghost atom cutoff = 16
  binsize = 8, bins = 3 3 23
  4 neighbor lists, perpetual/occasional/extra = 4 0 0
  (1) pair lj/cut, perpetual, skip from (4)
      attributes: half, newton on
      pair build: skip
      stencil: none
      bin: none
  (2) pair morse, perpetual, skip from (4)
      attributes: half, newton on
      pair build: skip
      stencil: none
      bin: none
  (3) pair eam, perpetual, skip from (4)
      attributes: half, newton on
      pair build: skip
      stencil: none
      bin: none
  (4) neighbor class addition, perpetual
      attributes: half, newton on
      pair build: half/bin/newton
      stencil: half/bin/3d/newton
      bin: standard
Per MPI rank memory allocation (min/avg/max) = 12.22 | 12.33 | 12.44 Mbytes
Step Temp c_Thot c_Tcold f_hot f_cold v_tdiff f_ave 
135201000    271.69223    332.65601    286.13671           -0           -0    46.519292            0 
135204000    270.48005    340.50549    259.58529  -0.77323484    0.7034655      80.9202            0 
135208000    270.90899    329.78064    268.62064  -0.16010765  -0.71118197    61.159995    38.372948 
135212000    273.56783    320.67642    282.88848  -0.34976157   -2.3568373    37.787935     38.61007 
135216000    273.29179    311.96575    288.08962   0.24786067   -1.2266112    23.876125    38.823997 
135220000    273.84534    308.99278    299.15457    0.6901091   -1.7189392    9.8382079    39.000846 
135224000     271.3824    327.14067    270.65811  -0.68609196   -1.2829322    56.482562    40.193831 
135228000    283.90966    330.98354    303.43949  -0.50304332   -3.7609536    27.544047    39.741528 
135232000    274.60989    328.23469    279.66115  -0.92627794   -1.5238056     48.57354    39.744258 
135236000    282.66322    346.02792    261.94267   -2.2890942  -0.26221881    84.085246    40.101582 
135240000    272.14287    333.30767    266.94629   -1.4324771  -0.87555814    66.361382    39.994357 
135244000    280.16443    338.48707    285.40668   -1.2825478   -1.8477624    53.080389     39.75711 
135248000    275.40667    326.79667    290.05742   -1.4192316    -2.831616     36.73925    40.082424 
135252000     282.0464    338.70101    273.02282   -2.3596537  -0.96683878    65.678188    40.214549 
135256000    277.10645    328.76204    276.98966   -1.3917222  -0.98311382    51.772386    39.992116 
135260000    275.14473    320.58457    280.17908   -1.9205574   -1.8224371    40.405488    40.060332 
135264000    271.63147     308.3209    284.65681  -0.80550461   -1.6897112    23.664084    39.876645 
135268000    270.73239    317.68498    290.73843   -1.2892353   -1.2991904    26.946553    39.959529 
135272000    275.37454    321.00064    288.96251   -1.0408964  -0.45534597     32.03813    40.227432 
135276000    269.51352    322.87223    272.64916  -0.45805547  -0.50767911    50.223077    40.155667 
135280000    272.18828    313.14677    282.24831  -0.49108039   -1.5568094    30.898462    40.369108 
135284000    276.17614     307.6869    301.23674   0.14806185   -2.9338785    6.4501598    40.198982 
135288000    262.90235    326.73076    259.30742 -0.012826559  -0.68603552    67.423334    40.348673 
135292000    267.85724    305.62786    286.99375 -0.031268576   -1.4257364    18.634111    40.206245 
135296000    260.80729    292.18385    265.96607   0.70574009   -1.1642391    26.217774    40.281219 
135300000    266.63692    305.87002    279.42374    1.1187447  -0.66650548    26.446274    40.134728 
135304000    270.23689    327.71852    270.57058  -0.80687105  -0.87186786    57.147941    40.099742 
135308000    273.66513    321.68773    284.22969   0.12249472   -1.6530796    37.458038    40.094932 
135312000    270.09529    317.77825    263.50149   0.51730055  -0.55082063    54.276761    39.966315 
135316000    278.85331    325.88444    298.78658   -1.5531653   -1.9592426    27.097858    39.906909 
135320000    267.90486    299.10997    272.80914    1.4889391   -1.3199018    26.300831    39.938206 
135324000     258.5755    282.86514    272.68645    1.3508883   -1.6659635     10.17869    39.840864 
135328000    265.13109    300.00756    286.21949   0.60197879   -1.9716326    13.788078    39.622018 
135332000    269.28708      320.317     273.5197   0.12769405   -1.4188521    46.797303    39.687893 
135336000    269.69027    290.06363    292.74681    1.1035375   -2.9297214   -2.6831807    39.592823 
135340000    283.45273     339.4307     296.3957  -0.89958517   -2.7494605       43.035    39.533402 
135344000    271.20301    311.70801     268.8587  -0.69061278   -1.7587617     42.84931     39.57985 
135348000    279.77716    328.71667    281.24987   -1.1265736   -2.0001164    47.466808    39.534448 
135352000    270.02883    329.38592    255.71656   -1.0608073   -1.4772594    73.669361    39.553895 
135356000     276.5924    332.11058    262.52642   -1.7182119  -0.79914394    69.584162    39.716435 
135360000    275.46722    314.72882    284.44908   0.55693406   -1.3904713    30.279743    39.858565 
135364000    284.17573    324.47422    299.39782  -0.42853289   -2.8218564    25.076401    39.896115 
135368000    276.91026    304.17741    284.85733   0.17315226   -2.2046298    19.320075    39.827381 
135372000    262.64831    320.81803     247.5724  -0.84291331   -1.1388368     73.24563    39.913242 
135376000    278.40894    328.74731    278.55209  -0.71937635   -1.6844476    50.195224    39.935833 
135380000     273.4069     327.1478    259.00214 -0.015985028  -0.61067088    68.145661    39.965758 
135384000     271.8569    317.23245    285.75181 -0.042982326   -2.4952475    31.480644    39.952431 
135388000    273.64975    310.73257    277.56344    1.1103878  -0.82677636    33.169137    39.973736 
135392000    286.59767    366.20224    277.89509   -1.8881339   -1.0948044    88.307149    39.921636 
135396000    276.79057     353.4105      279.703    -1.585103  -0.55987335      73.7075    39.946665 
135400000    272.60867    302.07534    297.18908    1.3937651   -2.3388338    4.8862525     39.89328 
135404000    264.10404     302.4901    287.95435    2.8811431   -0.5875973    14.535756    39.894637 
135408000    267.58239    314.92268    253.81701   0.76282292    1.1196466    61.105668    39.875386 
135412000    260.91042    304.99495    275.95029    2.3188161  -0.58426223     29.04466    39.970246 
135416000    273.67461    306.29028    289.89773    1.7751892   -1.6804668    16.392551    39.908152 
135420000    263.16557    294.47357    290.85845    2.5657507   -2.8899055    3.6151109    39.873101 
135424000    270.34436    336.75591    269.62544  -0.29800633   -1.4900918    67.130469    39.854538 
135428000    271.34984    314.55732    267.96433    0.5049585   0.10540853     46.59299    39.916399 
135432000    269.71745    329.44483    261.40413   0.10583868  -0.49821911    68.040704    39.878467 
135436000    273.44813    329.98054    287.22428  -0.34799788   -2.6295503    42.756263    39.793405 
135440000    267.94255     299.8639     284.1305    2.3960236   -1.6640491    15.733401    39.828393 
135444000    269.99763    330.52255    259.01513    1.1698499   0.11611474    71.507422    39.863862 
135448000    283.11103     341.2692    295.76485   0.22733574   -1.9396368    45.504356    39.888625 
135452000    274.37883    310.79284    297.15676   0.94266377    -2.943641    13.636085     39.83762 
135456000    281.40736    329.37772    282.22171   0.95123889   -1.9804221    47.156002    39.829115 
135460000    275.16249    340.41641    272.82274    1.1159557  -0.79972016    67.593677     39.91779 
135464000    273.24659    334.31901    267.14909   0.56084501   -1.9622879    67.169922    39.929271 
135468000    276.97244    334.76112     283.2992   0.88735051   -1.1013026    51.461916    39.946887 
135472000    280.02812    342.99282     279.6376   0.55679399   -1.0520344    63.355216    39.920354 
135476000    265.62438     311.6874    265.17316    1.8446814   -1.1522839    46.514243    40.017579 
135480000    268.55117    318.01514    272.58344   0.71913164   -2.2210547    45.431704    39.972438 
135484000    278.46385    339.58897    281.92343  -0.74475112   -2.4710459    57.665538    39.941013 
135488000    280.28208    342.59104    287.84968   0.14875932   -2.1775596    54.741365    39.969148 
135492000    275.52462    332.99367    285.38811   0.39756422   -2.5817348    47.605555    39.990252 
135496000    261.78431    296.46856    275.56901    1.7133435   -1.7775019    20.899544    39.951105 
135500000     274.1237     332.8926    290.80925   0.22708634   -3.0666277    42.083349    39.949561 
135504000    265.21746    304.44232     279.7529    2.6737446   -2.2377488    24.689417    39.952603 
135508000     265.6367    323.50439     263.9364    1.0211721   -1.7513226    59.567982    39.918671 
135512000    280.35162    333.90796    292.37692  0.006090071   -3.8581791    41.531039    39.884227 
135516000    271.60846    317.93724    286.79884   0.71520857   -1.7646789    31.138401    39.881538 
135520000    265.61507    310.27581    260.20955    1.6371867   -1.4827871    50.066267    39.876321 
135524000    264.28106    302.05945    268.74703     1.526126   -2.2092088    33.312425    39.880706 
135528000    276.51143    325.86923    289.08918    1.3438344   -3.2942922     36.78005    39.844801 
135532000    276.06801    344.18031    278.47998    1.2125081   -2.9200597    65.700328     39.90133 
135536000    275.54621    316.81144    278.18102    2.4060002   -2.3924853    38.630423    39.891373 
135540000    276.30842     310.3662    290.30096    1.2099729    -2.002446    20.065244    39.882423 
135544000    266.50067    307.70291     271.7061    2.3130744  -0.69124383    35.996814    39.849379 
135548000    270.30109    338.19886    269.28353   0.55919658   -0.7932745    68.915323    39.841106 
135552000    264.30021    328.20375    260.06301   0.94442068  -0.58329325    68.140736    39.879946 
135556000    266.30086    336.60228    272.96642    2.2125345   -1.7372647    63.635859      39.8859 
135560000    277.84536     322.9621    281.07837    2.1201578    -1.764334    41.883728    39.880766 
135564000    271.45236     335.5979    280.50602    1.2025961    -1.548019    55.091879     39.87993 
135568000    272.49165    316.68914    303.64882    2.8341432   -2.2116776     13.04032    39.890842 
135572000    273.98453    312.39898    295.08618    2.8616432   -2.9486398      17.3128    39.942517 
135576000    270.44185    297.02773    299.81239    3.8155762   -3.2509383    -2.784658    39.973818 
135580000    265.73616    301.89913    263.70154    2.7396478   -1.5298733     38.19759    39.975715 
135584000     264.7821     300.3597    280.35501    3.4709206   -2.1656648    20.004692    39.938001 
135588000    272.38525    327.23089    291.48992    1.2147685   -2.5679621    35.740969    39.973094 
135592000    274.95061    315.11423    293.16739   0.86794182   -2.4965533    21.946841    39.960689 
135596000    279.62553    330.96738    294.33408 -0.0058732716   -3.0933938      36.6333    39.941005 
135600000    269.54547    323.86097    265.27159  -0.46053234   -2.2309242     58.58938    39.909871 
135604000    282.29825    337.00756    285.28788   -0.9144066   -3.7760223    51.719677    39.883815 
135608000    281.44835    323.39048    283.55319   -1.7340514   -3.2711341     39.83729    39.866355 
135612000    279.21498     318.5959    290.93581  -0.19190308   -3.2058549    27.660092    39.890731 
135616000    277.13521    330.30414    284.19927   -1.0312332   -1.4100793    46.104867    39.869776 
135620000    275.36383    328.07709    279.19167    -1.408698   -1.5717118    48.885412     39.83783 
135624000    283.00385    335.77417    294.76887  -0.71338539   -2.6554801    41.005301    39.836788 
135628000    274.53336    306.15106    293.34257    1.3891799   -1.6795579    12.808497    39.829982 
135632000    270.73805    285.61492    295.87104    1.4300969   -2.6333682   -10.256121    39.763726 
135636000    271.19798    307.57466    296.47195   0.23870546   -1.8714106    11.102709    39.795948 
135640000    273.04775    317.78955    274.88009    1.4507671   -2.0266114    42.909465     39.76693 
135644000    267.90703    322.06294    287.08038   0.59769566    -2.055599    34.982566     39.74464 
135648000     275.9888    325.41044    273.91175  -0.83272866   0.44849219    51.498682    39.762414 
135652000    270.13919    312.62861    265.16431   0.77785297   -1.3702678    47.464292    39.744959 
135656000    279.70915    337.18706    297.85047  -0.72954426   -2.7480246    39.336589    39.782528 
135660000    283.99923    331.20175    300.98875  -0.70195689   -3.1710631    30.212991    39.810897 
135664000     273.0373    318.55653    290.97994  -0.73399459   -2.7113362    27.576594    39.802633 
135668000    265.76024    286.79776    296.32318 -0.065288562   -2.3277197   -9.5254176    39.798374 
135672000    267.64869    302.82687    300.88306   -1.0565812    -2.336049      1.94381    39.822393 
135676000    275.03032     295.8803     280.4353   0.42314204   -2.5761481    15.445004    39.808917 
135680000    270.06985    317.23599    252.66661  -0.47359587  -0.16761119    64.569381    39.775367 
135684000    278.40701    319.11797    288.46452  -0.59271217   -2.4954485    30.653445    39.787441 
135688000    275.05951    335.66357    278.28453  -0.94944548   -2.9392756    57.379031    39.756405 
135692000    267.64587     311.7491    269.39499    1.1063574     -1.04157    42.354105    39.758272 
135696000    274.81219     328.6002    293.20545  -0.74016034   -1.8719026    35.394754    39.803741 
135700000    281.00481    332.67963    286.21853  0.081163742   -1.5188626    46.461105    39.804457 
135704000    268.37816    313.39439    269.76424  0.074909586   -1.8839497    43.630142    39.794655 
135708000    280.01269    332.19761    291.34988  -0.66231798   -2.3565762    40.847737    39.817916 
135712000    269.82066    301.70284    285.13625  -0.42113265   -1.6016317    16.566584    39.832042 
135716000    266.03285    315.65917    263.53034   0.78376004   -1.3442919    52.128828    39.826932 
135720000    275.75373    334.09511    276.58834  -0.23867695  -0.58434623    57.506773     39.84923 
135724000     276.8164    322.50799    295.22226  -0.19745708   -2.6056478    27.285739     39.81726 
135728000    262.83946    288.82865    274.47853   0.43148006  -0.77828433    14.350121    39.838873 
135732000    267.36931    311.95886    273.21909   0.70250891  -0.75690252    38.739773    39.837008 
135736000    269.61284    307.96257    290.19089  -0.13061927   -2.1211196    17.771684    39.835891 
135740000    283.22653    328.55585    297.33984   -1.0011393   -1.9028935    31.216009    39.817145 
135744000    272.57779    337.18815    275.50483  -0.87468787   -1.7025042    61.683317    39.817099 
135748000    274.37813    316.39279    283.56268   0.77375748   -1.7678975    32.830116     39.84674 
135752000    278.50646    323.00475    301.87286    1.8071809    -2.501762    21.131883    39.835599 
135756000    270.03944    335.63405    262.31858 -0.048257725  0.029060093     73.31547    39.836474 
135760000    270.99123    327.87258     280.8726     0.461497   -1.2349996    46.999979    39.826808 
135764000    273.85591    309.69471    292.56983    1.6538647    -2.228103    17.124882      39.8415 
135768000    263.04446    301.84388    278.05737    2.2802915   -1.1115581     23.78651    39.878239 
135772000    271.01221    317.41871    277.53869  0.013882396    -1.907376    39.880016    39.883704 
135776000    266.95925    291.88429     277.1692    1.5997166  -0.88697692    14.715096    39.854688 
135780000    272.53104    307.79958     299.4182   0.47514037  -0.61534496    8.3813804    39.841789 
135784000    271.76591    318.68488    275.09334   0.88567021  -0.55043576    43.591543    39.855745 
135788000    283.84679    344.83635    281.89072  -0.92347109   -2.6733566    62.945625    39.887127 
135792000    277.54236     319.4185    284.16811 -0.018821811   -1.7541414    35.250388    39.876818 
135796000    275.01981    312.12369    293.27349    0.6338361   -2.3983115    18.850196    39.876895 
135800000    273.04487     309.5925    282.23988   -0.2704981   -1.7817381    27.352626    39.875708 
135804000    274.42385    330.17645     293.6548  -0.83303703   -2.5607943    36.521652    39.860504 
135808000    268.68484    335.62044     266.1582   -1.5389931   -1.1755637     69.46224    39.817671 
135812000     272.3589    316.92692    280.93158  -0.12414223  -0.89100166    35.995339    39.837983 
135816000    267.43783    319.62367    268.47279   0.54930554  -0.49293619    51.150879    39.828339 
135820000    271.21029    307.01194    273.84561    1.2798153   -1.0269881    33.166332    39.823229 
135824000    273.71035    327.86841     272.0947  -0.65004327  -0.28920478    55.773706    39.805971 
135828000    272.25301    308.99314    279.71424  -0.88448614  -0.11166257    29.278903    39.800892 
135832000     271.4127    323.66803    282.13117  -0.41587111  -0.89821157    41.536861    39.787414 
135836000    275.68152    351.35217    261.93686    -2.966315   -0.4850367    89.415318    39.807062 
135840000    271.86041    321.61313    271.65741  0.055938725  -0.69129659    49.955727    39.816205 
135844000    274.33515    329.95887    279.07128  -0.58234787   -1.3957985    50.887594    39.828521 
135848000    282.72436    341.37922    287.54089  -0.94622548   -1.8636027    53.838331    39.830277 
135852000    268.39776    326.53749    261.00679   -1.1537903 -0.0044132038    65.530701    39.863402 
135856000    273.27998    304.65464    278.12221    0.2410772  -0.33679588    26.532424     39.87098 
135860000    271.86827     319.1889     271.6642   0.63574216  -0.25638679    47.524696    39.878206 
135864000    279.23785     328.5722    291.95807  -0.80042464   -1.7074956    36.614122    39.879055 
135868000    263.92179    295.33729    269.10154    1.1932209   0.68775752    26.235749    39.879904 
135872000    268.65802    310.95075    256.28301   -0.8727328   -0.6409971    54.667737    39.877251 
135876000    272.30936    316.97358    271.57366  -0.41666106  -0.94991831    45.399917    39.890067 
135880000    273.91397    313.73171    283.54005 -0.00065833892   0.15419538    30.191663    39.909666 
135884000     275.9615     330.0523    287.57846  -0.66256531   -1.0041163    42.473843    39.924068 
135888000    266.52358    319.95558    268.95082  -0.12515465  0.015039167    51.004769     39.89768 
135892000      287.401    341.87115    308.33114   -1.5146477   -2.7995977    33.540009    39.879444 
135896000    280.83037    313.63001    308.46031  -0.94639256   -2.0750606    5.1697035    39.872732 
135900000    280.55763    360.97599    274.60636   -2.4010402   -1.4155185    86.369625    39.890828 
135904000    270.21194    314.16944    284.56724  -0.46587523  -0.30662432      29.6022    39.897409 
135908000    273.75501    317.96591     279.1198   0.47799824   -1.7813301     38.84611    39.911298 
135912000    266.99509    322.87331    263.04761  -0.21983668  -0.32950478    59.825707    39.945395 
135916000    272.90696    318.49298    272.05405 -0.092893274   -0.9714643    46.438935     39.93097 
135920000    274.09851    317.99274     284.4841  -0.20270724   -2.0611087     33.50864    39.957288 
135924000    273.20211    321.04462    277.85289  -0.56127556   -1.3870715    43.191733    39.972027 
135928000    278.08807    341.19722    281.08257   -1.8472956   -1.4787872     60.11465     39.98519 
135932000    269.20699    305.85055    295.09255  0.084249213   -2.2330219    10.758006    39.979753 
135936000    274.80375    324.62857    266.53744  -0.95913055  -0.93868069    58.091135     39.99691 
135940000    271.04464    323.57857    284.51006  -0.67901652  -0.90882132    39.068513    40.001523 
135944000    272.59908    318.47901    289.43805  -0.14700247  -0.57296534    29.040963    40.019674 
135948000    274.78441    325.57262    275.21951   -1.8599118 -0.064307819    50.353112    40.026902 
135952000    273.04076    297.10009    287.16733    0.5636416   -1.5614015    9.9327621    40.020139 
135956000    278.60365     314.5396    298.31644   -1.2011681   -1.4378808    16.223155    39.989487 
135960000    270.96602    323.66641     278.7986     -2.56287  -0.67552517     44.86781    39.993215 
135964000    272.50212    303.91581    275.89079   -0.8683681  -0.98735991    28.025014    40.001992 
135968000    270.90463    332.74668    292.20583   -1.8056331   -1.1639671    40.540851    40.004549 
135972000    287.43761    345.76447    291.29889   -2.1539314  -0.80621579    54.465579    40.010768 
135976000    277.59234    349.56267    289.18704   -1.9959953   -1.0163052    60.375624    40.010322 
135980000    280.66876    318.31442    301.97399  -0.78944546   -1.1335323    16.340427    40.045784 
135984000    271.52761    324.47956    284.17808  -0.15139076  -0.70808441     40.30148     40.03818 
135988000    273.18877    342.40363    255.25438   -1.5111902   0.15626148    87.149247    40.042113 
135992000    278.68361    321.01315    301.30045  -0.75291741   -2.7661443    19.712703    40.032368 
135996000    269.80701    333.58612    278.47501  -0.35417193  -0.52412453    55.111113    40.073833 
136000000    266.39594    305.88917    280.56503  -0.22216275 -0.060323403    25.324144    40.082166 
136004000    273.36991    310.58381    287.94783    0.1363133   -0.3936379     22.63598    40.077287 
136008000    279.88148    325.66389     278.8156   -1.2215157   -1.1490905    46.848281    40.099261 
136012000    273.17612    315.00893    284.57659   0.28478022   -1.6685717    30.432336    40.101606 
136016000    264.01809    302.15742    272.89514  -0.16637299   0.11481672    29.262281     40.09026 
136020000    274.76517    321.03707    301.55543   -0.2929934   -1.4521332    19.481645    40.064957 
136024000    277.72343    310.55368    292.49373 -0.055996885   -1.6566259    18.059944      40.0466 
136028000    276.77025    342.89463     281.7422   -1.6707259  -0.73299928    61.152431    40.062665 
136032000    276.79361    329.06335    289.31779    -1.494073   -1.5278534    39.745567    40.062415 
136036000    270.60419    301.16376    288.29616 -0.030371581   -1.2440336    12.867605    40.058379 
136040000    272.36093     330.3812    265.22594   -1.4146855    0.2874137    65.155258    40.048883 
136044000     267.1881    309.31281    273.88458  -0.61035527  -0.37093198    35.428222    40.032905 
136048000    275.02509     330.1462    281.49184   -1.9476304  -0.22261205    48.654356    40.042352 
136052000    269.42685    315.32197    281.46069   -1.5967823  -0.93528647    33.861275    40.049112 
136056000    286.63058    326.88833    300.16597   -1.4842085   -1.9789176    26.722359    40.048847 
136060000    266.78901    303.16244    277.95965   -1.4762067   -0.7950581    25.202788    40.043583 
136064000    272.79994    308.30979    275.83933   -1.7931722   -0.6227787    32.470461    40.050903 
136068000    264.13513    299.19558    270.34298  -0.50404399  -0.66624436    28.852594    40.031808 
136072000    266.67985    296.00805    291.79279 -0.031590769   -1.1580934    4.2152533    40.035917 
136076000    264.05849    314.93006    263.37235  -0.29326876    -0.251897    51.557704    40.027501 
136080000    275.82944    313.96521    297.44625  0.092424369   -1.4413215    16.518959    40.036129 
136084000    269.68485    303.61581    278.50479   0.42445364   0.80794736    25.111023    40.044318 
136088000    271.06514    324.26101    278.91753   -1.2483694   0.81272289    45.343478    40.036962 
136092000    269.53431    298.87437    291.75103    1.2173082  -0.28423443    7.1233337     40.04566 
136096000    268.96817    304.58057    283.77989   0.92208901  -0.92737557    20.800677    40.034609 
136100000    267.18536    321.60109    265.99932  -0.87440962   -1.1306173    55.601766    40.049368 
136104000    268.13116     309.5322    275.12226   0.23265917  -0.57804534    34.409946     40.05994 
136108000    278.45999    326.97905    293.24921  -0.51547612   -1.3102358    33.729837    40.078794 
136112000    279.65578    326.48576    275.58591   0.75376526  -0.85436718    50.899848    40.079381 
136116000    274.73982    328.93576    305.53149  -0.64638508   -1.5665025    23.404272    40.051578 
136120000    280.25053    319.34197    300.81985  0.011453058    -1.896456    18.522122     40.05388 
136124000    278.59258    331.01334    289.27289   0.17722788  -0.83238762    41.740457    40.069251 
136128000    268.97468    329.41271    279.12498   -1.0717841 -0.078821656    50.287737    40.082043 
136132000    272.72056    302.27746    287.14121  -0.13621787   0.22274077    15.136249    40.071543 
136136000    266.50261    304.60171    273.90316   0.38415017   0.55938459    30.698545    40.093261 
136140000    282.33767    340.60293    290.80208   -1.5402021  -0.79446317    49.800852    40.093584 
136144000    280.00786    330.58424    277.16455   -1.2896124  -0.40571724    53.419698    40.085732 
136148000    265.87053    313.67626    271.43008  -0.31532302  -0.15248466    42.246179    40.079593 
136152000    263.31061    311.01708    274.04995    0.9758452   -1.1297556    36.967136     40.07345 
136156000    268.52592    343.12006    262.06697  -0.87846949   0.89535046    81.053084    40.083584 
136160000    262.61603    297.70688    288.49402    1.5270835   -1.4634447    9.2128584    40.080553 
136164000    270.40087    310.36735    298.12298  -0.16552029   -2.2058487    12.244368    40.085254 
136168000    265.09181    308.86424    272.39905    1.6030659  -0.39332662    36.465189    40.076836 
136172000    270.40705    324.01401    302.90399   0.79245431   -1.6974648    21.110016    40.070272 
136176000    270.76234    313.61406    286.23636    0.9549713  -0.80381558    27.377704    40.095625 
136180000    273.72413    326.65446    311.36797  -0.73365743  -0.96292641    15.286488    40.100929 
136184000    261.79398    308.03152    266.98176  -0.56236792   0.50850959    41.049757    40.105872 
136188000    278.06717    340.97273    293.32891  -0.70371554  -0.74215518    47.643821    40.120726 
136192000    277.70195     338.4743    272.44206   -1.2057859    1.0624694     66.03224    40.128223 
136196000    281.60344    332.66328    297.89886  -0.49647687  -0.71126685    34.764417    40.142189 
136200000    273.30956    321.10886    283.50772   0.59276012  -0.48510415    37.601139    40.147171 
136204000    270.19712    323.79176    305.61336  -0.29280923   -2.2469059    18.178399    40.155596 
136208000    267.41449    311.26134    282.93879   0.49119539 -0.028729222     28.32255    40.150194 
136212000    263.87951    314.47676    272.91877    1.4722385  -0.14016147    41.557997     40.12873 
136216000    264.44108    303.26993    284.29258    1.4482852  -0.33894485    18.977348    40.143119 
136220000    270.63065    336.82002    279.96541    -1.580716  -0.57315585    56.854613    40.124743 
136224000    272.81579    316.42851     306.9585  -0.55974686   -1.2356278    9.4700088     40.11589 
136228000    273.84939    340.48149    271.49689   -1.0737419 -0.021223509    68.984604    40.116568 
136232000    264.81208     341.1381    278.31114  -0.16769076   0.32472637    62.826968    40.103334 
136236000    274.19752    343.94745    270.48245    1.1314488  0.073134979    73.464999    40.090503 
136240000    272.15974    316.70213    286.50057   0.63312986  -0.14231993    30.201565    40.072977 
136244000    276.23657    325.87616    284.25879   -1.7392196  -0.84938865    41.617369    40.054942 
136248000    266.50396    311.39789    285.43447  -0.66146743  -0.95843182    25.963423     40.02391 
136252000    261.43369    321.64547    255.96006  -0.02641249   0.74600715    65.685419    40.020158 
136256000    276.17983    344.04342    274.05753   -1.5465639   0.34729337    69.985891    40.018821 
136260000    269.00994    310.17057    291.24477    1.3676737  -0.44559282    18.925801    40.015792 
136264000    264.93109    314.01461    266.45009 -0.081499871  -0.12888995    47.564512    40.021306 
136268000    265.73132    316.34479    272.07922  -0.31823066   0.37746759    44.265563    40.022858 
136272000    270.97875    336.04767    269.37486   -1.6681671   0.17696627    66.672808     40.00513 
136276000    273.45282    332.25152      278.554   -1.6020855   0.23936427    53.697519    40.028199 
136280000    273.93783    330.61556    280.17759   -1.0913502  0.050189119     50.43797    40.021415 
136284000    265.67881    300.96009    280.35956 -0.045088745    1.4763324    20.600528    40.016981 
136288000    262.91548    322.02377    272.35426  -0.99725835    1.5784797    49.669504    40.026411 
136292000    277.04262    349.88595    264.65485   -1.7228446    1.6231289    85.231096    40.027374 
136296000    276.34024    330.40383    292.62613   -2.2633056  -0.33778117    37.777699    40.040726 
136300000    270.34796    316.53507    273.24121   -1.7586457   0.56895405    43.293859    40.038224 
136304000    284.08272    337.02682    305.88236   -2.3038062   -1.8412365    31.144458    40.025038 
136308000    279.72025    337.38874    269.36179   -1.4546492    1.2044587    68.026951     40.03325 
136312000    273.63504    308.52447    289.94349  -0.64419175  -0.16792097    18.580978    40.025195 
136316000    265.83528    319.52481    259.27677   -1.3383952    1.1788018    60.248046    40.031742 
136320000    267.52248      314.273    269.09872   -1.8222939  -0.21800132     45.17428    40.030307 
136324000     277.4209    322.23274    283.63585   -0.8721867   -1.8786157    38.596886    40.027864 
136328000    283.62173    339.25823    285.70216   -1.6001626   -1.9442832    53.556069    40.028473 
136332000    268.72077    317.42158    277.92158  -0.51821242    -1.434589    39.499996    40.038756 
136336000    270.36729    299.33045    287.90198   0.92927067   -2.0391291    11.428465    40.037499 
136340000    265.29736    306.98889    274.82697   0.70817748   -0.8620547    32.161922    40.055672 
136344000    260.19766    302.80038    259.42827    0.8090148   0.55640413     43.37211    40.051325 
136348000    266.96791    299.37472    283.95841   0.16533541   -1.3292626    15.416312    40.032868 
136352000    268.52633     315.3841     267.6493  -0.12249256   0.05028618    47.734793    40.022347 
136356000     281.3231    360.18631    279.05764   -2.9379093  -0.35780442    81.128668    40.009466 
136360000    267.99334     315.1591    275.11974   0.53891432  -0.43793067    40.039355    40.022051 
136364000    274.22573    330.59614    279.47342  -0.71788433  -0.19995837    51.122716    40.017306 
136368000    273.11492    327.59489    276.51621   -1.3636824  -0.17725866    51.078682    40.047054 
136372000    269.43828    320.05785    286.68269  -0.97204213  -0.64585501    33.375155    40.034796 
136376000    272.53786    311.51128    290.74407  0.068411745   -0.2690822    20.767203     40.04744 
136380000    274.59931    322.96317    267.15992  -0.38344599   -0.1072154    55.803245    40.052513 
136384000    272.09905    295.89346     280.5516  -0.09191892   -1.3913807    15.341856    40.061723 
136388000    273.90602    333.23354    283.36462   -2.0389647 -0.060054554    49.868922    40.078595 
136392000    263.06624    309.57666    258.60534  -0.72541674    1.1113707    50.971322    40.061378 
136396000    279.69262    329.69345    290.80067   -1.6138196   -1.3256275     38.89278    40.075037 
136400000    268.72221     301.2701    294.17895   -1.2441938   -1.1288337    7.0911465    40.071891 
136404000     290.2596    349.20652    279.05184   -3.6496706 -0.088338571    70.154679    40.075325 
136408000    279.81178    342.66184    286.14877   -2.6093827   0.73240094    56.513072    40.065177 
136412000    283.33696    308.04142    305.42411   0.23644643  -0.95696057    2.6173055    40.069424 
136416000    277.97325    335.92633    286.71489   -2.6193292   0.26450061    49.211434    40.082811 
136420000     273.7281    315.63765    279.83613   -1.6021592    1.7881206    35.801516    40.087134 
136424000    280.59088    327.40436    294.73641   -2.1866738   -0.2804997    32.667955    40.091571 
136428000    279.31408    341.59897    277.93844   -3.0287483   0.10267643    63.660531    40.087616 
136432000    280.82687    325.15585    281.98462   -2.7681441  -0.97476191    43.171229    40.092737 
136436000    268.90836    320.42415    275.05818   -1.8999338  -0.29059198    45.365961    40.082267 
136440000    273.63576    323.89853    275.47477   -1.7700817  -0.49668238     48.42376     40.07551 
136444000    270.54324    298.67143    274.62745  -0.57609109   0.86791571    24.043984    40.072236 
136448000    276.02354    322.50924    307.94051   -1.5445357  -0.84407065    14.568727    40.066592 
136452000    276.17862    326.34666    289.22291   -2.6405004   0.16305503    37.123748    40.065254 
136456000    285.81638    331.91681    315.60089   -1.9699677   -1.4795032    16.315923    40.074893 
136460000    273.94376    326.53147     274.7583  -0.95413917  -0.64965675    51.773168    40.092029 
136464000    265.66819    326.19068    260.69048   -1.4244456    1.7844602    65.500206    40.070043 
136468000    267.52934    292.21985    275.59378    1.5384923   0.11126596     16.62607    40.070668 
136472000    274.13349    321.86588    296.94413  -0.51607947  0.076171787    24.921755    40.047023 
136476000    270.15581    308.19304    278.97956  -0.98476027    1.8341372    29.213486    40.050208 
136480000    280.46408    330.89878    293.12913   -1.8804516    1.3425174    37.769644    40.040628 
136484000    263.56671    306.12353     275.9396   0.13647114   0.32148093    30.183936    40.022509 
136488000     257.6391    305.13988    264.68846  0.076655298    1.2003543    40.451421    40.027464 
136492000    272.01249    324.50578    285.17091   -1.6359538   0.45265943    39.334872    40.034674 
136496000    276.13883    316.73546    292.37182  -0.96237354   -0.3620917    24.363644    40.032494 
136500000    279.92528    318.86315     296.6508  -0.90928992   -1.2505155    22.212353    40.019404 
136504000    276.37891     326.1311    285.46207   -1.1249313   -1.2088951    40.669031    40.013147 
136508000    270.88704      330.089    264.14537   -2.1913234   0.18980325    65.943631    40.019096 
136512000    263.07473    317.17159    255.74854   -2.0519217   0.62355286    61.423048    40.023492 
136516000    278.69086     323.4769    278.42302   -2.9752403    1.3596461    45.053873    40.015579 
136520000     269.6951    314.59911    260.96516   -1.8889005   0.68479748    53.633948    40.015713 
136524000    283.78563    330.99503    281.17037   -2.1254195  -0.47058713     49.82466    40.006859 
136528000    273.37798    316.71897    277.09427  -0.96819319  -0.75768882      39.6247    39.999428 
136532000    269.24729    303.33857    281.25462  -0.24815205  -0.48796524    22.083957    40.004277 
136536000    260.53815    299.80939    258.21827 -0.071504916   0.68408855    41.591124    40.005297 
136540000    272.02602     321.8399    284.09318   -1.4523658  -0.63650739    37.746721    40.003247 
136544000    268.83371    316.30327    278.61846   -1.0250828   0.05097812    37.684811    40.013333 
136548000    279.69805    329.67313    297.68522    -1.827323  -0.51303301    31.987914    40.001138 
136552000    281.93574    323.68499    293.60843   -2.6131359  -0.61562393    30.076563    39.988311 
136556000    270.93521    312.27076     273.6667  -0.97779579    1.1310096    38.604056    39.987905 
136560000    275.36443    327.58581    282.15098   -1.9665085 -0.053719717    45.434831    39.985238 
136564000    276.32898    331.07574     264.9118   -1.0463149   0.15174149    66.163937    39.994968 
136568000    283.02376    320.84449    271.33192   -2.3439146    1.1610452    49.512575    39.991109 
136572000    270.02287    308.93686     289.3853   -1.5881376  -0.26670859    19.551564     39.99142 
136576000    275.88143    319.61189    282.70712   -1.1637993  -0.30681665    36.904766    40.006818 
136580000    275.13181    311.47965    284.37265   -1.2905466   0.49751277    27.106993    40.009363 
136584000    279.14652    327.79594    297.89719    -1.601666  -0.45427486    29.898752    40.017341 
136588000    272.75695    301.55919    283.18349  -0.88262684   0.22485464    18.375704    40.012078 
136592000    287.21853    336.63506    286.71034   -2.2443786   0.78562612    49.924722    40.011648 
136596000    280.20898    329.87388    283.53962   -2.4788243   0.67849982    46.334264    39.997569 
136600000    271.88155    317.24633    267.66111   -1.5074846    0.7563965    49.585224     39.99309 
136604000    274.03116      337.391    263.78076   -2.6847556   0.36464889    73.610244    39.997641 
136608000    262.98155    293.80907    273.52042  -0.56824434   -0.1946839    20.288652    39.980019 
136612000    273.83276    320.07488    282.65922    -1.913036  0.043876525    37.415654    39.973306 
136616000    281.76328    332.12941    297.35193   -1.4811245   -1.8954924    34.777473    39.966045 
136620000    276.34259     319.4086    281.83459   -2.0387938  -0.42313032    37.574013     39.96895 
136624000    283.94222    329.04891    299.10201   -3.2908369   -1.7155193    29.946896    39.967724 
136628000    275.00896    338.48093    280.59852   -3.5159462  -0.36917569    57.882404    39.966539 
136632000    277.19279    337.85541    284.20258   -2.1482249   -1.3429623    53.652824    39.966386 
136636000      269.691    319.88386    275.85427   -3.0244732   -0.3495411     44.02959    39.966215 
136640000    278.07861    312.54332    278.93942   -2.3278382   0.21490175    33.603904    39.978789 
136644000     282.1461    327.23761    293.25913   -2.8399435    -1.037428    33.978483    39.970416 
136648000    275.55702    321.01592     306.4701   -1.9374992   -1.5870668    14.545821    39.961293 
136652000    289.31332    334.54428    303.66646    -1.543515  -0.86189429    30.877819    39.983306 
136656000    269.80942    320.57318     257.3044   -1.7919503     1.245415    63.268775    39.989747 
136660000    273.25206    311.92821    288.33613  -0.53537683  -0.53228331    23.592083    39.993455 
136664000    284.05125    336.11199    280.19847   -2.2269497  -0.54357279    55.913522     39.99976 
136668000    267.72354    327.16042    259.62909   -1.6620457   0.33584775    67.531339    39.993338 
136672000    270.21591    303.99765    286.72953   0.42529706   -1.5320625    17.268124    39.988126 
136676000    267.61202    304.79904    290.93308   0.27226124   -1.3437442    13.865961    39.985306 
136680000    272.93813    306.93005    282.76677  -0.70304208  -0.66330524    24.163284    39.976943 
136684000    272.01417    316.43598    280.43599   -1.3257132  -0.70309814    35.999995    39.961539 
136688000     285.6689    329.57596    310.81591   -2.5241538   -2.6604937    18.760047    39.951975 
136692000    280.23327    332.14134    280.29855   -3.7703218   -1.3657689    51.842782     39.94524 
136696000    276.49593    344.23317      267.405   -3.1421382   0.19574599    76.828169    39.948293 
136700000    279.54475    328.86849    304.82631   -2.4804695    -1.529332    24.042182     39.94928 
136704000    268.77225    314.45122     277.0423   -1.9568509  -0.48478781    37.408929    39.941764 
136708000    267.65028      332.546    260.66432   -3.2733072   0.28892465    71.881675    39.960244 
136712000    275.25745    319.45383     273.6713   -2.9950647    0.3175768     45.78253    39.967165 
136716000    273.00639    333.99075    267.40107   -3.7063608    0.6563562    66.589684    39.962485 
136720000    275.31719    322.88804     281.3135   -2.3804601  -0.63631865    41.574541    39.968023 
136724000    275.46018    320.65276    271.28529  -0.86732304   0.87950448    49.367472    39.958123 
136728000      276.247    330.82402     281.6048   -2.1115336  -0.17058449    49.219227    39.968206 
136732000    268.72863    301.22799    278.59999  -0.12565978  -0.45524826    22.627994    39.971697 
136736000     269.4972    322.59308    279.65392   -1.9248408  -0.15265358    42.939154    39.979229 
136740000    268.31098    304.41182    282.49111   0.48779214 -0.0022576374    21.920711    39.991173 
136744000    269.55175    308.46895    272.24766   0.94565588    0.3250462    36.221297    39.990997 
136748000    267.93005    329.02656    282.44998  -0.26912711  -0.22799426     46.57658     39.99056 
136752000    270.02883    332.79546    266.27952   -1.7271641   0.55358996    66.515939    39.982551 
136756000    263.89874    323.53646    265.57499  -0.37371502  -0.27526601    57.961478    39.975868 
136760000    274.33363    318.26654    278.76472   -1.0765816  -0.48263319    39.501824    39.970608 
136764000    274.93237    317.41962    285.88497   -1.1883727  0.072479558    31.534649    39.966707 
136768000    269.02046    316.51692    288.49455   -1.6552294  -0.31082392    28.022368    39.967242 
136772000    269.48131     298.0064     276.6502  -0.58336917   -1.1449722    21.356197    39.975692 
136776000    279.23357    335.66866    291.61491  -0.59362208   -2.2541031    44.053756    39.968673 
136780000    289.11848    339.05166    307.43596   -3.5380896   -1.3688684    31.615702    39.960413 
136784000    275.66775    322.50659    278.68192   -2.1701335  -0.40529142    43.824668    39.969053 
136788000    273.06765    312.90373    286.80818  -0.85721229   -1.2970102    26.095555    39.963642 
136792000    274.16576    325.21306    267.09429  -0.32676299  -0.25690545    58.118774    39.974688 
136796000    272.02748    310.38792    272.66128  -0.52613635  -0.30411669    37.726643    39.971878 
136800000    278.90149    335.94128    279.92503   -2.1812453  -0.73704741    56.016253    39.972863 
136804000    277.66183    340.85838    278.86276  -0.99704129   -0.3212289    61.995623    39.984959 
136808000    277.07632    310.27286    288.65904   0.40613925   -1.4056278    21.613826    39.985028 
136812000    277.27258    332.73051    291.82434   -2.2267011   -1.7487985    40.906167    39.986458 
136816000    279.96604    335.50271    289.38884    -1.772383   -1.3516978    46.113872    39.989056 
136820000    274.93271    329.57931    262.87614   -1.8206636    1.0376031    66.703172    39.985682 
136824000    276.49782    327.97596    277.06017     -1.88026    1.2188663    50.915792    39.987009 
136828000    281.96865    334.17179    282.07991   -2.6385181  -0.28858326    52.091887    39.981941 
136832000    278.76796    319.51643    285.87861    -2.148157  -0.20673229     33.63782    39.977838 
136836000    273.74658    300.99399    290.66121   -1.6419864   -0.9221448    10.332786    39.974391 
136840000    268.61455    314.53935    261.60013    -2.253516   0.48863173    52.939222    39.985399 
136844000    270.71338    324.53759    274.25926   -1.5693735  -0.83920592    50.278334    39.981529 
136848000    272.81895    321.34917     272.0238   -1.5359659   0.16977083    49.325368     39.99161 
136852000    271.50173    331.36115    259.40787    -1.095811   0.20750309    71.953281    39.996992 
136856000    279.98082    331.43744    290.50765   -2.2760115   -2.1129031    40.929796      40.0015 
136860000    274.01586    316.02838    261.93489       -1.101   0.25651143    54.093486    39.990366 
136864000     273.0822    306.61801    269.57968   -0.3941304   -1.3687315    37.038334    40.001375 
136868000    273.02918    325.42264    280.70967   -2.2801253    -1.646745    44.712974     40.01361 
136872000    277.06489    339.99451    275.25005   -3.4004026  -0.81595047    64.744461    40.014936 
136876000    282.26471    349.95509     274.3594   -3.5402798  -0.81218257    75.595691    40.011536 
136880000    274.82955    326.79159    260.19372   -1.7477027   0.26336561    66.597871    40.015746 
136884000    264.35497    307.80357    255.53586  -0.11214139   0.43447796    52.267705    40.016844 
136888000    279.28432    327.28922    278.19291   -1.5942718  -0.44591111    49.096309    40.022427 
136892000     276.3479    299.21563    291.23786    0.9341042  -0.88920099    7.9777667     40.01815 
136896000    274.46795    321.25997     283.3664  -0.30297944  0.023489108    37.893564     40.01111 
136900000    280.41292    329.86113    275.55768   -2.8649324   0.13774036    54.303448    40.030667 
136904000    273.76819    296.01858    295.30642  -0.63568952  -0.75622472   0.71215827    40.039437 
136908000    274.85913    304.33293    294.47914   -1.0910514  -0.69145286    9.8537929     40.04959 
136912000    268.08402    310.53916     276.6689   -2.3421817   0.28986579    33.870264    40.046217 
136916000    277.62221    340.74536    273.62133   -2.4365716   0.22934667    67.124031    40.042591 
136920000    266.04748     304.8725    266.62963  -0.31170116   0.98345756    38.242874    40.048957 
136924000    282.17654    331.33418    290.91135   -1.5161261   -1.5149737    40.422835    40.044807 
136928000     277.3827    310.62765    272.27138   -1.0895072 -0.038903849    38.356261    40.042945 
136932000    275.25459    294.40192     298.6985    0.2266784   -2.0536285   -4.2965738    40.039157 
136936000    269.21255    306.93325    278.35132   -2.7903581  -0.45756512    28.581931      40.0471 
136940000    282.25954    329.43088    304.80314   -2.3878834   -1.2249656    24.627736    40.044819 
136944000    270.95521    327.54475    274.14042   -2.8301329   0.81004574    53.404329     40.05254 
136948000    271.75952    314.15979    276.82628   -1.8981594  -0.75299513    37.333509    40.036186 
136952000    276.66069    322.82856    273.48733   -3.2254187   0.15849263    49.341232      40.0375 
136956000    277.92271    305.41831    285.58759   -1.9027939   0.40054298    19.830727    40.028035 
136960000    271.22882    307.86734    278.94071   -2.3161929   0.39395906    28.926637    40.033865 
136964000    280.32908    319.35625    273.65688   -2.4043762   0.81771094    45.699371    40.035709 
136968000    275.74774    297.36787     286.5166   -1.9372955   0.15405832    10.851265    40.028266 
136972000     277.1056    312.10507    280.57209   -1.7826797   -0.6619254    31.532973    40.027863 
136976000    280.40187    337.98222    290.87813   -3.3796578   0.18658073    47.104093    40.028778 
136980000    281.92476    327.40001     282.4442   -4.8623985  -0.26307191    44.955811    40.021814 
136984000    286.36163    304.91849    300.12783   -2.2685843   -1.6086437    4.7906513    40.019792 
136988000    284.36621    337.72621    287.07178   -3.3380815   -1.0882244    50.654437    40.016923 
136992000    277.06852     295.8761     282.6812   -1.9717386  -0.90166864    13.194899    40.020649 
136996000    270.11616    304.27485    283.31966   -1.9599883    -1.376252    20.955191    40.013588 
137000000    275.75537    315.80014    270.35718   -1.5936684   -0.9095177    45.442953     40.01321 
137004000    286.05159    337.80788    278.66323   -3.2189175  -0.67201684    59.144655    40.014692 
137008000    279.30583    318.05499    280.20458    -3.038658  -0.94851043    37.850408    40.011349 
137012000    281.24286    343.81517     270.4599   -3.8311159  -0.81014304    73.355262    40.010517 
137016000    279.72621      311.628    278.80321   -2.7923518   -1.2893725    32.824789    40.007288 
137020000    282.75778    311.90849    296.42333   -2.9475726   -1.2636113    15.485166    40.003067 
137024000     278.7063    315.56577    271.69251   -2.9285989  -0.39616843    43.873259    40.007653 
137028000     275.5987    319.40608    259.96118   -2.2023478   0.40501366    59.444898    40.003183 
137032000    286.41005     311.8353    292.44673   -2.4704417    -2.368464    19.388565    40.005246 
137036000    278.07683    315.53517    274.17651   -2.7039172   -0.5420596    41.358663     40.00396 
137040000    275.92823    330.79866    248.47661   -3.0376627  -0.41705251    82.322053    40.017088 
137044000    284.68952    345.11088     283.4222   -4.0858464   -1.7474215    61.688688    40.014415 
137048000    277.10301    335.69415    274.83625   -1.9351701  -0.49857848    60.857898    40.021698 
137052000    278.76786    315.14202    289.95323   -2.4795074   -1.0441137    25.188795    40.031784 
137056000    275.12629    302.96855    293.29613   -1.4219225   -1.7116737    9.6724215     40.02675 
137060000     275.7029    307.85718    280.60203   -1.6839924   -1.5661577    27.255141     40.02663 
137064000    278.79363    311.35731    290.35865   -1.4308933   -1.4769207    20.998658     40.03464 
137068000     285.9016    327.13992    283.16718   -2.6755069   -1.4147646    43.972744    40.043568 
137072000    276.87845    318.96918    289.29109    -1.664767  -0.76857656     29.67809     40.04766 
137076000    276.64977    317.47307    270.10044   -3.1802965  -0.47954508    47.372633    40.047223 
137080000    275.32776    328.80695    267.86327    -3.150547  -0.28168326    60.943671    40.053039 
137084000    273.60623    321.28907    276.72963   -3.5495726  -0.45636624    44.559443      40.0543 
137088000    290.39424    350.73927    268.96333   -4.5562318   -1.0568134    81.775941    40.058738 
137092000    285.16866    335.16836    283.00714   -3.7244279   -1.7089538    52.161217    40.051345 
137096000    284.91611    326.18854    288.52442   -3.3345843   -1.1864731    37.664116    40.051988 
137100000    273.50721    302.96803    287.69156   -1.2815063   -1.7430601    15.276472    40.047268 
137104000    283.90955    313.02149    307.97589   -1.4080533   -3.1385196    5.0456017    40.039986 
137108000    283.70453    320.42282    279.69175   -2.9992481   -1.6347237    40.731072    40.041318 
137112000    279.49795    321.30712    294.64461   -3.2168964   -1.2972438    26.662504    40.045992 
137116000     272.9171    296.10557     267.0662   -2.2351502  -0.32150009    29.039372    40.040854 
137120000    274.78566    310.44063    268.56951   -3.1922412  -0.14055192     41.87112    40.042949 
137124000    278.78939       302.12     295.1655   -2.2334343   -1.5354479    6.9545051    40.037237 
137128000    279.40809    319.73748    278.76003   -1.8460393   -2.1234404    40.977448    40.034589 
137132000    276.71167    299.65671    283.92429  -0.66725049   -2.4124128    15.732417    40.020743 
137136000    291.70317    346.12303    283.73975   -4.6146564   -2.5494195    62.383277    40.020453 
137140000    280.29687    322.89888    276.74296   -3.6807508  -0.19980821    46.155921    40.025543 
137144000    285.08718    314.98036    296.82039   -3.5107474   -1.8492489    18.159974    40.033989 
137148000    273.23202    300.05065     270.5495    -3.204236  -0.65572504    29.501151    40.044413 
137152000    275.16384     323.2598    260.89653   -3.2200456    0.8471518    62.363268    40.039549 
137156000    278.99958    340.49373    265.92775   -4.2580878    1.0074372    74.565981    40.044171 
137160000     285.0796    321.91787    282.46668   -4.3231976   0.44528504    39.451193    40.042976 
137164000     289.1541    339.32483    272.02448   -4.7610851   -0.8529177     67.30035     40.04705 
137168000    284.02553     317.9114    286.32562   -5.1448263  -0.72347456    31.585778    40.044796 
137172000    288.12049    327.39875    290.36033    -4.277183  -0.15427196    37.038421    40.055193 
137176000    272.50093    299.19589    292.14778   -2.2911209   0.34085085    7.0481181    40.048903 
137180000    278.26862    314.17621    298.21549   -2.4119545  -0.24474282    15.960719    40.051449 
137184000    270.37391    295.29357     293.2991    -1.305896   0.57204188    1.9944765    40.055394 
137188000    285.96644    366.82498    291.11995   -5.5510873  0.063595093    75.705035    40.065878 
137192000    265.50184    314.00253    264.03884    -2.455464     1.957208    49.963689    40.072066 
137196000    281.82139    342.95517    268.83745   -5.3390542   0.81100384    74.117723    40.072997 
137200000    266.01596    318.17097    257.61352   -3.3935897    1.9601534    60.557452    40.074042 
137204000    275.93964    305.04679     302.1388   -1.8795931  -0.73522507      2.90799    40.058804 
137208000      280.838    307.49927    290.55906    -1.795224   -2.1826193    16.940213    40.060761 
137212000    280.06499     338.8795    288.00867   -3.1613443  0.074226929     50.87083    40.072082 
137216000    275.60014    312.57449    287.08596   -2.9015616  -0.17329095    25.488526    40.071541 
137220000      271.584    311.85624     282.2503   -2.7177493    0.5708936    29.605945    40.072375 
137224000    280.29983    331.25571    272.12474   -4.1802668    1.4336612    59.130965    40.073941 
137228000    279.82686    318.01148    296.24603   -2.7371647  -0.97815302    21.765443    40.067878 
137232000    277.86672    329.91965    282.31917   -3.3895463 -0.0057569018    47.600476    40.078229 
137236000    283.49825    333.77233    291.41266   -4.3833495  -0.65847869    42.359669    40.078938 
137240000    275.10531    331.76468    277.36063   -4.9811268    1.0399739    54.404057    40.087394 
137244000    270.51197    313.02035    258.19123   -3.5305005    2.4211717    54.829124    40.087561 
137248000    275.73728    325.33161    274.86337   -4.0887026    1.1482974    50.468235    40.088505 
137252000    280.56515     319.6895    268.27002   -4.1312833    1.6258465    51.419486    40.099729 
137256000    279.59326    319.04293    313.31498   -4.2654666   0.38698084    5.7279503    40.106166 
137260000    277.51216    313.56388    285.64832    -2.765961    1.9633661    27.915561    40.108047 
137264000    274.26692    340.78103    271.75479   -5.1843414      1.46286     69.02624    40.110867 
137268000    284.57271    335.74739    292.36054    -4.639348  -0.54286098    43.386844    40.109709 
137272000    269.74643    306.05323    278.65709   -2.9510387    1.0467055    27.396133     40.10565 
137276000     264.6461    311.62263    267.12964   -2.7761448    1.5412476    44.492988     40.10753 
137280000    271.07947    303.72893    266.82324   -3.0964093    1.3192885    36.905694    40.108331 
137284000     278.1777    321.60288    272.18806   -3.5324718   0.56890186    49.414822    40.103327 
137288000    277.72814    323.60262    283.18927   -4.2162966   0.42559002    40.413348    40.103335 
137292000     273.7085    323.41538    268.69976   -4.8591279   0.37491515    54.715623    40.110426 
137296000    262.92502     299.2225    265.40476   -3.7158034   0.82953552    33.817739    40.104542 
137300000    265.79877    309.98552    271.85556   -4.2016813    1.5861071    38.129953    40.095224 
137304000    271.48051    302.04081    285.35571   -4.0045223   -0.1663531    16.685104    40.092711 
137308000    269.20622    303.98292    267.71452   -4.0140194    1.4420738    36.268405    40.094368 
137312000    278.06474    341.15215     262.2694   -4.5728339    2.3127517     78.88275    40.094444 
137316000    282.55745    335.22748    274.78076   -4.4592785    1.4286055    60.446725    40.093708 
137320000      269.999    331.49189    262.89177   -4.0715443    1.6622903    68.600124     40.09192 
137324000    279.13297    321.62212    276.39382   -3.7080915   0.99624925    45.228304    40.092516 
137328000    279.27528    346.44545    274.16978   -5.1887942     1.226006     72.27567    40.079946 
137332000     280.5121    328.78399     295.0785   -3.5636543  -0.10331457    33.705486    40.077772 
137336000    272.84149    302.91804    289.83086   -1.8782211    0.7186399    13.087182     40.08482 
137340000    268.64481    330.28692    256.29323    -1.995441     2.027008    73.993693    40.088577 
137344000    285.75928    347.46818    295.62362   -4.4425326   0.14156657    51.844553    40.084459 
137348000    274.77981    312.42921    284.55269   -3.3844347   0.54081144    27.876514    40.080096 
137352000    272.87086    327.60272    268.79797   -4.2414214    1.8444285    58.804754    40.076363 
137356000     279.8818    318.77229    278.98018   -4.1371239    2.0238431    39.792103    40.081312 
137360000    278.12827    357.59898    269.96854   -6.2243715    2.1907717    87.630444    40.085124 
137364000    272.08502    324.83817    270.81024   -3.5084312    2.2342128    54.027923    40.078713 
137368000    276.65011    313.63644    288.30913   -5.3653152   0.94501287    25.327307    40.081255 
137372000    268.23192    300.60957    268.77471   -3.8362252    2.3686764    31.834864    40.074953 
137376000    279.34719     321.8628    296.74166   -4.8139427   0.94107734    25.121145    40.071122 
137380000    276.01164    323.65422    262.93145   -5.8265647    2.0550027    60.722777    40.083709 
137384000    275.56122    316.03426    280.36597   -4.3455169   0.46285376    35.668288    40.081458 
137388000     282.3445    339.03948    266.86321    -5.981036    1.7979342    72.176272    40.085696 
137392000    278.61337    329.05022    272.31876   -4.7242386    2.0252239    56.731452    40.088009 
137396000     278.7486    313.90472     289.5579   -3.8377727   0.75156788    24.346822    40.083251 
137400000    280.22895    303.35544    304.43034   -2.7817672   0.12889342   -1.0749005    40.083701 
137404000      273.131    312.14989    282.51757   -3.8074175    2.1293012    29.632325    40.090536 
137408000    284.35031    343.36706    297.01641   -4.9645617    1.1891754    46.350646    40.104687 
137412000    274.39951    316.90019    276.62514   -4.2173863     2.215129    40.275048    40.098589 
137416000    287.57124    339.05132    287.73441   -5.4012219    1.2694411    51.316911    40.103719 
137420000    274.51284    317.25298    279.80103   -5.6763858    1.6200964    37.451952    40.101389 
137424000    273.46572    312.07443    266.00845   -4.0649756    2.8784343    46.065981    40.103914 
137428000    288.84815     334.8014    281.80934   -4.6314729    1.9931464    52.992067    40.098751 
137432000    283.53467    328.41069    298.93999   -5.4521739   0.45793545    29.470694    40.099532 
137436000    272.28162    324.54918    266.29606   -3.7272311    2.9116467    58.253123    40.095465 
137440000    267.66162     315.5062    263.09811   -4.3746232    2.3408106    52.408084    40.095919 
137444000    279.81595    343.75805    279.69425   -6.0042133    3.3535573    64.063804    40.099164 
137448000    287.50559    340.75886    289.19344   -6.0203094   0.67707602    51.565422    40.104427 
137452000    273.78891    312.47426    266.39614    -3.189472    2.3028157     46.07812    40.119742 
137456000     273.2621    327.46985    264.87669   -4.7414614    3.4141685    62.593164    40.125735 
137460000    288.06996    348.31483    280.37352   -6.2974028    2.4368332    67.941316    40.125578 
137464000    279.79546    357.78343    272.63416   -6.6148912    1.8699824    85.149264    40.126434 
137468000    279.16004    322.28746    271.87865   -4.9991881    1.9019379    50.408818    40.128819 
137472000    276.61638    327.53659    274.39336   -4.8042171     1.506766    53.143223     40.12545 
137476000    279.92036    337.13272    276.25212   -5.5652518    1.0233291      60.8806    40.124161 
137480000    270.52171    326.49165    275.87661   -4.3517589    2.0901096    50.615041    40.122793 
137484000    269.04902    295.88758    270.91893   -4.6741343    3.0224241    24.968649     40.12177 
137488000    278.48833    318.82544    285.21169    -5.837345    1.6255269    33.613745    40.113273 
137492000    268.20688    310.17983    270.75618    -5.176554     2.172947    39.423657    40.120868 
137496000    281.86728    321.48797    295.03799   -5.9518126   0.92811686    26.449983    40.116129 
137500000    270.30785    322.54003    274.49443   -5.5137979    2.2682208    48.045601    40.113721 
137504000    283.05273     329.3442    279.24759   -6.9469817    1.8528462    50.096609     40.11171 
137508000    276.78726    337.76173    258.16246   -7.0034767    1.9856978    79.599272    40.118389 
137512000     270.4636    319.66702    270.48428   -5.3025833    2.2741592    49.182746    40.115968 
137516000    282.19539     316.6548    295.32903   -4.2446408    1.6409494    21.325768    40.121468 
137520000    287.36496     335.0068    313.28115   -5.8432351    1.4930583    21.725656    40.121214 
137524000    270.41272    292.52548    282.36226   -3.7627927     2.803589     10.16322    40.132765 
137528000     272.7559    314.07049    271.63062   -5.2370034    2.9157098    42.439869    40.137599 
137532000    277.34471    337.92546    277.71041   -6.6542605    1.7591936    60.215052     40.13825 
137536000    275.36434    292.38159    316.55428   -4.4383451    1.5837273   -24.172697    40.135034 
137540000    286.00052    353.94159    266.74363   -8.2644577    3.8637952    87.197958    40.139408 
137544000    285.84196    346.53712    292.69542   -7.1405557    2.9641275    53.841696    40.137243 
137548000    277.50965    344.58728    279.09252   -5.9787158    1.9682499    65.494763    40.140138 
137552000     273.8245    313.66982    268.55499   -3.5103013    3.2141945    45.114825    40.140204 
137556000    278.36323    346.27416     270.5242   -6.4440864     2.734416    75.749964     40.13998 
137560000    268.95583    333.56277    254.52725   -5.1786304    3.9041917    79.035525    40.142771 
137564000    273.80259    310.79426    291.46993   -3.9142125    2.1755485    19.324326    40.148601 
137568000    274.05691    319.14741    294.69475   -4.8420442    2.3935848     24.45266    40.149585 
137572000     275.4194    327.46689    271.75797   -5.3961937    3.2916272    55.708916    40.140101 
137576000    280.54204    333.46114    300.25458   -6.0145101    1.1455974    33.206564    40.138877 
137580000     273.7504    329.96736    285.66946   -4.5524517    2.0365252    44.297907    40.142534 
137584000    273.25922    341.73069    267.98701   -5.4814815    4.1731232    73.743681    40.147601 
137588000    266.86797    292.62846    294.62187   -3.2168503    3.0608428   -1.9934107     40.14589 
137592000    269.76128    319.36291    270.81372   -3.9206905    3.8536043    48.549191    40.147732 
137596000    277.09399    299.55748    301.91951   -2.5724619    2.7424045   -2.3620335    40.152414 
137600000    266.72997    327.97477    257.69256   -3.9889688     4.752548    70.282211    40.150946 
137604000    273.78695    333.07931    282.26731   -3.4694796    3.1714139    50.812001    40.158472 
137608000    270.75698    321.66767    287.56631   -3.2101448    2.2077223    34.101361    40.159898 
137612000    274.62028    336.63453    280.98458   -3.3181673    4.1524392    55.649943    40.163845 
137616000    271.34332    322.21243    284.93656   -4.8841722    3.5388528     37.27587    40.162049 
137620000    274.24531    319.68025    285.97448   -3.5570515    2.0182651    33.705768    40.171282 
137624000    270.21666    327.74731    263.73134   -5.1192916    4.6772722     64.01597    40.171152 
137628000    275.99375    321.45961    279.98493    -4.772472    3.2432099    41.474675     40.16644 
137632000    277.80805    325.44692    269.39084   -4.3302723    3.2762619    56.056076     40.16787 
137636000     278.4732    337.73684    276.10783   -5.7562872    3.1756547    61.629013    40.171556 
137640000    272.02952    316.61402    284.89847   -3.8681165    3.5242819    31.715546    40.169141 
137644000    265.94985    309.59604    278.41769   -3.7245479    3.1562273    31.178346    40.183903 
137648000    272.74803    338.54644    277.86282   -5.5623535      3.37267    60.683619    40.187213 
137652000    270.33257    324.75876    274.25287   -4.7260047    3.4946985    50.505899    40.188529 
137656000    270.78504    299.86935     275.5226   -3.6411271    3.6193791    24.346757    40.191228 
137660000    285.09826    327.64104    302.67144   -5.2114966     2.460882    24.969594    40.196102 
137664000    268.05631    339.51921    266.28697   -3.6939392    3.5998079    73.232239    40.199255 
137668000    266.97062    336.04578    271.36617   -5.9689168    4.4840509    64.679613    40.201339 
137672000    270.39725     304.0225    272.32955   -4.6173279    3.5728444    31.692945    40.205026 
137676000    275.60986    327.00401    275.44133   -4.8890546    3.1929256    51.562684    40.201784 
137680000    269.27795    306.79617    277.59107    -3.970362    3.1778287    29.205101    40.208426 
137684000    283.67214    334.56183    299.29391   -4.0891307    1.8781204    35.267919    40.201982 
137688000    269.60346    328.67743     272.5242   -3.7650383      2.56447    56.153232    40.208301 
137692000    266.42066    311.07082    282.59139   -3.5409821    2.0334785    28.479425    40.205726 
137696000    274.15189    317.55141    304.18357   -3.6607199    1.4178577    13.367836    40.212053 
137700000    271.41601    334.15704    284.25992   -5.5506896    2.2130687    49.897124     40.21646 
137704000    274.79726     348.9698    274.94087   -5.7112956    3.3937316    74.028934     40.22108 
137708000    263.39641    320.87708    271.10329   -3.9765574    3.7919557    49.773786    40.220007 
137712000    281.85333    335.34724     277.3952    -4.369726    3.0687034    57.952038    40.226933 
137716000    257.92847    282.17486     279.3481    -2.015579    2.9231206    2.8267538    40.217793 
137720000    273.52474    343.46672    283.87348   -5.4792783    2.2912869    59.593242     40.21438 
137724000    275.26552    317.91544    294.65258   -4.2218209    1.8090997    23.262857    40.211444 
137728000    283.49077    325.32929    299.72288    -4.200693   0.87391475    25.606414    40.207429 
137732000    273.07999    325.53681    291.78887   -4.1564434    1.2179026    33.747937    40.199965 
137736000    274.87864    313.61092    267.06879   -3.9567867    2.3862764    46.542126    40.197998 
137740000    275.91673    317.03419     272.4331   -4.1425309    2.3144801    44.601088    40.194378 
137744000    292.04214     369.1807    284.84654   -7.0856586    1.7052038    84.334159    40.194259 
137748000    278.23285    334.13992    275.36093   -5.3965817     1.686569    58.778993    40.194538 
137752000    273.76062    313.66343    274.44604   -3.1727742    2.1095574    39.217389    40.190571 
137756000    267.82138    310.37614    275.72331   -3.7062739    1.4967014    34.652833    40.191494 
137760000    272.82677    316.42542    279.01288   -4.7003927    1.7050958    37.412545    40.189682 
137764000    269.74149    317.04792    267.81774   -3.9122406     1.720208    49.230178    40.176259 
137768000    276.10717    310.62284    289.32115   -4.9813388    1.3151438     21.30169     40.16744 
137772000    285.25929    360.42269    283.78933   -5.8534107    1.6292541    76.633361    40.166911 
137776000    275.74824    319.56428     284.1875   -4.6772991     1.904548    35.376783    40.172055 
137780000    272.03801    324.08613    274.24522   -4.3254742    2.4079004    49.840915    40.176221 
137784000    267.78172    308.81108    272.85946   -3.4260024    3.4403448    35.951619    40.170225 
137788000    274.52734    317.23491     273.3084   -3.4770292    3.3320884    43.926507     40.17907 
137792000    270.79023    317.83995    277.21534   -3.6820901    2.8358721    40.624603    40.171958 
137796000    271.92846    318.06368    280.81655   -3.8301166    2.3499607    37.247131    40.176501 
137800000    270.15361      318.425    276.33588    -2.821704     3.492928     42.08912    40.172652 
137804000    271.23329    318.52944    289.24947   -2.6466775    2.9328508    29.279969    40.170762 
137808000    265.42368    305.38299    283.66084   -3.2871379    3.8203245     21.72215    40.170078 
137812000     274.6593    328.18544    288.00896    -4.807142    3.7948369    40.176476    40.168901 
137816000    271.13485    337.68796    274.04281    -4.140593    3.6422375    63.645147    40.174771 
137820000    269.65944    342.98767    253.28572   -3.0139841    4.0730446    89.701958    40.173707 
137824000    280.38243    327.51548     284.1252   -4.1654298    3.9546861    43.390272    40.175677 
137828000    276.60714    333.35381    275.55899    -4.140484    3.6725189    57.794826    40.175831 
137832000    269.61901    306.69095    282.93759   -2.6991539    3.0479216    23.753358    40.183226 
137836000    275.11959    310.54997    295.07392   -3.1499673    2.2369715    15.476045    40.179266 
137840000    274.80286    329.66136    287.03741   -4.1847395    2.1992867    42.623948    40.174405 
137844000    265.85363    310.85487    281.85932   -3.0619179     3.381468     28.99555    40.175628 
137848000     272.5088    319.32806    281.36143   -3.6066986    3.8725838    37.966624    40.174587 
137852000    277.11298    333.13153    287.47765   -4.5325817    2.4429227    45.653878    40.171035 
137856000    280.06324    319.07014    309.77092   -3.1543561    1.1231529    9.2992157    40.171343 
137860000     276.9876    342.31023    299.63777   -5.2662343    2.2213075    42.672465    40.167541 
137864000    271.89465    319.77509    292.70503   -3.2051186    2.9770972    27.070065    40.160582 
137868000    267.62819    338.39106    294.76655   -3.4755679    2.6417755    43.624509    40.171281 
137872000    269.08394    312.03932    281.87233   -2.9074153    2.8688479    30.166997     40.17846 
137876000      278.176    332.20553    293.16687   -3.7861331    3.2756353    39.038658    40.181947 
137880000     278.0263    336.90615    292.36612    -4.202063    3.1814455     44.54003    40.183081 
137884000    266.60178    319.24612    267.22759   -3.3123606    4.1001346     52.01853    40.186506 
137888000    280.51204    332.65578    298.85174   -3.5799955    2.1163184    33.804035    40.190069 
137892000    276.47504    340.93823    295.59228   -3.3213172    2.3156557    45.345946    40.189924 
137896000    272.95134    300.44375     298.8634   -1.3133855    2.2535044    1.5803544    40.189289 
137900000    277.66008    339.07632    281.84381   -3.7446061    3.0016109    57.232509    40.183392 
137904000    262.58991    321.00228     277.4264   -3.9999893    4.1711344    43.575882    40.180108 
137908000    257.63476    294.92796    267.96253   -2.8457077    3.7631932    26.965433    40.173637 
137912000    266.82004      299.974    295.35923   -2.6414392     2.884665    4.6147759    40.176297 
137916000     272.7153     334.1385    275.20374   -3.9960856    3.7500805    58.934768    40.175175 
137920000    281.22163    339.19938    273.96348    -5.409403    3.9454748    65.235895     40.17186 
137924000    270.69511     314.4443    294.95107   -4.1350518    2.7779569    19.493224    40.166372 
137928000    273.08244    324.73369    265.73121   -5.1613975    3.7722584    59.002478    40.172715 
137932000    271.03494    320.27558    275.69909   -4.9449811    3.4317452    44.576489    40.176411 
137936000    286.86937    337.99306    312.38673   -5.7610746    2.2193529    25.606328    40.171235 
137940000    278.10564    310.93816     284.4682   -5.6882101    3.5580621    26.469952     40.16933 
137944000    277.49368    319.73361      290.369   -5.9728681    3.5986712     29.36461    40.170938 
137948000    272.40135    304.69342    277.58582   -4.3908992    3.7003044    27.107604    40.174104 
137952000    274.72743    312.91594    277.76259   -3.3522959    4.1344208    35.153356    40.176776 
137956000    268.55209    329.64184    283.06974   -5.1364861    3.3403018    46.572104    40.172056 
137960000    282.57398     356.7716    266.46488   -6.7078946    4.4207528    90.306719    40.175304 
137964000    273.24418      322.757    300.45471   -4.7716784    2.5411261    22.302288    40.175087 
137968000    272.24844    331.17401    265.29847    -5.192177    4.9919049     65.87554    40.170371 
137972000      275.965    337.19386    276.48936   -5.9784842     4.090393    60.704498    40.171929 
137976000    265.10753     309.9473    266.41607   -4.1923135    3.5593526    43.531227    40.166983 
137980000    276.11038    325.47758    259.63553   -5.2631046    3.8218608    65.842044    40.162833 
137984000    280.16337    324.94472    285.89652   -5.4259798    3.2258586    39.048201    40.167071 
137988000    272.42788    314.25164    270.74991   -5.0373349    3.2491196    43.501733    40.164479 
137992000    268.76102    320.22821    272.32089   -4.7756036    2.9615854    47.907326    40.170311 
137996000    279.71571     331.0143     284.3551   -5.3364119    2.3710796    46.659195    40.176612 
138000000    276.65161    327.46789    271.21309   -5.3073785    3.6146545      56.2548    40.173548 
138004000    269.69118    310.62921    297.82212    -4.019651    3.6609624    12.807089    40.174404 
138008000    270.20068    320.19736    296.41849   -4.1726696    2.3495276    23.778867    40.171475 
138012000    269.76375    324.62712    270.59354   -4.7469932    3.7612257    54.033587     40.17318 
138016000    281.63766     346.8546    293.28937   -4.6914566    2.8844807     53.56523    40.177751 
138020000    270.73157    307.05204    280.74332   -3.8502906    3.6018341    26.308727    40.175146 
138024000    273.58364    312.83873    280.32641   -4.0451369    3.7238345    32.512314    40.182242 
138028000    272.14124    333.79922    281.51924    -5.493342    3.9024431    52.279984    40.174645 
138032000    275.29907    336.58227    284.82176   -6.4846735    3.9276159     51.76051    40.173584 
138036000    273.96705    316.07893    262.20389    -5.834107    4.5140935    53.875036    40.173955 
138040000    274.95852    317.18384    296.61245   -5.2255909    1.4489887     20.57139    40.171403 
138044000    278.96564    332.00779    276.58382   -5.8325569    3.0477195    55.423974    40.173098 
138048000    276.36804    320.50053    272.29771   -5.1161787    3.7752194    48.202816    40.179371 
138052000    274.01828    325.09063    278.59414   -4.8719935    4.4611924    46.496487    40.189433 
138056000    276.55784     330.5771    277.23868   -5.8384046    4.0123614    53.338421    40.189778 
138060000    277.20846    328.40685    301.54955   -5.9149429    3.1131297    26.857303    40.183529 
138064000    279.52334    335.94867    293.78545   -5.8571154    2.8561799    42.163217    40.174881 
138068000    273.20151    317.62142    287.53563   -5.1895837    3.3736566    30.085791    40.167788 
138072000    273.58704    325.30661    280.32336   -6.9295114    3.6747143     44.98325    40.168946 
138076000    270.87082    320.35895    267.14878   -6.6512653    4.2543503    53.210175     40.16506 
138080000    280.41655     325.7434    269.48183   -6.7054784    4.9957108     56.26157    40.162986 
138084000     279.1817    340.47735    298.09692   -7.0782447    3.4775544    42.380432    40.160034 
138088000    270.40036    325.31764    268.88358   -6.2150865    4.1663235    56.434062     40.16244 
138092000    276.59297    316.34527    268.75925   -7.0390993    4.7262041    47.586011    40.168317 
138096000    265.71092    323.29567    261.09707   -5.7161958    4.8234452    62.198601    40.174277 
138100000    285.27164    335.82052     289.7027   -7.2608537    2.5352734    46.117823    40.172416 
138104000    278.32569    313.20697    300.26005   -6.0311585    2.7609085    12.946917    40.175408 
138108000    276.73056    310.19339    281.84151   -6.0295163    3.0014582    28.351876     40.17412 
138112000    275.83312    307.12158     285.0183   -5.3769298    2.7968583    22.103277    40.169757 
138116000    279.98733    325.44765    275.02046   -7.3772611     2.712575    50.427188    40.165904 
138120000    280.78343    332.54225    283.35446   -7.0941046    2.4647919    49.187793    40.171183 
138124000    269.71467    297.07448    286.63973   -4.8752066    2.8009025     10.43475    40.169712 
138128000    278.53593    322.64514    274.11192   -5.0860238    3.4094997    48.533213    40.165767 
138132000    287.26274    336.81222    293.34723   -5.5100963    1.9699253    43.464988    40.162573 
138136000    291.22282    379.42758    293.76174   -9.1064566    2.8087226    85.665837    40.158697 
138140000    275.40473    337.10175    275.73538   -5.5350895    3.3949771    61.366371    40.165346 
138144000    281.78816     304.9279    297.27816   -5.5401498    1.9653616    7.6497411    40.159394 
138148000    278.51717    303.29104    300.64754   -5.1016683    2.1640067    2.6434991    40.161066 
138152000     264.8593    304.62425    263.88355   -4.5919333     4.651705    40.740699    40.162214 
138156000    271.06993    308.50105    281.53886   -4.5055366     3.690509    26.962192    40.163068 
138160000    274.52298    325.59395    297.31809    -5.977135    3.2151937    28.275859    40.167099 
138164000    277.91203    328.01057    273.10987   -6.5187215    3.3416654    54.900701    40.167293 
138168000    281.66146    331.64585    287.39709   -6.2676086    3.7469354    44.248768    40.165338 
138172000    283.61909    355.38397    280.78158   -5.7209912    3.1678782    74.602396    40.170276 
138176000    282.26972    324.28597     306.6456   -4.5365922     2.904826    17.640371    40.166827 
138180000    275.06912     322.4592    284.60955   -4.9017709    3.5203818    37.849649    40.162813 
138184000    274.19637    348.15466    267.24541   -5.9315762    4.2328874     80.90925    40.165385 
138188000    276.97003    314.28613    275.98913   -4.2399134    3.2789269    38.297004    40.163562 
138192000    272.81226     308.5134    282.23324   -4.4626908    4.4245081    26.280154    40.157852 
138196000    267.80141    292.17012    289.72137   -3.6950329    3.6513592     2.448749     40.15932 
138200000    274.11456    331.96505    269.49013   -5.4779313    4.4317471    62.474915    40.161741 
138204000    279.66082    326.28994    291.75008    -5.365272    2.7396483    34.539863    40.159929 
138208000     273.2079    320.75439     269.7958   -6.5865457    4.4823949    50.958585    40.161454 
138212000    278.47181    322.20321    269.93374   -6.0453163    3.2684653    52.269469    40.162382 
138216000    273.66368    305.99203    298.04232    -3.689436    2.2568903    7.9497085    40.161704 
138220000    268.26754    300.93138    276.97459   -3.3868185    3.3475115    23.956787    40.155789 
138224000    270.92002    337.04135    271.37071   -5.6362756    3.2174028    65.670642    40.159141 
138228000    273.95262    333.27313    274.78837   -6.3334096    2.8677223    58.484757    40.156641 
138232000     268.7108    302.28935     270.1885   -4.1396077    3.1293491    32.100843    40.157475 
138236000    269.70019    316.54737     258.2863   -4.5609231    4.7082266     58.26107    40.157877 
138240000    270.53535    311.71491     278.1459   -4.1096862    3.6890939     33.56901    40.153193 
138244000    277.36538    322.58576    292.21444   -4.9239149    2.3991288    30.371329    40.153833 
138248000     281.7629    318.90095    299.28624    -5.679912    1.8062723    19.614706    40.150598 
138252000    274.48767    320.49182    293.24009   -4.9126917    1.8113893    27.251733    40.147181 
138256000     278.4937    324.34274    273.46882   -6.7186614    3.4355945    50.873915     40.14449 
138260000     280.4833     319.8818    294.52171   -5.7624818    2.4159137    25.360082    40.142169 
138264000    269.98419    296.62843    282.45259   -4.4152376    3.5766581    14.175841    40.142877 
138268000    280.97862    323.70085    276.66949   -6.5740154    2.6192666    47.031359    40.134821 
138272000      278.724    324.76258    282.63519   -6.1537403    3.7298739     42.12739    40.136988 
138276000    274.28831    325.61392    271.61522   -5.3657432    4.2750965    53.998701      40.1306 
138280000    280.53375    306.73269     279.4178   -5.5287895    3.6536346    27.314889    40.133147 
138284000    282.77791     333.5097    295.74964   -8.0119114    2.5210487     37.76006    40.137309 
138288000    277.62815    312.81506    297.48625   -5.6715555    4.1974277     15.32881    40.139955 
138292000    273.71737    316.25837    289.97489   -5.2892283    3.4262066    26.283481     40.13716 
138296000    280.14285    331.10769    292.08811   -5.4119397    3.5571521    39.019584    40.137621 
138300000    269.84156    329.43745    271.91236   -6.4603369    4.3225019    57.525089    40.143557 
138304000    276.92557    313.25385    273.93474   -5.8282845    3.3148597    39.319111    40.136442 
138308000    280.00962    318.13763    283.75671   -5.0492887     2.891842    34.380916    40.129527 
138312000    276.68475    320.07626    273.12253   -6.1325092    4.2709092     46.95373    40.128726 
138316000    279.17163    341.68985    263.51678   -6.9129759    3.8842314    78.173069    40.126926 
138320000    271.58898    313.95609    281.40961   -5.8411357    3.3539284    32.546486     40.12951 
138324000    272.05317    322.97126    283.16322   -6.2918597    3.1228898    39.808042    40.125741 
138328000    274.15296    307.15181    280.44442   -4.2661498    3.9178934    26.707385    40.129281 
138332000     274.6979    331.45414    271.14559   -6.7986799    4.2201713    60.308556    40.133113 
138336000     269.4262    310.35708    264.25508   -5.5737633    4.3162769    46.101993     40.13412 
138340000    268.06738    292.17919    277.56796   -3.4737682    4.3049678    14.611229    40.135929 
138344000    276.08259    321.27392    273.02282    -6.555105    3.5170684    48.251099     40.13625 
138348000    276.97462    308.45095    283.36507   -6.5965157    2.4738745    25.085873    40.141642 
138352000    278.38833    336.99061    268.90295   -9.3813633    3.3825838    68.087667    40.149045 
138356000    275.14997    321.03988    274.55104    -5.230707    3.4117747    46.488842    40.149656 
138360000    278.97273    323.17105    278.76068   -7.0131928    4.5335719    44.410369    40.149045 
138364000    275.30005    324.75451    288.07178   -5.0978598    3.3779013    36.682734     40.14802 
138368000    277.04701    308.76213    288.81071   -4.8690336    3.8041033    19.951422    40.153152 
138372000    267.63906    306.81064    271.13461    -4.703726    5.2570389    35.676023    40.154136 
138376000    270.14829    330.92272    284.50337   -4.6722931    4.8662904    46.419354    40.157874 
138380000    270.93361    310.20079    287.42435   -3.4915029    4.7345893    22.776437    40.160109 
138384000    275.29487    309.64357    277.51235   -4.6968827    5.3713436    32.131219    40.165164 
138388000    268.27941    311.94493    276.99594   -4.3734458    5.8564266     34.94899    40.162376 
138392000    269.71505    321.86003    295.36089   -4.9019805     4.260263     26.49914    40.157514 
138396000    271.25099    320.74127    268.83643   -6.1931373    4.7898485    51.904843    40.158703 
138400000    278.70424    349.72624    279.33581     -5.73437    4.7843897    70.390427    40.157468 
138404000    265.31924    307.80371     274.9708   -5.4185843      4.70552     32.83291    40.157787 
138408000     270.4529    332.79434    269.99531   -6.5787996    5.4865393    62.799023    40.156656 
138412000    281.47029    322.30448    299.45638   -6.5081866    2.8454362      22.8481    40.152978 
138416000    278.92437     320.0621    299.86612   -6.5988677    3.7983924    20.195983    40.146289 
138420000    269.76594    315.10968    268.85683   -7.3141068    4.7674727    46.252851    40.147498 
138424000    272.71301    313.09042    290.02098     -5.32009    3.9401869     23.06944    40.139889 
138428000    271.25128    331.93891    257.89687   -6.3642173    6.0789499    74.042037    40.146892 
138432000    269.12981    319.01883    264.11635   -5.3832979    5.0327454    54.902486     40.14376 
138436000    274.06385    313.43809    283.26117   -4.9123765    3.6415104    30.176922    40.146253 
138440000    276.78953    327.38889    277.81846   -5.1486809    4.0519824    49.570433    40.141952 
138444000    275.77339    338.74952    277.05835   -6.5274522    4.2653801    61.691169    40.142274 
138448000    263.19495    300.95082    289.62566   -3.9483576    4.4989028    11.325158    40.142319 
138452000    269.38689    311.13394    275.47662   -4.8733434    4.6580791     35.65732    40.142766 
138456000    260.17079    311.84528    255.68093   -4.8307816    5.3499882    56.164352    40.138865 
138460000    268.73598     316.0835     268.4838   -5.2396709    4.4132776    47.599703    40.143805 
138464000    268.15395    327.97602    267.54907   -5.6422963    5.3959854    60.426949    40.141443 
138468000    270.46622    316.44116    285.75642   -6.3022841    4.6537615    30.684738    40.140177 
138472000    268.65001    320.97236    269.08774   -5.5918964    5.5549934    51.884619    40.142314 
138476000    273.08139    336.85821    284.57753   -5.7561324    4.1916022    52.280675    40.142231 
138480000    265.11902    310.31091    282.41631   -3.2127339     4.917596    27.894598    40.141932 
138484000     273.8642    302.70423    290.13041   -3.8528214     3.929759    12.573818    40.141787 
138488000    267.79061    303.57513    274.93967    -3.958711     4.424035    28.635465    40.133998 
138492000    269.34056    316.78993    270.78127   -5.9700465    4.9009842    46.008656    40.144137 
138496000    283.37961     342.7628    284.06312   -6.0212245    4.8418105     58.69968     40.14614 
138500000    284.77726    350.53761    300.55839   -6.8201844    4.5059687    49.979217    40.142732 
138504000     262.7047    291.00248    273.32053   -3.7136093    4.8566572    17.681953    40.139846 
138508000    269.52699    327.12379    271.27861   -6.8047818    3.9778372    55.845181    40.136681 
138512000    272.98493    322.06893    286.77545   -5.5902395    4.3824344    35.293482    40.137042 
138516000    276.82895    326.01201    273.33476   -6.4967057    4.2253026    52.677251    40.134494 
138520000    271.26526     336.7752    277.41964    -5.818248    5.6250611    59.355567    40.135432 
138524000     273.2289    321.71397    273.40821    -4.962545    4.7445418     48.30576    40.135954 
138528000    280.61019    332.49783    288.58276   -4.5112269     3.897086    43.915078    40.138104 
138532000    268.02218    320.58379    274.25421   -4.5009831     5.221561    46.329576    40.136132 
138536000    274.61018    340.44979    284.94903    -6.599519    5.8845072    55.500758    40.141709 
138540000    260.35526     296.1844    274.61968   -3.6754099     6.526757    21.564717    40.142239 
138544000    274.55703    335.50045    275.89794   -6.4556651    5.9396388    59.602507    40.146602 
138548000    270.64581    331.75949    286.27125   -6.8595963     5.142058    45.488245    40.139906 
138552000    279.94893    322.32557    288.12618   -5.2794023      5.27574    34.199385      40.1452 
138556000    274.87791    340.29099    269.37029   -5.7591008    5.5552956    70.920694    40.144255 
138560000    267.04907    327.38212    274.13472   -4.8889417    6.3624942    53.247403    40.141485 
138564000    273.00228    334.25868    288.35472   -5.5680202    5.7229158    45.903963    40.137837 
138568000    284.18766    354.62169    297.89987    -5.830122    5.2510205    56.721817    40.139327 
138572000    275.69797    336.97648    301.63607   -5.7898908    5.0892899    35.340409    40.145764 
138576000    265.82409    315.07536    293.22275   -4.5445254    5.2267958    21.852612    40.145683 
138580000     272.0166    302.46884    281.04113   -5.1554849    5.2030797    21.427706    40.146251 
138584000     271.7651      336.176    281.57825   -6.4831229    6.2055542    54.597745    40.147403 
138588000    272.45775    320.12676    287.48724   -4.5119039    5.0616208    32.639521    40.148455 
138592000    269.96665    323.37206    284.40357   -4.2221016    5.5628256    38.968493    40.150049 
138596000    266.77398    326.41964    276.92087   -5.5480244     5.328391    49.498774    40.152904 
138600000    275.15293    321.46061    291.37117   -4.9482591     3.983978    30.089443    40.152098 
138604000     264.2156    318.05674    281.25473   -4.4191867    4.9309046    36.802015    40.154673 
138608000    272.27141    313.75786    298.77545   -4.2062046    4.8008147    14.982408    40.157605 
138612000    275.98192    324.93033    284.57734   -5.2543474    3.7725423    40.352991    40.156166 
138616000      281.641    347.84506    287.74212   -7.6368885    4.6182772    60.102942    40.153669 
138620000    276.29306     326.7594    293.41174   -6.3021899    3.4533698    33.347659     40.15063 
138624000    274.88633    318.27719    281.80287   -6.0647467    3.1397993    36.474317    40.154117 
138628000    265.12457    304.43002    279.22402   -4.2507606    3.5614333    25.205996    40.159995 
138632000    279.59753    322.28883    280.93894   -6.1782128    2.8360604    41.349885     40.15812 
138636000    278.42653    305.71443    303.34125   -5.7043104    2.2994232    2.3731796    40.157413 
138640000    276.78039    350.72193    265.72337   -6.7124353    3.8893686    84.998562    40.161926 
138644000    269.64224    316.44097    281.14037   -5.3411514     3.468273    35.300605    40.160199 
138648000    269.70863    314.34738    275.23754   -4.9975327    3.9386331    39.109833    40.159937 
138652000    278.26817     326.0151    282.04648   -4.8576844    3.9469771    43.968615    40.168361 
138656000    268.80671    306.57456    274.90481   -5.6203248    3.8764284    31.669749     40.17119 
138660000    275.86195    314.42042     272.8762   -6.0338673    4.1075446    41.544218    40.169278 
138664000    268.55307    322.65348     279.5576     -6.30073    3.1671687    43.095874    40.166592 
138668000     267.1168    307.73085    265.96923   -5.2347201     5.031989    41.761621    40.166669 
138672000    279.47415    316.50616     299.4347   -6.2678461    2.8273964    17.071454    40.164833 
138676000    267.66711    296.13853    271.02179   -3.3567268    4.3468998    25.116742    40.162766 
138680000    282.83115    333.65301    299.56203   -5.3739343    2.4039078    34.090978    40.169913 
138684000    262.88791    303.16148    266.63492   -4.6678667    4.5215431    36.526557    40.168431 
138688000    274.09438    314.87909    290.63363   -5.4590461    3.4879248    24.245464    40.166113 
138692000    272.83739     313.6516    278.02851   -5.8291885    4.5570852    35.623092    40.167328 
138696000    266.73213     295.7473     271.4855   -5.6974231    3.7229983    24.261799    40.171183 
138700000    267.02311    316.72231    259.78874   -4.3367356    5.1965406    56.933562    40.168055 
138704000    274.03821    318.68686     269.8671   -5.2811773    4.7215403     48.81976    40.169158 
138708000    273.54814    332.03821    279.54166   -5.8695639    4.7022147    52.496551    40.168805 
138712000    265.10108    300.29092    272.39134   -5.3022193    5.5594755    27.899575    40.166474 
138716000    273.47985    323.34936    280.33041   -7.2848253    4.9556175    43.018942    40.166842 
138720000    270.77499    333.53134     275.3185   -6.5124801    5.4069494    58.212849    40.169043 
138724000    272.68343    322.53891    289.35073   -6.1583688    4.1162712    33.188173    40.169579 
138728000    270.02633    327.25776    265.35605   -5.1130468    5.2940257    61.901713     40.16896 
138732000    266.50872    314.95522    277.09102   -5.4868979    4.9014145    37.864196    40.169605 
138736000    270.38283    321.01181    282.17047   -6.1027117    4.1665583    38.841347    40.165294 
138740000    261.18362     304.7169    255.35983   -5.0484803    5.9963129    49.357073    40.169629 
138744000    263.06844    318.97138    267.81667   -5.8632114    5.0076039    51.154708    40.167643 
138748000    265.64936    324.13245    257.62404   -5.7449249    5.6996746    66.508415    40.167095 
138752000    275.08345    332.53953    291.66457    -6.169124    3.8045038     40.87496    40.169512 
138756000    275.84132    319.71562    283.13405   -6.6075015    4.3661377    36.581573    40.168451 
138760000    268.29261     332.5584    276.56211   -7.1534805    6.0287368    55.996291    40.165137 
138764000    271.90587    325.84685    280.35041   -6.6052679     6.076823    45.496443    40.166014 
138768000    269.91207    340.87843    278.12685   -8.4792564    5.2010164    62.751581    40.169356 
138772000    274.95072    329.56021    279.94037   -7.0506926    5.6829251    49.619841    40.173137 
138776000    266.88837     299.1578    284.41445   -5.1130221    6.1648952    14.743348    40.177583 
138780000     263.7088    306.41658    272.02048    -5.977966    5.8397282    34.396102    40.174729 
138784000    266.70269    317.88122    283.47895    -6.448657    5.3982132    34.402264    40.172172 
138788000    266.97461    305.46616     283.1814   -5.6036292    4.3544118    22.284766    40.171819 
138792000    272.68384    317.55554    278.71355   -6.4748932    4.9632347    38.841991     40.16919 
138796000    277.32659    329.28987    275.86383   -7.0746974    5.0988353    53.426041    40.172521 
138800000    275.89592    308.39558    284.37785   -7.0962916    4.3933756    24.017722    40.169081 
138804000    272.88173    300.55125     306.5046   -7.2222466    3.6626498   -5.9533483    40.165994 
138808000    268.04828     301.7044    267.32761   -5.1421108    4.3983889    34.376796    40.167876 
138812000    270.00767    324.98378    265.89087   -6.4880755    4.7107918    59.092904    40.169771 
138816000    269.46726    321.20075     273.4021    -5.621028    5.1286558    47.798645    40.167936 
138820000    270.94086    296.44992    284.36582   -3.9446949    5.5580684    12.084098    40.168263 
138824000    278.05762    349.74354    274.27795   -7.2970045    5.2170241    75.465587    40.168483 
138828000    278.44645    337.90296    282.32188   -7.0093884    4.8741649    55.581076    40.166386 
138832000    277.82176    340.23829    275.13609   -6.4424489    5.3797667    65.102201    40.168077 
138836000    264.63463     288.0756    277.45378   -4.2739814    6.1972155    10.621819    40.164694 
138840000    264.30743    303.24119    295.50486    -4.206144     4.757396     7.736326    40.159988 
138844000    269.90942    302.96492    297.18177   -4.4550041    5.1821164    5.7831474    40.153358 
138848000    271.05412    326.75553    274.07399   -5.4866034    4.5354971    52.681544    40.155674 
138852000    285.06966    353.55891    292.56052   -7.0287105    3.5802144    60.998387    40.151776 
138856000    267.45422    304.99113    297.41052   -6.1684132    3.7483193    7.5806067    40.144044 
138860000    268.59399    300.33476    279.54619   -6.0089086    5.0081568    20.788571    40.142716 
138864000    268.46526    315.79411    271.92317   -4.7731971    5.7177433    43.870942    40.144581 
138868000    269.57896    320.10665    277.82882   -5.7280823    4.7700155    42.277828    40.138954 
138872000    259.72687     316.1086    266.84155    -6.222175    6.3534494    49.267053    40.140411 
138876000    266.23019    312.18492    279.10187   -6.6410795    6.0443539    33.083044    40.139376 
138880000    273.78241    310.56277    289.20331   -6.6931295    5.5373056    21.359463    40.138073 
138884000    277.41426    333.90088    278.89382   -7.2931325    6.1695199    55.007055     40.14081 
138888000    278.08509    329.79278    305.66351   -6.8403241    4.4665951    24.129275    40.139529 
138892000    276.00159    347.42576    284.49372   -8.2611784    4.8602265    62.932037    40.142193 
138896000    273.31877    312.18479    277.39623   -6.0411988    6.1624403    34.788555    40.143822 
138900000     274.2002    320.67752    290.93888   -7.7887761    5.2802999    29.738642    40.143905 
138904000    270.70778    310.11348    281.53494   -5.8464475    4.5601755    28.578539    40.143459 
138908000    278.51726    317.44167     286.6971    -6.125322    3.6526785    30.744567    40.143661 
138912000    267.66596    305.70458     274.5236   -6.5955319    5.2025587    31.180983    40.144406 
138916000    268.62519    315.58802    272.00646   -7.8637119    6.3330975    43.581563    40.139399 
138920000    279.76363    317.63868     282.7325   -6.4365977    5.6619687    34.906184    40.144152 
138924000    273.54678    324.42799    265.90858   -6.8729864    6.1611576    58.519405    40.145647 
138928000    274.46761      310.404    287.99701    -5.741041    5.0799059    22.406989    40.145732 
138932000    267.65852    320.31897    264.16213   -6.7445956    6.6595136    56.156836    40.147487 
138936000    271.86298    317.26688    271.19221   -8.4295263      5.97623    46.074665     40.14896 
138940000    277.45837    319.10433    270.77082   -8.4328821    4.7326755    48.333514    40.144803 
138944000    280.09617    330.61349    285.73091   -8.7735984    4.9178927    44.882575    40.145142 
138948000    278.96675    332.46343    278.13343   -8.0476279    5.1433498    54.329997    40.142683 
138952000    277.17805    314.60317    286.03742   -8.3426815    2.9100299     28.56575    40.142213 
138956000    279.03977    311.74833    289.00524   -7.7064225     3.379844     22.74309    40.142511 
138960000    275.71236    294.91241    293.07423   -8.1192194    4.3338822    1.8381871    40.143045 
138964000    274.19684    317.64895     289.0767   -7.7281101    4.0684734    28.572251    40.140126 
138968000    272.79636    328.49122    271.85564    -8.180339    5.4560279    56.635581    40.137861 
138972000    280.80703    319.94129    290.27491   -7.1153244       5.0834    29.666374    40.136242 
138976000    277.31097    319.52811    283.60339   -7.3911825     4.900464    35.924718    40.135257 
138980000    276.83338    321.05717    264.82744   -7.5356361    5.9322466    56.229734    40.138613 
138984000    277.70531    328.56376    284.58988   -8.2765547    3.7740693     43.97388    40.133292 
138988000    272.37117    339.42543    257.52515    -6.609736    5.4599624    81.900283    40.130039 
138992000    276.07888    327.43212    290.15886   -6.9101849    4.0653536    37.273266    40.135506 
138996000    268.64532     309.3921     277.3282   -5.5193513    4.6983737    32.063906    40.138449 
139000000    275.34819    312.07705    294.21656   -5.9784881    3.6349443    17.860486    40.135648 
139004000    274.73503    310.44557    300.07258   -6.5408123    4.3231151    10.372986    40.134816 
139008000    279.75409    335.54734    279.68059   -7.6504629     4.745922    55.866749    40.135587 
139012000    279.52433    307.81307    279.07711   -7.1999558     5.473886    28.735964    40.130101 
139016000    277.31423    301.80968    279.24941   -6.6172512    3.3626667    22.560274    40.135642 
139020000    278.14513    316.37892    295.93301   -7.0161972    3.9174824    20.445914    40.139038 
139024000    272.53118    322.05774     268.0037   -7.2432298    6.6343323    54.054036     40.13713 
139028000    272.73611    319.78498    289.52833   -6.0425611    4.9136713    30.256649    40.138046 
139032000      281.469    333.09056    270.23184   -7.1836224     5.100135    62.858721    40.139912 
139036000    287.80718    331.19827    297.52633   -7.5204287    3.1210668    33.671936    40.144786 
139040000    269.42528    305.00374    287.95963   -6.1504906    4.8610678    17.044118    40.142224 
139044000    269.81117     314.2137    272.00839   -6.6703767    5.0572494    42.205308    40.143834 
139048000    270.31627    325.61999    267.90427   -6.2075482    4.5855242    57.715713    40.145795 
139052000    271.67145    319.78192    256.61178   -7.0182625    6.5511121    63.170148    40.153523 
139056000    270.62283    311.56527    285.58408   -7.0236818     4.511183    25.981187     40.15425 
139060000    273.49963    321.78025    279.37018   -7.8107702     5.057469    42.410065    40.151925 
139064000    271.88806    302.89802    267.58314   -8.1343617     5.394604    35.314873    40.149844 
139068000    276.54458    313.24354    304.48665   -6.6784288    4.2502041     8.756891    40.148548 
139072000    289.86323    358.87107    275.68879   -8.4657151    5.0304817    83.182283    40.146812 
139076000    274.23269    328.02202    270.32582   -7.7910142    5.1622705    57.696198    40.150821 
139080000    267.39761    322.73027    263.10949   -7.5001658     5.780752    59.620776    40.153476 
139084000    278.23688    306.69159    313.20409    -6.921823    4.6048774   -6.5124976     40.15185 
139088000    269.32713    300.58906    290.06035   -5.9755346    5.7432098    10.528709    40.153152 
139092000    277.11221    349.16127     272.2407   -9.6523608    7.3311484    76.920566    40.152268 
139096000    279.22037    325.77522    296.31406   -9.9231009    5.6176221    29.461158    40.150188 
139100000    268.71837    293.29248    282.97661   -7.9533325    6.4454442     10.31587    40.150447 
139104000     275.9082    336.52163     288.1123   -8.2405182     6.926979    48.409331    40.153555 
139108000    277.50391    327.53076    287.77156   -7.9056714    6.2797982    39.759196    40.156709 
139112000    278.73574    332.61355    292.96983   -9.2649727     5.434304    39.643714    40.160884 
139116000    280.18829    323.14095    291.40674   -8.0957923    5.7125797    31.734202    40.167658 
139120000    270.67689    306.70841    274.67248    -9.054843    6.2870333    32.035929    40.165694 
139124000    277.56278    329.54274    298.00831   -10.203232    6.3100576    31.534425    40.161863 
139128000    269.58027    327.60447    273.72922   -10.480116     7.180425    53.875245    40.162742 
139132000    272.75098    315.41008    263.13673   -7.8718764    7.3132547    52.273346    40.161181 
139136000    284.53533    344.42417    302.92257    -9.352446    4.9374853    41.501601    40.158295 
139140000    277.37533     336.7436    274.14921    -9.468982    7.0868205    62.594392     40.15798 
139144000    267.87631    328.40292    273.04316   -9.5972612    7.2034024    55.359756    40.162424 
139148000    267.27393    316.70143     260.4841   -7.8455351    8.3621821    56.217332    40.164174 
139152000    272.44551    342.95218    255.61636   -8.9582234     7.527867    87.335819    40.164592 
139156000    273.77452     307.8938    306.39458   -6.3508754    5.7236343    1.4992203    40.160313 
139160000    269.10773    326.15125     269.8237   -7.1343823    7.3112589    56.327552    40.160914 
139164000    263.02141    296.77317    292.31806    -4.432663    6.8956336    4.4551067    40.161951 
139168000    267.63384    319.99665    297.58665   -7.6058111    6.2459337    22.409997    40.160366 
139172000    273.09704     325.7112     279.9563   -8.1265666    6.9502675    45.754897    40.158623 
139176000    271.96766    310.29952    293.92395   -6.5918433    6.9848554    16.375576    40.156664 
139180000     277.0093    330.28005    291.68458   -7.6747558    6.1501023    38.595472    40.149913 
139184000    263.20555     299.2737    289.28038   -6.7597794    5.9679739    9.9933236     40.15208 
139188000    265.47651    314.69652    273.17976   -6.3731702    7.2757009    41.516757    40.151835 
139192000    259.36511    297.79034    251.99677   -6.3665256     8.116782    45.793575    40.145833 
139196000    281.32797    310.43985    282.14805   -6.9663089    7.1815401    28.291797    40.142653 
139200000    263.93643    304.77268    263.97937   -8.1401539    7.3022387    40.793312    40.146317 
139204000    275.01443    330.32615    271.26514   -8.3858014    6.7174696     59.06101    40.145492 
139208000    280.64327    325.72912    284.51429   -7.7485919    6.0313987    41.214825    40.144068 
139212000    269.28161    322.67752    271.71271   -7.5228683    7.5055583    50.964808    40.148638 
139216000    280.49416    321.34744    280.39998   -6.7785101    6.3417779    40.947458    40.152167 
139220000     264.2657    298.40798    267.16183   -5.7976621    7.0434186     31.24615     40.15285 
139224000    267.71829    295.90014    277.80595   -6.1087234    6.9529028    18.094199    40.154068 
139228000    270.35523     325.4815    258.40906   -8.4851437     8.361771    67.072435     40.15356 
139232000    276.81191    341.96027    282.25691   -8.0172664    6.0072784    59.703367    40.152935 
139236000    267.77109    333.14218    262.24881   -8.5084817    7.9587591    70.893371    40.153653 
139240000    270.63208    306.98448    285.03573   -6.2353371    7.2644728    21.948753    40.151309 
139244000    270.31861    337.61997    273.09091   -7.6757417    7.8969364    64.529061    40.154577 
139248000    269.63389    313.80218    280.95862   -6.7902221    7.9173114    32.843558    40.157377 
139252000    275.22218    341.61334    284.70113    -7.329265    7.7972335    56.912202    40.156431 
139256000    276.95941    333.45843    276.05092   -6.9125363    7.4475558     57.40751    40.159475 
139260000      275.018    317.55888    276.22162   -7.8928592    7.0044704    41.337253    40.159651 
139264000     271.7232    328.55103    280.45275   -7.1558236    7.4854188    48.098285    40.162469 
139268000    273.05459    327.29113    295.87793   -7.8902687    6.6141139    31.413202    40.164012 
139272000    263.08468    303.68591    265.88727   -5.9718793    8.2156014    37.798645    40.164016 
139276000    276.02197    339.75288    275.74628   -8.4779032    7.6378143    64.006596    40.161147 
139280000    275.23836    316.81384    291.80755   -7.7113935    7.2186736    25.006285    40.165894 
139284000    267.45827    306.69672    268.76266   -7.1419683    8.5264421    37.934062    40.169167 
139288000    271.21112    323.94909     284.5205   -7.9426191    6.7430501    39.428592     40.17012 
139292000    274.19878    342.70367    279.68874   -8.6352951     7.773145    63.014928    40.169914 
139296000    278.44945    348.11157    270.80008   -8.9632547    7.6631566    77.311493    40.169647 
139300000    270.26908    314.49967    291.60497    -6.770047    7.3126378      22.8947    40.166754 
139304000    269.95238    305.15322    293.36463   -5.8326949     7.883922    11.788592    40.167936 
139308000    264.01964    305.60236    281.68153   -7.9499888    7.8028783    23.920832    40.169302 
139312000    274.22426    326.89436    308.39884   -8.6396769    6.7767214    18.495517    40.172099 
139316000    274.14479    323.93639    288.61056   -8.4090932    7.6293332    35.325832    40.171082 
139320000    265.36818    310.79557    286.64795   -6.2728939    7.5418288    24.147614    40.169583 
139324000    270.83811    326.34309    264.18434   -7.7592018    8.3520709    62.158757    40.165785 
139328000    257.61247    298.46705    276.40431   -6.1425034    7.1641556    22.062741    40.162558 
139332000    266.99802    332.28267    273.03595   -8.1057949    8.1175033    59.246717    40.160218 
139336000    265.67668    313.34569    284.25084   -8.0029921     7.851825    29.094849    40.162228 
139340000    277.35303    343.34873     286.0967   -7.6204509    7.5697813     57.25203    40.160002 
139344000    262.86564    305.44899    282.55708   -7.5095347    7.0374959    22.891911    40.160759 
139348000     262.6934    322.56796    262.07148    -8.028623    7.8834522    60.496472    40.164612 
139352000    265.49521    332.23527     264.1452   -8.0882247     8.387336    68.090078    40.164779 
139356000     270.4795    313.55687    278.19139    -7.618972    8.1055977    35.365485    40.164143 
139360000    271.05765    333.91543     281.9528   -7.0887893    6.9249403    51.962626    40.167148 
139364000    280.69289    321.29854    323.18289   -7.6419915    4.6902092   -1.8843483    40.166364 
139368000    274.69384     304.5723     284.4425   -8.1632804    6.7947224    20.129792    40.164607 
139372000     277.1538    330.87213    295.49158    -8.633176    6.8592092    35.380548    40.161399 
139376000    270.85218    299.41996    284.12817   -6.2502947    6.6626197    15.291788    40.157337 
139380000    268.11176    324.82095    260.45541   -8.2227815    8.5218594    64.365538    40.155704 
139384000     271.9996    322.30332    279.61662   -8.4274845    7.8911575    42.686695    40.150361 
139388000    275.20915    314.03091    293.63472   -8.3463724    7.3335311    20.396189    40.155662 
139392000    281.49337    332.86641    300.65094   -9.7909556    5.8910873    32.215473    40.154943 
139396000    272.12293    325.81052    278.30984   -8.1944688    8.3362732    47.500677    40.157732 
139400000    268.90595    302.75417    294.71871   -5.9796278    6.1863586    8.0354652    40.159986 
139404000    264.47792    298.63303    283.17581   -5.1352949    6.9544887    15.457221    40.159143 
139408000    258.82961    303.89748    271.94931   -6.7497953    8.5498209    31.948177    40.158077 
139412000    265.93521    311.38226    283.31406   -7.7087589    8.4937593    28.068203    40.165751 
139416000    278.78355      334.452    297.60854   -8.0411311    8.0049343    36.843466    40.167712 
139420000    263.73234    308.97381    275.49237   -7.7981451    8.6512135    33.481443    40.168179 
139424000    276.91076    346.03137    285.08091    -8.475216    8.4538909    60.950462    40.166364 
139428000    274.34248    316.56065    288.78479   -7.5146898    7.8315287    27.775865    40.169477 
139432000     264.8529    313.95133    286.65009   -6.4350452    7.4661591    27.301237    40.167203 
139436000    274.37066    348.41259     286.3749   -10.332701    6.9866664    62.037686    40.168664 
139440000    256.73555    292.58169     272.6578     -7.80814     8.904946    19.923889    40.166249 
139444000    279.76179    345.88441     272.4297   -8.8727779    7.8951101    73.454709    40.166984 
139448000    274.85159    331.07212     286.6491   -8.1235534    5.7284965    44.423028    40.168691 
139452000    270.34722    321.29573    281.79715   -7.2045941    6.3659799    39.498579    40.171412 
139456000     272.9397    323.50692    271.24936    -7.622003    6.8555301    52.257566    40.170766 
139460000    270.46527    343.11225    271.73892   -8.8050552    6.8505619    71.373328    40.165705 
139464000    266.63755    314.93079    275.81837   -7.3124642    6.6907806    39.112426    40.169874 
139468000    279.07354    332.35879    290.55143   -7.5971056    6.1288875    41.807358    40.172589 
139472000    269.47504    319.46708    258.47154   -7.1826934    7.2888546    60.995535    40.169249 
139476000     275.4048    313.28314    283.74548   -7.1083305    6.8050551    29.537662    40.167918 
139480000    270.26809    319.41926    288.50604   -9.0167315    6.2064167    30.913221    40.164574 
139484000    272.48438    309.19783    279.42776   -8.1641922    6.2248702    29.770074    40.161499 
139488000    283.84739    343.91608    297.03052   -9.6477758    6.6146734     46.88556     40.15891 
139492000    273.54617    308.46315    286.85462   -8.0016773     6.052452     21.60853    40.158047 
139496000     270.7838    313.17117    274.93872   -8.5554429     6.449841    38.232443    40.161682 
139500000    266.47845    323.52926    262.34565   -7.4810025    6.7311742    61.183616    40.162941 
139504000    266.27801    318.92157    273.91714   -8.5157825    6.4169558    45.004432    40.157134 
139508000    267.37228    300.81678    290.09552    -6.326401    5.9115706    10.721267     40.15736 
139512000    264.39146    294.70783     263.7416   -5.9750586    7.1784848    30.966224    40.153311 
139516000    274.84066    332.82256    282.42475   -8.3128115    5.2852044    50.397803    40.156336 
139520000    268.68797    318.30229    283.80295   -7.1481896    5.9797029    34.499342    40.159358 
139524000    265.90237    316.68444    275.99354   -6.6214422    6.3059359    40.690895    40.161815 
139528000    274.00335    305.27706    278.59624   -6.4922561    5.9320683    26.680818    40.164164 
139532000    265.76734    316.30456    271.93666   -7.0083532    6.7435301    44.367898    40.163243 
139536000     273.9133    331.73306      281.312   -7.9228743    6.1584631    50.421058     40.16442 
139540000    272.59541    329.46448     265.9478   -7.4495886    5.9942112     63.51668    40.169423 
139544000    267.72432    311.45811    269.83431   -6.5648013    6.2434421    41.623799    40.167049 
139548000    278.12535    333.93792    284.80334   -7.3413036    5.3494246    49.134581    40.166333 
139552000    281.95647    338.35772    287.70919   -8.3271773    4.9939756    50.648529    40.165904 
139556000    272.21358    337.41323    269.23485   -9.1001701    5.9759566    68.178384    40.165962 
139560000    270.85732    317.38321    269.45997    -7.084407    5.6063191    47.923242    40.163713 
139564000    272.70868    328.94397    277.64925   -7.5619073    6.1500001    51.294716    40.162121 
139568000    272.08204    320.40748    283.45028   -7.0962395    5.9363234    36.957195    40.156986 
139572000    273.93425     307.4206    277.33423    -7.040209    7.5535733    30.086367    40.154575 
139576000    267.29336    308.87122    266.76567   -7.9609076    6.2039327    42.105554    40.154677 
139580000    271.85065    309.28916    288.76622   -8.4389337    6.3834436    20.522935    40.150649 
139584000    273.16062    317.66749    284.47842   -8.1080962     7.378618    33.189072    40.152328 
139588000    279.90049    310.05445    306.47468   -7.3524352    6.2160657    3.5797701    40.150516 
139592000    270.78101    312.73893    268.89051   -7.6471101    7.2381768    43.848417    40.149731 
139596000    278.16079    320.42674    303.59338   -7.1399628     5.583348    16.833356    40.142993 
139600000    274.49299    337.58692    273.58643   -8.6292577    6.5502659    64.000492    40.140757 
139604000    283.08076     318.4953    303.88007   -7.7355977    4.7176539    14.615224    40.142595 
139608000    268.85753    296.64404    275.92553   -8.0335906    6.9864627    20.718513    40.136051 
139612000     284.5065    321.91296    288.13405   -8.7945486    6.2293932    33.778913    40.137351 
139616000    286.04451    316.27054    299.02521   -8.6089925    5.4428988    17.245324    40.136078 
139620000    283.06394     331.3909    292.67205   -9.0808151    6.2002001    38.718844    40.140824 
139624000    276.53213    327.19077     269.6378   -8.5194502    6.1811108    57.552968    40.140231 
139628000    282.46516    345.88477    299.36635    -11.68281    4.9282007     46.51842    40.139691 
139632000    283.42662    307.45699    295.91518   -8.5817943    5.0788954     11.54181    40.141265 
139636000    270.33864    296.45553    282.97848   -8.7650191    7.5026155    13.477048    40.141485 
139640000    281.90979    330.64663    276.90552   -9.7729977    6.7899459    53.741114    40.141248 
139644000    278.69436    330.50757    278.81335   -9.8614878    7.0542176    51.694221    40.146384 
139648000    271.51731    312.63169      271.068   -8.9920697     7.481425    41.563686    40.148882 
139652000      271.609    302.75983    275.46672   -8.9369462    6.8747761    27.293104    40.144142 
139656000    268.85331    316.13193    258.83331   -9.2082976    8.7653263    57.298613    40.140686 
139660000    272.15743    323.92119    269.44546   -10.179345     7.987237    54.475727     40.14502 
139664000    268.09975    304.63252    264.02734   -8.3045716    7.5432877    40.605183    40.143785 
139668000    275.84614    327.65572    271.91622   -10.128608    7.2574882    55.739506    40.145826 
139672000    276.88915    331.85046    274.24271   -9.5705199    6.4130616    57.607742    40.147316 
139676000    271.14925    301.60028    281.48658   -7.5860894    6.2592186    20.113696    40.147145 
139680000    272.45445    331.97747    277.04273   -8.8021866    7.5728842    54.934746    40.145271 
139684000    278.92615    315.08702    304.54563   -7.2666278    5.0903298    10.541391    40.140269 
139688000     270.1471    328.10028    268.71826   -8.2035044    7.1028098    59.382022    40.139978 
139692000    264.91221    310.13991    259.81902   -7.8644009    8.9240762    50.320892    40.141844 
139696000    265.66629    293.15345    288.47692   -6.8077468    7.3796542    4.6765288    40.138443 
139700000    273.57999     312.5737     305.5973   -7.0609584    5.8984011    6.9763996    40.135002 
139704000    275.32953    323.48143     282.7253   -7.4800513    7.2760521    40.756135    40.136698 
139708000    284.76617    332.62729    301.91292   -7.6799858    5.6808204    30.714365    40.135832 
139712000    279.89391    328.54983    290.85088   -8.7033817    6.6060634    37.698956     40.13892 
139716000    274.24566    315.27429    286.44727   -8.2904507    8.2346226    28.827017    40.137412 
139720000    276.62679    321.42563    291.93106   -8.4222841    6.7562557    29.494578    40.136975 
139724000    267.85771    314.34646    269.01829   -9.0572149    8.2411495    45.328166    40.137403 
139728000    265.11201    310.36258    283.02058   -7.8318821    7.5166452    27.341992    40.139067 
139732000    265.76921    303.97631     265.3582   -7.8190989    7.9586256    38.618103    40.134924 
139736000     270.2839    322.99515    275.60909   -7.3964317    7.1468521    47.386059    40.131077 
139740000    273.65529    312.97851    293.15092   -7.5747257    7.4080977    19.827592    40.131749 
139744000    280.16636    313.15963    297.88156   -8.0772365    5.7105276    15.278067    40.131128 
139748000    271.86165    308.56437    294.02641   -8.5167063    6.9057257    14.537963    40.129115 
139752000    274.21667    333.78614    275.39416   -10.151929    6.6679395    58.391981    40.133534 
139756000    285.06149    344.07435    294.09268   -10.093174    6.1029374    49.981675    40.131942 
139760000    271.06686    314.95764     283.2684   -8.6987628    6.8920887    31.689241    40.131957 
139764000    275.79503    329.44661    251.62774   -9.7173919    7.3734755    77.818869    40.130498 
139768000    272.03061    310.96623    279.63258   -9.1830626    6.0280356    31.333648    40.132661 
139772000    268.79325     332.9402     257.7088    -9.309706    7.0897225    75.231397    40.136638 
139776000    284.67462    352.43101    290.26774    -9.494696    6.3019726    62.163265    40.140217 
139780000    270.03448    328.13549    276.13729   -9.7448793    5.7714965    51.998204    40.144035 
139784000    273.20018    315.78895     277.6439    -9.519142    6.1975922    38.145048    40.146095 
139788000    275.81674    307.81618    289.59759   -7.7155741    6.0247723    18.218589    40.145126 
139792000    280.63991    341.44805    278.85266   -9.5825831    6.8255769    62.595386    40.144232 
139796000    268.77581    303.87463    273.74109   -7.8684507    5.5217224    30.133535    40.144585 
139800000    281.62879    326.62743    288.31968   -9.6113692    5.4317735    38.307752    40.144487 
139804000    286.08514    338.16796    283.56049   -9.8156895    4.8411249    54.607477    40.140811 
139808000    273.16912    313.84649    273.18242    -8.188136    7.7080682    40.664069    40.138606 
139812000    271.16454    303.25446    295.13387   -7.1512611    5.9031885    8.1205954    40.137429 
139816000    269.83326    301.76946    292.74118   -7.6762726     5.680952    9.0282706     40.13857 
139820000    276.70438        320.4    276.30751   -8.1648644    6.8594009    44.092494    40.135983 
139824000     283.9512    325.02481    294.94911   -8.6194062    5.5598174    30.075706    40.136493 
139828000    271.92321    352.44976    278.93158   -10.164451    6.5380598    73.518185    40.134139 
139832000     278.1678     329.3462    278.62593   -9.9632735    6.0323772    50.720272    40.134794 
139836000    273.02502    311.27553    274.98828   -7.9900139    6.5038193     36.28725    40.128883 
139840000    273.54321    322.62563    269.10095   -8.6231011    7.2565675    53.524678      40.1243 
139844000    273.74369    309.63481    268.22149   -7.8101611    6.7903202    41.413316    40.127381 
139848000    278.92451     313.6753    287.17913   -8.1693308    6.9276745    26.496173     40.12985 
139852000    269.35998    297.61748    272.13749   -7.8781006    5.9359064     25.47999    40.126034 
139856000    279.17487    321.33121    265.72935   -7.8262778    6.1532002    55.601858    40.123344 
139860000     280.9097    317.40607    290.03988   -7.9237455    6.6242687    27.366193    40.124808 
139864000    273.33114    309.56951    284.72528   -8.1956255    6.1111766    24.844226    40.122612 
139868000    275.21352    332.48003    282.12505   -9.1129213    5.1771197    50.354986    40.121347 
139872000    282.65583    333.74838    276.19023   -9.3278868    6.3938943    57.558153    40.121475 
139876000     278.8439     329.4316    267.36857   -8.1077784    7.5137209    62.063032     40.12132 
139880000     284.9122    323.43451    280.17542   -8.4310268    5.5340686    43.259085    40.118276 
139884000    280.08932    310.03459    282.95516   -8.2337176    5.4330501    27.079429    40.116545 
139888000    281.14476    326.23065    283.53085   -9.0740689    6.4224965    42.699794    40.116272 
139892000    279.95416    325.83135    301.83936   -9.6002915    4.9530028     23.99199    40.116278 
139896000    270.17495    316.40106    277.74989   -7.9868137    6.8893709    38.651171    40.113879 
139900000    271.63359    315.83345    270.99124   -7.1383688     6.299226    44.842208    40.114819 
139904000    277.92048    332.73458    277.41657   -8.3057565    7.0578139    55.318016    40.117382 
139908000    272.63227    319.32119    281.79855   -8.4794495    6.0158702    37.522647    40.119967 
139912000      284.016    348.67736    294.91874   -9.6384949    5.0597886    53.758624    40.120048 
139916000    279.67099    304.75388     303.4256   -8.1230791     5.593682    1.3282853    40.117676 
139920000    269.76324    322.53154    276.18674    -8.413245    5.9075442    46.344799    40.115896 
139924000    273.33525    320.97583    278.72984   -8.4195842    6.0609299     42.24599    40.117157 
139928000     280.1486    341.80206    289.42362   -8.5956144    5.2150328    52.378433    40.116115 
139932000    276.52383    319.09637    268.02771   -9.5374403    6.7445991    51.068664    40.119923 
139936000    279.37385    332.97777     289.6474   -9.4307205    5.8904797    43.330374    40.119189 
139940000    277.53693    302.95956     292.6217   -7.3435254    5.6054224    10.337863    40.117565 
139944000    276.77214    307.63264    287.08387   -8.6468685    4.5074749     20.54877    40.117553 
139948000    277.63599    344.04198     265.3286   -9.8261377    6.2896905     78.71338    40.120018 
139952000    277.44465    316.95207    284.47275   -9.5184436    5.1144573     32.47932    40.117119 
139956000    273.34584    310.16239    266.79772   -9.0072374    6.4753308    43.364665    40.120624 
139960000    276.15073    317.33598    282.13513    -9.750899    6.4216396    35.200847    40.125139 
139964000    281.91651    343.93852    273.90123   -11.807403     5.266004    70.037283    40.128585 
139968000    280.93706    321.63177    281.22775   -9.7583171     5.599938    40.404028    40.125445 
139972000    287.88203    335.14716    301.70829   -9.6092141    4.9324257    33.438871      40.1203 
139976000    271.25775    316.68997    271.08873   -8.6708734    6.9305863    45.601233    40.120386 
139980000    286.60971    338.92374    295.12178   -11.065716     4.314413    43.801962    40.123401 
139984000    281.44983    337.04067    281.09285   -9.3441519    5.2565869    55.947815    40.119666 
139988000    279.45751    329.38448    275.48713   -9.7758314    6.0090762    53.897346    40.117831 
139992000    284.07358    339.33676    268.48857   -10.130236    6.1788909    70.848196    40.122257 
139996000    275.58346    326.84115    269.22264   -9.2363431    7.1886697    57.618511    40.122454 
140000000    280.10399    316.05882    285.68189   -9.7602161    6.3084486    30.376931    40.122715 
140004000    271.66705     316.6252    288.40179   -9.3163516     6.118556    28.223409    40.122113 
140008000    274.90875    324.24331    277.65339   -9.1763837    7.0114074    46.589915    40.122086 
140012000     271.3607    303.48822     271.6416   -7.3526545    6.7246347    31.846621    40.117524 
140016000    285.59206    343.99989    295.76521   -8.6125782    4.8395009    48.234687    40.115074 
140020000    274.44282    320.50493    287.25722   -8.2051198    5.6275847    33.247704     40.11041 
140024000    281.00649    329.41318    317.76175   -7.8591028    4.4830598    11.651426    40.113238 
140028000    270.06384    302.66946    271.78509   -6.5135068    6.7420054    30.884361    40.110815 
140032000    268.03877    309.70852    278.72995   -7.1006674    6.1453523    30.978571    40.111398 
140036000    277.76999    335.45457    270.50307   -7.6491583    7.4489281    64.951502    40.110644 
140040000    270.74895    328.28505    293.94837   -8.8503997    6.2104217     34.33668    40.114377 
140044000    274.96755    338.03695     289.1271   -8.4938666    6.9741854    48.909855    40.114417 
140048000    270.21318    334.66071     267.1824   -8.9400233    6.7449717    67.478308    40.113853 
140052000    270.57576    319.25709    263.35515   -7.8168575    8.6661772    55.901936     40.11754 
140056000    273.92578    331.33956    268.82268   -9.1918997    7.8722668    62.516873    40.123324 
140060000    274.75212    336.63969    288.43228   -8.3286391    6.3312887    48.207408    40.120147 
140064000    275.14187    315.37142     272.8045   -8.8822313    6.9452554    42.566918    40.123397 
140068000    281.51459    341.13892    299.05259   -10.164469    5.7614309     42.08633    40.124669 
140072000    272.44482    326.41888    296.82681   -8.4529513    7.1656114    29.592068    40.124192 
140076000    271.61035    317.94758    267.05797   -7.9515934    8.2326418    50.889609    40.127417 
140080000    273.76747    321.55996    280.05126   -8.2210615    7.6013673    41.508705    40.127974 
140084000    279.23582    334.04043    291.47586   -9.1991231    6.0387915     42.56457    40.126607 
140088000    280.09591    339.43212     273.8305   -10.057623    7.6877623     65.60162    40.127606 
140092000    275.25812    313.68961    286.03149   -9.2110985     5.988737    27.658116    40.130797 
140096000    273.71548    328.09673    275.66986   -8.9204642    6.5282286    52.426873     40.13239 
140100000     265.9055    316.64168    263.31117   -7.9979993    7.6826035    53.330512      40.1319 
140104000    286.29895    349.21057     292.4867   -10.070865    6.5446629    56.723867    40.133739 
140108000    276.24216    342.18753    274.87081   -9.6927608    7.1143074    67.316718    40.134444 
140112000     271.3997    301.15615    274.15388   -7.5904825    6.9576629    27.002271    40.132789 
140116000    269.23182    313.46643    278.69554   -9.4884617    5.3337284    34.770896    40.136966 
140120000     271.1901    328.95271    268.60055   -10.738828    6.2874851    60.352161    40.137373 
140124000    268.60795    302.44116    272.25092   -8.5557411    6.7951478    30.190249    40.140187 
140128000    273.76426    325.61502    276.03259   -8.7309587    7.2063026    49.582437    40.140021 
140132000    269.28296    310.40917    276.19811   -8.7511077    7.2170933    34.211063    40.138013 
140136000      275.461    326.57558    268.18378   -10.371145    7.5429294    58.391805    40.138831 
140140000    289.56378    353.76883    295.28153   -11.409189    6.0916668    58.487303    40.137025 
140144000    274.75548    311.76936    275.76512   -10.014357    7.3065481    36.004243    40.133294 
140148000    275.67655    308.85881    288.05659   -9.6676163    7.2805503    20.802224    40.131176 
140152000    274.38303    314.69951    283.08345   -8.1688883    7.2108166    31.616059     40.13595 
140156000     275.7784    323.74455    292.08345   -10.505742    7.1664668    31.661101    40.137602 
140160000    275.76061    321.17387    299.91407   -8.5188106    7.9573401    21.259801    40.138675 
140164000    268.01358    322.44973    263.64934   -9.7345835    9.0836983    58.800387    40.134331 
140168000    273.77722    321.78622    282.70699    -10.23371    7.5693762    39.079233    40.131723 
140172000    274.66049     315.9878    280.56606   -10.358474     7.740048    35.421739    40.132216 
140176000    277.91685    338.72122    270.75865    -11.40649    7.7036003    67.962569    40.133981 
140180000    275.94031    318.06956    283.42123   -9.3962178    8.0100673    34.648329     40.13391 
140184000    274.49997    345.66919    285.02148   -9.5032756    9.2340416    60.647712    40.135249 
140188000     273.6457    315.99131    283.54048   -8.2034536    7.8989872    32.450822    40.135534 
140192000    273.60063    319.33337    291.27937   -10.290375    7.8299842    28.054002    40.138045 
140196000    275.61945    334.40943    280.55005    -9.583175    8.9548925    53.859386    40.139242 
140200000    266.52778    314.22099    257.47554   -8.3723707    9.6544681    56.745447    40.135882 
140204000    271.76676    316.11387    278.93389   -9.1828535    8.2547251     37.17998    40.137698 
140208000     272.4893     327.8467     284.1894   -10.115964    8.9622429    43.657301     40.14297 
140212000    272.99383    321.24225    287.38422   -8.9794598     8.367901    33.858026     40.13766 
140216000     268.3386     323.7875    279.48754   -9.2330763    8.5707921     44.29996    40.138291 
140220000    275.41776    328.99981     281.1661   -10.158781    8.5835913    47.833713    40.139043 
140224000    266.90281     325.1639    273.50055   -9.3074882     7.773459    51.663356    40.135375 
140228000    264.83767     303.6908    271.61097   -9.9855122    8.6458686    32.079823    40.134022 
140232000    268.62681    322.06929    265.05802   -8.8739502    8.7610838    57.011265    40.132619 
140236000    271.11298    319.31491    271.83329   -8.9203279    8.1120014     47.48162    40.129673 
140240000    265.17449    307.11075    269.58417   -7.5137878    9.1923572     37.52658    40.128894 
140244000    278.37096     315.3849    295.68666   -8.9054416    8.0505138    19.698243    40.130397 
140248000    269.57983    325.94454    284.61004   -9.3589425    8.7247436    41.334494    40.135418 
140252000    270.89565    328.01455    286.94582   -9.6695548    8.2257828    41.068729    40.138097 
140256000    270.73565    340.94957    286.01936   -9.8824258    8.0082575    54.930203    40.137072 
140260000    283.31571    333.23241    290.37225   -9.1390662    7.5656516     42.86016    40.134416 
140264000    273.10725    325.46055    280.18283   -9.3442773    7.9201759    45.277724    40.135121 
140268000     264.2748    299.54902    259.38962   -7.7750836     8.499386    40.159398    40.138413 
140272000    266.30208    304.53536    282.70425   -8.9725377     8.256535     21.83111    40.138442 
140276000    260.75636    291.54844    268.51823   -8.3423105    7.6173563    23.030212    40.139633 
140280000    275.32838    315.00361    283.55417   -9.4191928    8.3495802     31.44944    40.140114 
140284000    268.86582    312.00018    276.59539    -9.246054    8.5826026    35.404789    40.139947 
140288000    269.55792    310.56944    276.11114   -9.6057366    8.5386858    34.458306    40.141416 
140292000    271.77887    334.63108    272.46923   -9.1267469    8.6511089    62.161852    40.140718 
140296000    274.67884    314.19969    272.47445   -9.2717762    7.9881127    41.725239    40.141671 
140300000     275.1048    314.37975    280.55876   -7.6693727    7.2187624    33.820984    40.138294 
140304000    268.23956    298.39611    275.22244   -8.9358315    7.2833173    23.173671    40.137017 
140308000    274.56474    323.56175    272.95012   -9.7108751    9.0522755     50.61163    40.138234 
140312000    271.00698    318.30052    275.80688   -9.4686972    8.2055191     42.49364    40.141601 
140316000    278.70883    323.93481    285.64149   -9.0849028    7.1418223    38.293324    40.136566 
140320000     272.2817    311.89697     290.7729   -8.3652372    6.7590135     21.12407    40.135147 
140324000    275.63967    319.46517    275.37009   -7.9866595    7.7176436    44.095076    40.135907 
140328000    273.13565    313.51238    302.38891   -8.0075685    7.0896727    11.123471    40.136004 
140332000    274.53535    330.61684    282.44318   -9.4306388    7.8607721    48.173662    40.136154 
140336000    263.44586    293.85154    281.85596   -7.3330506      8.44654    11.995577    40.138379 
140340000    264.68478    311.13143    274.09808   -7.4560456    8.3234901    37.033343    40.137768 
140344000     266.8822    322.59651    286.97233   -9.1097285    7.7687653    35.624178    40.135418 
140348000    275.01644    325.10563    290.34712   -9.4270114    6.5966648    34.758505    40.132626 
140352000    281.40905    321.58697    306.14889   -8.4071123    6.1946228    15.438073    40.130958 
140356000    264.40718     304.0582     272.7564   -7.3677691    7.5598147    31.301803    40.128913 
140360000    272.72992    321.54748    281.59094   -8.3893748    7.8348225    39.956547    40.134642 
140364000    271.25551     311.5102    281.83725   -7.4481003    7.7154486    29.672946     40.13172 
140368000    266.63126    320.24597    268.72076   -8.1959758    7.6278272    51.525207    40.131538 
140372000    271.37017    299.81501     289.4007   -7.4322972    6.3533912    10.414312    40.130668 
140376000    268.86333    323.54643    278.02067   -7.6010512    7.3043069    45.525758    40.127815 
140380000    279.56048     343.3725    305.82416   -9.0574723    5.0216804    37.548339    40.128474 
140384000    271.60691    340.25456    259.88522   -9.4952702    7.5849799    80.369336    40.130536 
140388000    272.21997    307.76571    285.97415   -7.8713916    6.5284657    21.791565     40.12688 
140392000    265.48429     314.3881    267.55672   -8.4788874    6.7604792    46.831378    40.126304 
140396000    272.20523    321.21178    269.55535   -9.5760772    6.5580925    51.656437    40.123982 
140400000     274.9013    347.21798    271.18864   -9.8047207    5.9184771    76.029338    40.127257 
140404000    284.06526    359.53847    282.03658   -9.6035549    6.7850503    77.501889    40.129305 
140408000    264.40029    291.10961    271.48051   -6.5629992    6.8888715    19.629101    40.127293 
140412000    288.91974    358.40424    295.54153   -10.394322    5.7072598    62.862711    40.132172 
140416000    274.93663      308.796    269.62404   -9.1397204    7.6158038    39.171959    40.137008 
140420000    278.33777    322.01628    286.83075    -8.137009    7.2496056     35.18553    40.142054 
140424000    273.47919    348.96949    251.30235   -8.4481746    8.5731326    97.667144    40.141159 
140428000    276.93704    317.29515     284.2312     -8.61454    6.2560674    33.063951    40.140951 
140432000    277.95142    332.87373    299.22434   -9.1181279    7.2075462    33.649387    40.143751 
140436000    270.10222    322.76024     258.1118   -8.5869818    9.6314939    64.648439    40.144742 
140440000    281.04615    333.63793    292.59113   -10.781069    6.8268168    41.046796    40.146139 
140444000    271.01065    325.84591    267.54022   -9.9863611    7.9151414     58.30569    40.148214 
140448000    269.41292    317.65519     282.8391   -8.2445526    7.7567706    34.816096     40.14812 
140452000    272.33446    319.07971    271.85079   -7.0081766    7.9766743    47.228927    40.150919 
140456000    269.22683    314.51986    290.61619   -6.9824973    7.6908143    23.903671    40.149089 
140460000    266.38646    313.56836    277.56249   -8.0380796    6.6889442    36.005872    40.147048 
140464000    271.33096    304.01769    285.70346    -7.376968    7.3352653     18.31423    40.145257 
140468000    272.43072    317.16077    284.11561   -8.8115913    7.9151113    33.045155    40.142245 
140472000    269.61854    326.87278     286.2612   -7.5888529    6.7621246    40.611579    40.141004 
140476000    269.03147    323.44269    293.70401   -7.3830021    6.7418281    29.738681    40.141081 
140480000    268.58056    294.97109    276.30831   -7.0572949    7.4297759    18.662784    40.138201 
140484000    272.32119    323.78888    289.26579   -8.0991586    7.7302699    34.523094    40.141155 
140488000    273.31187    328.98622    269.61817   -9.3833424    8.8560338    59.368055    40.143084 
140492000    274.92186    330.00744    273.30787   -8.4346695    9.0290706    56.699568     40.14026 
140496000    262.16089    319.20885    285.68536   -8.1692777    7.8207261    33.523483    40.139169 
140500000    265.99819    324.38352    286.55043   -9.3644563    7.2025816    37.833088    40.141692 
140504000    276.70034    350.52045    273.45495   -9.7778921    7.8395805      77.0655    40.142197 
140508000    266.08181    299.44239     291.5021   -8.4151695    5.8280151    7.9402919    40.144019 
140512000    259.50827     284.0085    272.51175   -6.2108638    7.8803387    11.496753    40.145636 
140516000    271.65276     305.8038    294.73978   -8.0784616    7.2204461    11.064011    40.144194 
140520000    262.54698    299.60409    281.14368   -7.8294294    7.8720602    18.460414    40.142724 
140524000    271.00238    316.46235    284.54434   -8.8148299    8.3767645    31.918014    40.144352 
140528000    270.81348    321.13929    277.17966   -8.4410042    8.6901053    43.959629    40.147031 
140532000    270.14319    317.58497    301.25682   -8.4083263    6.6626417    16.328149    40.148259 
140536000    261.38258    316.04215    263.50757   -8.3015313    9.3673295    52.534586    40.143886 
140540000    257.03278    311.31356    255.70333   -8.6622981    10.127188    55.610227    40.143738 
140544000    266.28079    310.45562    279.26814   -9.7647527    8.0684248    31.187483    40.144867 
140548000    274.28102    329.57842     282.5993   -10.130889    8.4983719    46.979118    40.148338 
140552000    272.49019    308.86211    298.14116   -8.8468865    7.4689036    10.720956    40.148676 
140556000    274.20695     326.6556    280.20956   -9.7435479    9.4386279    46.446037    40.148758 
140560000    272.67888    320.16079    279.67083   -8.8320588    8.3096707    40.489951    40.147003 
140564000    267.70436    298.97292    297.03782   -8.1528572    8.0948319    1.9351007    40.146077 
140568000    273.63259    324.97299    282.30766   -9.4767051    8.4412076    42.665326    40.148479 
140572000    281.97747    333.08564    302.65341    -10.39945     7.157855    30.432234    40.146624 
140576000    273.79482    325.30064    272.67525   -10.788765    9.1214288    52.625389    40.147897 
140580000    268.97676    349.17766    262.56463    -10.06621    9.8217897     86.61303    40.148492 
140584000    263.93937    303.02049    259.52565   -8.2938551    9.1518241    43.494842     40.14755 
140588000    275.84943    305.33284    305.65388   -8.7420019    6.8519486  -0.32103617    40.148874 
140592000    274.05238    324.35682    275.38717   -10.147901    8.5989359    48.969653    40.151951 
140596000     272.6666    319.02191     280.9478   -9.6201707    8.0690269    38.074106    40.151231 
140600000    272.89698    313.36614    288.66035   -10.310757    7.8644766    24.705791    40.149319 
140604000    273.22441    320.28278    299.86904   -9.1173998    8.6116756    20.413738    40.145459 
140608000    283.73005    343.76349    297.77998   -10.442862    7.4933006    45.983507    40.147157 
140612000    266.98349    308.41233    276.49333   -8.7863062    9.4788647    31.918996    40.147095 
140616000    264.42211    295.73166    284.53255   -6.8595305    9.3400461    11.199116    40.147766 
140620000    280.11719    359.69083     291.5817   -10.756822    8.3998236    68.109124    40.148665 
140624000    266.59161    315.87416    268.86242   -9.0968986    9.3481076    47.011736    40.147477 
140628000    271.80463    342.01603    276.04365   -10.752956    8.2325463    65.972378    40.144847 
140632000    273.54596    327.37368    278.99692   -8.5623458    8.5601286    48.376764    40.145291 
140636000      274.742     325.6724     311.5788   -8.1704509    7.2398796    14.093598    40.144531 
140640000     269.5391    327.76781    277.36136   -8.3717656    8.5247604    50.406458    40.143207 
140644000    271.69595    321.05989    294.56468   -6.5724371    8.7760169    26.495208    40.140439 
140648000    266.41251    314.46922      281.284   -5.8637518    9.3066911    33.185218    40.138563 
140652000    261.96837    286.59628     276.9171   -6.4143569    9.1164459    9.6791852    40.139736 
140656000    260.39668    306.47515    267.62368   -7.1838271    10.053688    38.851468    40.139639 
140660000    268.92041    326.05217    286.16842   -9.2963894    8.8948058    39.883749    40.141642 
140664000    268.99817    326.28729    281.31183   -7.6944761     10.01867    44.975465    40.140352 
140668000    270.06033    338.45894    271.97688   -9.2950675    9.4873356    66.482064    40.139555 
140672000    269.09957    327.58276    272.20329   -9.3224448    9.6375831    55.379474    40.136464 
140676000    271.41911    319.48943     263.5959   -8.0022021    9.5108641    55.893524     40.13746 
140680000     264.8247    315.80004    260.86225    -7.673347    9.8212296    54.937792    40.138465 
140684000    265.16602    327.87001    266.78105   -10.131877    8.6904783    61.088953    40.138558 
140688000    282.27763    331.03835    307.71626    -10.49152    7.7211505    23.322094    40.138111 
140692000    266.42284    328.33183    271.86826   -9.1015201    8.6794937    56.463574    40.141587 
140696000    267.91475    308.24043    272.45148   -8.6561817    9.0827078    35.788955    40.142494 
140700000    278.18078    344.76209    281.02165   -9.9354776    8.0938243    63.740444     40.14706 
140704000    270.85127    322.04476    295.05952   -9.5438733    7.9002145    26.985241    40.145977 
140708000    266.96934    301.15073     294.1857   -7.8416997    8.3162672      6.96503    40.148626 
140712000    266.53323    320.83628     273.4041   -9.4066109    9.0499602    47.432176    40.145796 
140716000    277.10032    324.70777    299.70327   -9.0001615    8.2745588    25.004496    40.145627 
140720000    268.46293    303.27617    269.02544   -9.0544256     9.348132    34.250731    40.143367 
140724000    272.02848    327.99831    281.76552   -9.0671086    8.0070735    46.232787    40.142016 
140728000    277.17784    322.43263    311.31302   -8.9326673     6.908479    11.119619    40.143639 
140732000    271.76807    338.76319    267.02501    -10.82088    9.3860601    71.738178    40.140585 
140736000    258.65979     284.1595    278.60574   -7.1355162    8.5324929    5.5537581    40.137749 
140740000    266.45828    308.72716    292.15929   -7.2567361    8.4171731    16.567869    40.137779 
140744000    269.15741    319.79092    264.28027   -7.7462326    9.5642631    55.510653    40.136186 
140748000    265.19417    310.38945    272.11894   -7.8442191    9.7280578    38.270518    40.135807 
140752000    278.37338    331.38595    281.61189   -8.9457697    9.9564555     49.77406    40.132823 
140756000    261.42105    313.24721    272.87793    -7.805822    9.3033434    40.369277    40.136499 
140760000    263.56527    326.43059    262.06398   -9.6770516     9.741135    64.366611    40.134554 
140764000    266.46573    323.20982    261.78317   -8.8128105    9.7921904    61.426651    40.134344 
140768000    271.23773     320.3151    292.11842   -9.7192935    9.1207591    28.196682    40.133596 
140772000    266.74955    308.99704    277.93619   -8.8831657    9.2941131    31.060842    40.132858 
140776000    268.85162    320.93659    288.71223   -8.5012777    6.7906483    32.224361     40.13362 
140780000    279.47535    342.18923    288.82332   -10.154792    7.9714338    53.365908    40.130791 
140784000    275.04873    316.80997    277.64541   -9.5359164    7.4416819    39.164554    40.132176 
140788000    276.11615     328.0673    294.40421   -10.388953     7.786928    33.663089    40.134994 
140792000    265.38612    309.01597    260.38593   -8.7289071    8.2668596    48.630039    40.137507 
140796000    271.25197     333.1418    277.36482   -9.0315459    7.8177724    55.776972     40.13754 
140800000     281.0866    328.50044     285.6068   -10.001192    6.9673271    42.893639    40.138266 
140804000    276.62379    329.20678    272.00947    -10.61844    7.9969273    57.197316    40.138957 
140808000    275.12047     298.2712    278.67439   -10.116112    7.6492952    19.596812    40.144103 
140812000    283.31114    333.19325    286.93822   -11.444207    8.0351215    46.255024    40.145132 
140816000    269.65352    306.73789    263.82649   -9.2201623    7.9024916    42.911404    40.147036 
140820000    280.96944    318.43717     296.5543   -9.9621769    5.7681418    21.882871    40.146301 
140824000     282.6511    329.77408    297.99018   -10.825699     5.331531    31.783908    40.146172 
140828000     274.3307    323.85425    295.85671   -9.4983776    6.6661715    27.997544    40.148303 
140832000    273.17432    310.16938    283.02378   -9.8437383    7.7189638      27.1456    40.150245 
140836000    273.54016    299.03746    281.54033   -8.3332721    7.9298339    17.497131    40.147789 
140840000    286.30665    332.63912    299.83369   -10.518873    7.3032507    32.805434     40.14421 
140844000    265.18707    308.72135    285.52651    -9.842866    6.5255926    23.194839    40.144941 
140848000     271.0321    314.60802    292.72781   -8.8635376    6.3003708    21.880202    40.141599 
140852000    263.81026    309.14829    280.90295   -8.8791369    7.7453517    28.245335    40.144864 
140856000    277.64899    310.19995    288.36359   -8.2660953    7.5918212    21.836362    40.145477 
140860000    271.37545    316.60106    271.18086   -8.6106871    8.1762927    45.420195    40.145472 
140864000    278.73274    311.47612    290.81279   -7.5694845    7.1407471    20.663326    40.146889 
140868000    276.27441    307.15586    280.98448   -8.7237037    7.2489556    26.171378    40.146524 
140872000    277.89168    312.11664    285.96627   -8.3318377    7.1437599    26.150361    40.147135 
140876000    276.74745    314.76639     291.2463   -8.4070637    6.3221185    23.520083    40.148669 
140880000    269.96377    320.56107    277.57127   -9.1452541    7.9483517    42.989802    40.147852 
140884000    273.56632    326.58602    275.84711   -10.337667    8.0714392    50.738906    40.146462 
140888000    281.16396    343.20125    284.68245   -10.249529    7.3236837    58.518805    40.146612 
140892000    272.88447    335.37966    278.32734   -9.6700644    8.3032291    57.052323    40.150227 
140896000    289.14896    360.63954    289.09218     -11.5336    6.3986459    71.547359    40.151825 
140900000    276.48635    332.02845    280.59886   -10.537386    8.0145568    51.429592    40.150604 
140904000    276.19233    313.11189    261.71496   -10.549285    8.5750199    51.396929      40.1484 
140908000    276.63656     333.9034     277.7988   -11.246535    7.4882435    56.104601    40.151839 
140912000    278.53781    316.12407    274.84222    -11.15558    7.7625006    41.281851    40.149969 
140916000    279.27432    319.17273    278.14887   -10.591193    7.5758532    41.023865     40.15087 
140920000    276.72909    313.98628    266.50838   -10.354636    8.8269862    47.477901    40.149757 
140924000    276.06847    316.94013    258.23724   -10.614531    8.3382762    58.702892    40.148622 
140928000    283.42469    339.17296    280.41259   -11.611955    7.1193734    58.760373    40.147522 
140932000    278.26118    313.77359     275.6026   -9.8554735    6.7581834    38.170987    40.150323 
140936000    274.15352    280.06172    293.84548   -9.9406588    6.2231833   -13.783755    40.151113 
140940000    270.08095    331.90676     265.0731   -11.680288    7.0628975    66.833666    40.151963 
140944000    289.76921    321.58145    295.58592   -12.050603    5.6223612    25.995522    40.155007 
140948000    284.66676    336.47175    282.19873   -13.229939    6.5441159    54.273015    40.155056 
140952000    280.01017    329.50469    264.02199   -13.242237    7.5716918    65.482705     40.15571 
140956000    276.48073    335.97938    267.47602   -13.457024    6.4276665    68.503368    40.153571 
140960000     278.8637    316.59023    287.35808   -10.830677    6.6474847    29.232149    40.154047 
140964000     281.9969    310.88306    293.57912   -12.137421    6.6213812    17.303933    40.154804 
140968000    285.75275    322.07058    273.79431   -14.810742    7.2197308    48.276272    40.154508 
140972000    285.42023    344.21276    278.16857   -14.459922    8.2270108    66.044189    40.155505 
140976000    289.06957    338.47904    286.85819   -12.965319    7.5146571    51.620848    40.150314 
140980000    283.46746    337.87403    282.17203   -12.232141    8.1667401    55.701996    40.150603 
140984000    277.16995    332.68469    277.51315   -12.883868    8.3439762    55.171536    40.149642 
140988000     274.2828    306.50812    278.69706   -10.863621    9.0653253    27.811058    40.148398 
140992000    275.18966    312.45927    257.82051   -11.944255    9.2282775    54.638755    40.148925 
140996000    282.61192     343.4712    279.82284   -12.486839    8.1137399    63.648363    40.151315 
141000000     282.1084    333.29996    271.51721   -12.490207    8.3157961     61.78275    40.151497 
141004000    282.86558    328.40542    278.98392   -12.300226     8.403282    49.421507    40.150454 
141008000    280.53606    333.86139    284.40498     -12.4278    8.2156673    49.456411    40.149606 
141012000    271.97532    323.88401    261.22585   -10.438004    10.610766    62.658152    40.151002 
141016000    261.67889     301.6535    269.56587     -10.3046    8.9920549    32.087631    40.152998 
141020000    284.22999    329.46248    288.94331   -10.613956    8.1255555    40.519166    40.151176 
141024000    275.85248    315.27821    275.44697   -11.328348    9.3948508    39.831245    40.150602 
141028000    275.11175     296.5777    299.18994   -10.597191    7.1370799   -2.6122485    40.149318 
141032000    284.67961    319.86572    288.42938   -12.095867    8.3754502    31.436342     40.15397 
141036000    272.41885    313.10556     277.7949   -11.466274    8.3108367    35.310667    40.158864 
141040000    284.76777    330.93562    294.50664   -12.230191     8.256878    36.428976    40.160079 
141044000    284.89971    324.99927    288.03918   -11.448086    8.2744789    36.960094    40.162335 
141048000    283.89296    328.35851    299.93939    -12.95717    7.9808666    28.419125    40.159364 
141052000    277.05868    300.58456     298.5299   -11.299231    7.7820644    2.0546668     40.15438 
141056000    279.23654    336.27582    263.59843    -12.88436    8.4475046    72.677389    40.155815 
141060000    274.83548    313.53743     280.3319   -12.183957    8.5206238    33.205532    40.154457 
141064000    267.84058    300.04469    262.99454   -10.565423    8.5276554    37.050142    40.154561 
141068000    276.92704    330.63945    279.14265   -11.738614    8.7423789      51.4968    40.155146 
141072000    280.11598    338.59677    261.34116   -12.017344    9.9614543    77.255605    40.152766 
141076000    282.87473    319.75677    298.19566   -11.028053    7.3371425    21.561105    40.150905 
141080000    279.98401    319.58558    285.57388   -12.200376    8.6750652    34.011701    40.151782 
141084000    277.96511    326.97164    263.31156   -13.038158    9.4376256    63.660071    40.151917 
141088000    275.46586    320.42386    278.88035   -12.383232    8.8828731    41.543517    40.151298 
141092000    282.99325    326.92031    282.24431   -11.814516    8.7903275    44.676001    40.153127 
141096000    276.40459    319.18106    275.38147   -12.896526    8.7265765    43.799593    40.155884 
141100000    283.68398    343.24509    310.51084   -13.089183    7.7082237    32.734247    40.157152 
141104000    275.51036    311.47718    272.19443   -11.880488    9.0010678     39.28275    40.152625 
141108000    278.17256    311.30911    288.07393    -12.00243    9.6366269    23.235185    40.152664 
141112000    282.27143     334.6397    281.82689   -12.709911    8.7679986     52.81281    40.151946 
141116000    272.63177    312.96276    263.65706   -11.030815    9.0207951    49.305697    40.153994 
141120000    285.61684    328.66065    281.99749   -12.385292    9.7497914    46.663165    40.155805 
141124000     278.4719     330.8676    274.46931   -11.967417    9.4769351    56.398287    40.153069 
141128000    286.82483    329.35454    285.65058   -12.442649    8.5126738    43.703958    40.155327 
141132000     273.3828    294.77226    295.88596   -10.498781    7.0540214   -1.1137005     40.15401 
141136000    271.99365    317.20679    257.98451   -12.123786    8.2934407    59.222273    40.156625 
141140000    287.76158     333.3007    296.24816   -12.535346      8.05262    37.052533    40.156076 
141144000    276.28031     300.1766    289.51553   -11.528606    8.8609284    10.661064     40.15442 
141148000     284.5091    331.35012    294.07549   -12.880188    7.4877747    37.274633    40.158178 
141152000    278.82118    323.64033    273.60979   -12.247064    8.2779152    50.030542    40.159986 
141156000    276.71505    324.77007    267.19148   -12.333241      8.70042    57.578592    40.158793 
141160000    274.76516     310.5023     293.5925   -12.128618    8.2091171    16.909804    40.162408 
141164000    275.26735    319.07638    270.78072   -12.712147    9.2926486    48.295653    40.161771 
141168000    266.76018    301.80902     259.7981   -11.898837    9.6324044    42.010917    40.162471 
141172000    275.12504    329.43944    253.69012   -12.743951    10.624754    75.749317    40.162647 
141176000    273.69232     315.4861    298.99658   -12.408602    7.9664376    16.489525    40.159663 
141180000    281.21555    333.45289    302.74212   -12.498102    8.2990429    30.710773    40.155592 
141184000    271.09493    318.71947    250.28366   -11.773981    11.226418    68.435805    40.154356 
141188000    273.23588    303.97981    280.41496   -11.109795    9.8887931    23.564842    40.153293 
141192000     280.7393    321.51309    276.67058   -10.854481    10.271513    44.842507    40.154157 
141196000    289.51917    324.17499    290.52879   -12.094748    9.9018809    33.646193    40.153704 
141200000    280.45006    306.01005    279.18464    -10.31407    9.7882842    26.825418    40.154248 
141204000    280.88282    326.27741    288.22612   -12.335441    9.5969992    38.051286    40.152262 
141208000    274.08727    307.70659    287.47798   -11.735198     9.518459    20.228602    40.152744 
141212000    271.51166    305.91115    265.02304   -11.057607    9.6799594    40.888107    40.150549 
141216000    273.21599    319.03807    292.41516   -12.678255    8.3042168    26.622903    40.150538 
141220000    278.03934    330.70745    270.24145   -13.328357    10.223619    60.465997    40.155119 
141224000    268.09734    322.84892    258.93647   -12.021465    10.875225     63.91245    40.157177 
141228000    271.94804    308.86181    278.03086   -11.310471    9.6137695    30.830951    40.157858 
141232000    278.77972     307.9099    294.68359   -11.961879    9.1241684     13.22631    40.157039 
141236000    271.17549     327.1939    274.71648   -11.372971    9.7321587    52.477412     40.15717 
141240000    281.38591    338.23919    275.67211   -12.194466    9.2658269     62.56708    40.157582 
141244000    272.12978    317.57432    253.98201    -12.29294    10.084326    63.592306    40.158696 
141248000    266.79089    312.11933    250.72144   -12.030106    11.519118    61.397894    40.158954 
141252000    280.12147    331.61739    290.34951   -12.190746    9.9989467    41.267878    40.159648 
141256000    285.03888    334.57761    302.22141   -11.752364    8.4626974    32.356195    40.159946 
141260000    277.77733     305.9398    288.70719    -10.82059    8.8489413    17.232607    40.159059 
141264000    269.20948    305.15729    266.99726    -11.77612    9.5175105     38.16003    40.159964 
141268000    273.47904    319.87329    275.42843   -12.496936     9.950825    44.444861    40.159329 
141272000    276.73515    343.15782     268.7425   -13.459006    9.2232965    74.415315    40.160239 
141276000    287.63889    320.95293    304.61801   -12.309796    8.6202781    16.334916    40.161859 
141280000    275.65251    323.75767    265.36229   -12.129671    9.1527752    58.395375    40.164371 
141284000    276.68983     330.3187    277.55526   -12.586239    9.1863773    52.763445    40.164454 
141288000    266.86479     320.7842    265.44592   -13.230293    9.4556273    55.338283    40.162043 
141292000    270.64225    325.08765    264.01879   -12.346839    9.5651164    61.068856    40.160001 
141296000    275.15434    317.29001    278.65851    -12.45325    8.8024052    38.631509    40.160847 
141300000    273.02989    325.07261     259.3438   -12.601705    10.300775    65.728806    40.160264 
141304000    274.47777    327.62847    274.19168   -13.500317    9.1388122    53.436789    40.162763 
141308000    280.94007     326.2976     273.2432   -13.657008    9.9354382    53.054405    40.164398 
141312000    277.51345    311.07653    282.54374   -11.934276    8.3298039     28.53279    40.166097 
141316000     269.1771    306.06892    267.50387   -11.177228     9.952157    38.565048    40.164999 
141320000    275.99685    309.13811     290.2307   -12.310823    8.0305322    18.907418    40.167391 
141324000    277.29079    321.40106    270.66469   -13.301314    9.3435407    50.736364    40.168102 
141328000     276.1738    311.50856    282.09088   -11.965999    10.159921    29.417684     40.16823 
141332000    270.87933    301.47847     278.5843   -10.870241     10.18397    22.894173    40.169414 
141336000    269.54805    306.96504    269.92066   -11.664948    10.219713    37.044389    40.170754 
141340000    268.76778    311.14777    270.80265   -13.380694    9.9714841    40.345116    40.171703 
141344000    284.42515      337.214    291.46743    -13.43052     8.055581    45.746567    40.172251 
141348000    274.28789    332.93624    265.31308   -13.788633    10.114129    67.623162    40.175123 
141352000    274.32304     326.0808     253.9248   -14.025645    10.921578    72.156006     40.17669 
141356000    274.60601    326.41549    270.30628   -13.220795     9.335281    56.109214    40.178242 
141360000    275.72514    307.81815    280.54926   -12.590853    9.0224261    27.268886    40.177637 
141364000    277.60027    324.27274     269.9336   -13.310489    9.0711455    54.339139    40.176721 
141368000    275.28013    317.95198     274.5406   -12.399179    9.2226615    43.411387    40.175816 
141372000    271.38135    306.08922    287.72442   -11.900411    8.1926131    18.364798    40.173094 
141376000    275.15688    310.48969     273.6546   -11.866384    8.2770466    36.835096    40.169522 
141380000    281.81726     326.0728    274.66293   -12.153638    8.4500014    51.409866    40.168582 
141384000    263.84426    295.76384    266.26286    -11.73894    9.3755513    29.500988    40.167713 
141388000    279.84688    330.42227    271.86702   -12.651106    8.7615513    58.555244    40.170645 
141392000    272.25153    314.39999    278.12874   -12.439787    8.6753229     36.27125    40.171088 
141396000    283.06007    330.67913     294.2628   -13.692556    8.7058847    36.416329    40.171891 
141400000    276.00151    333.51149    270.48148   -12.817006    9.9259022    63.030012    40.171311 
141404000    279.24787    321.48346    276.76545   -12.168109    8.6050941    44.718014    40.173928 
141408000    282.31962     321.3074    285.78789   -12.375054    9.2430296    35.519518    40.171025 
141412000    273.82926    310.60008    282.27361   -11.674866     9.381216    28.326461    40.172285 
141416000    271.59989     311.6925    276.43193   -11.885806    9.3225546    35.260571    40.168795 
141420000    272.86215     305.1244     289.0456   -11.817402    9.1849672    16.078803    40.169763 
141424000    277.81669     303.8621    293.71056   -10.932823    8.8406165    10.151542    40.170526 
141428000    277.35696    315.71826    288.81831   -10.994693    8.5582975    26.899949    40.172772 
141432000    284.54466    333.66779     307.5959    -12.05973    8.3737892    26.071886    40.172277 
141436000     281.8525    332.69876    275.29807   -12.245371    8.8622239    57.400686    40.172449 
141440000    286.45114    337.38871    272.58339   -13.870784    9.0647166    64.805315    40.173452 
141444000    281.30075    333.02608    280.29211   -13.105309    9.2889265     52.73397    40.174883 
141448000    278.99452    309.01462    297.12796   -11.935557    8.4244168    11.886657    40.169979 
141452000    281.52732     341.9479    269.23883   -13.174704    10.297034    72.709078    40.174353 
141456000    272.24863     339.1098    260.72816   -12.790245    9.9951554    78.381642    40.173031 
141460000    284.31324    345.73363    291.67817   -13.710472    8.9482974    54.055459    40.175139 
141464000    277.81885    318.15092    291.42928   -12.087382     9.062436    26.721632    40.175168 
141468000    283.13544    335.49655     280.5169   -12.233395     8.869251    54.979649    40.173764 
141472000    285.48647    329.11446      293.883   -12.604369    8.4878481    35.231462     40.17546 
141476000    280.40011    335.32692    275.14572   -13.451765    8.7425678    60.181197    40.179331 
141480000    272.89594    322.36083    264.87846   -12.043385    9.6765095    57.482364    40.181322 
141484000    280.48647    315.30332    288.91933   -12.131684    8.1817908    26.383992    40.182843 
141488000    286.51785    346.93384    285.75997   -13.114441    8.6380854    61.173874    40.182438 
141492000    268.71639    311.65045    274.89612   -11.285343    8.3079434    36.754336    40.181412 
141496000    276.71796    327.58153    283.32828   -14.195292    7.7946809    44.253245    40.184132 
141500000    277.02847    334.66869    257.43647   -13.624939    9.7187872    77.232224    40.184735 
141504000    276.85976    327.33187    273.44835    -12.34222    9.7693827    53.883521    40.184029 
141508000    271.34213    301.74516    271.47001   -11.294592    9.4306645    30.275152    40.184108 
141512000    270.98703    319.82061     262.6641   -12.057314    9.3200736    57.156512    40.184577 
141516000    271.26786    303.54055    282.28054   -11.464532    9.3927148    21.260018    40.186508 
141520000    284.42793    303.46285    305.11498   -11.390863    7.5675251   -1.6521375    40.186556 
141524000     282.4488    322.06598    298.23306   -12.143908    8.6898938    23.832922    40.185813 
141528000    284.42592    344.58927    278.71857   -13.240292    9.9559253    65.870705    40.186254 
141532000    279.76438    301.90564    310.07868   -10.875748    6.9348591   -8.1730384    40.185596 
141536000     289.9357    340.28562    297.39002   -13.738125    9.2666171    42.895601    40.187532 
141540000    277.69005    311.48029    285.35679   -12.306477    9.0218767    26.123494    40.190154 
141544000    277.99281    315.64376    304.81214    -12.48913    8.8317912     10.83162    40.186418 
141548000    289.81943    354.32106    280.50752   -14.711471    8.9586167    73.813539    40.186127 
141552000    285.05447     343.3636    280.80066   -13.089569    7.8544782     62.56294    40.186947 
141556000    286.48309    341.89416    285.20486   -12.648969    8.4367677    56.689296    40.183788 
141560000    278.11983    316.77298    279.79214   -11.450134    7.9282062    36.980833    40.184445 
141564000    268.29725    314.02828    254.38601   -10.400583    8.8474615    59.642267    40.184755 
141568000    280.73792    327.29852    293.60715   -11.782073    6.9772182    33.691375    40.183388 
141572000     268.7025    293.31197    276.40833   -10.674618    8.4608888    16.903636    40.183768 
141576000    284.91273    314.64274    295.34865   -10.642915     8.386853    19.294087    40.186314 
141580000    285.77843    320.83644     302.8141   -11.340003    7.6287124    18.022339    40.184458 
141584000    275.57343    294.82584    288.15072   -10.630195     7.653807    6.6751252    40.182741 
141588000    292.32438    339.24306    278.98123   -12.967019    8.4326345    60.261824    40.185107 
141592000    285.33706    335.05929      282.221   -13.596306    8.2658568    52.838285    40.183249 
141596000     289.3135    344.20751    303.92851   -13.214004    7.0430048    40.279004    40.184821 
141600000    276.35301    314.25963    273.60896   -13.358715    8.3200091     40.65067    40.185561 
141604000     281.1925    315.12316     277.0888   -11.890505    8.4205183    38.034359     40.18895 
141608000    280.81095     326.3071     271.8923   -12.891527    7.8785793    54.414799    40.186318 
141612000    291.08314    328.09148    290.39482    -13.11848    7.4018568    37.696658    40.189273 
141616000    280.85062    322.31257    290.67622    -12.55969    8.2577055    31.636354    40.189329 
141620000    280.06489    317.44123    281.30659   -13.177177    8.4025442    36.134646    40.190435 
141624000    280.47731    302.35375    295.46937   -12.544509    7.9871456    6.8843826    40.189214 
141628000    275.90692    322.49515     273.1626   -13.373776     8.337773    49.332553     40.18736 
141632000     286.7324    321.00705    293.65659   -13.444893     6.617462    27.350461    40.185781 
141636000    284.20988    323.52414    282.17225   -12.292622     8.241829    41.351886    40.189968 
141640000    270.82986    306.79315    280.31638   -12.678207    8.2447986    26.476769    40.188059 
141644000    285.27335    335.70118    279.93549   -12.368668    8.7771887    55.765689    40.190859 
141648000     284.2979    323.92198     282.4683   -12.763868    8.2865948    41.453671    40.190544 
141652000     277.8974    312.26651    274.04777   -12.370086    8.0219235    38.218741    40.190747 
141656000    274.88736      320.901    268.54398   -12.288435    7.2441836    52.357018    40.190474 
141660000     280.2759    321.30438     286.8946   -13.276009    7.1049918     34.40978    40.191865 
141664000    282.03888    304.80914    269.42699   -13.345468    8.9410072    35.382145    40.191535 
141668000    287.75381    326.36083    289.82817   -13.317303    7.5562845    36.532661    40.188482 
141672000    279.75066    314.14814    274.96661   -13.471925    7.9470519    39.181533    40.189167 
141676000       275.69    318.51022     259.6326   -12.183405    9.3258099    58.877618    40.189572 
141680000    289.53773    344.25861    284.55409   -13.762419    7.5812818    59.704517    40.190575 
141684000    286.20439    328.12945    286.09782   -13.612487    8.5839966    42.031628    40.193306 
141688000    290.71414    329.15175    293.34481   -12.271355    6.8960815    35.806941    40.192052 
141692000    276.48824    324.85435    269.56871   -13.855862    8.8606348    55.285643    40.190018 
141696000    270.35506    308.73184    270.54358   -11.984874    8.9960684    38.188267    40.187842 
141700000     278.7636     320.9714    277.65322   -11.918474     9.247136    43.318177    40.187518 
141704000    280.51062    311.05164     291.3533   -11.296862    8.6796291    19.698345    40.187305 
141708000    279.45427    313.92628    294.23515   -11.622749    6.6825662    19.691125    40.183817 
141712000    281.59956    316.50796    285.06298   -12.767281    7.5239667    31.444975    40.184698 
141716000    271.98682      307.089    270.77014   -12.077376     8.619589    36.318859    40.183507 
141720000     278.0585    331.74009    282.75628   -12.191366    9.5020887    48.983809    40.184325 
141724000    272.67129    299.58246    278.01026   -9.4739833    8.5361984    21.572195     40.18511 
141728000    268.11505    312.82746    265.42049   -10.966196    9.6089722    47.406971    40.185362 
141732000    273.12027    313.47522    290.06222   -11.578515    8.4043771    23.413001    40.183092 
141736000    272.71828    325.04146    264.43473   -12.188756     10.03391    60.606736    40.185589 
141740000    274.86111    319.03479    279.39019   -12.203995    9.8414365      39.6446     40.18359 
141744000    274.71796    306.80212    297.75833   -12.191883    8.8982372    9.0437877    40.184242 
141748000    280.28083    314.73158    295.98791   -12.527387     8.193159    18.743673    40.184681 
141752000    280.78543    325.21206    291.07631    -12.99452    8.9126161     34.13575     40.18407 
141756000    272.81887    313.93298    280.10954    -12.25493    9.1513221    33.823444    40.180901 
141760000    284.00179    337.55765    273.11684   -13.937614     9.745591    64.440816    40.179039 
141764000    276.42599    320.42422    272.35803   -13.139741    9.8838399    48.066194    40.181768 
141768000    280.49832    314.99467    287.48164   -12.608715    8.9260101    27.513031    40.181562 
141772000    279.16609    318.69538    294.87268   -12.463895     9.450545    23.822704    40.180182 
141776000    272.27638     318.3477    262.11564   -13.279137     9.550868    56.232057    40.182174 
141780000    276.19609    306.94775    280.82051   -12.743493    9.8540009    26.127237    40.178564 
141784000    276.82992    311.71937    268.78791   -13.179403    9.4630715    42.931457    40.176875 
141788000    268.48368    300.39272    281.78312   -13.053792    9.8033187    18.609607    40.174842 
141792000    286.84712    315.19763    299.89456   -13.025486    8.8718035     15.30307    40.175931 
141796000    284.40008    343.32983    271.37253   -14.667878    9.7908466    71.957302    40.178241 
141800000    276.04803    317.03129    286.47558   -12.720583    9.0690982    30.555706    40.181595 
141804000    282.19725    319.41494    292.63635   -12.932661     9.692564     26.77859    40.180746 
141808000    283.72064    310.22322    304.41532   -12.834009    8.7051906    5.8078955    40.177469 
141812000    269.78117    302.91828    282.89684   -13.428992    8.9520369    20.021436    40.176631 
141816000    275.65606    310.35598    292.13867   -12.986125    8.4594284    18.217311    40.175545 
141820000    279.50371    343.91447    260.72351   -14.078439    9.9017999    83.190958    40.179565 
141824000    269.67298    310.42474    266.28448   -12.889836    9.2589838    44.140254     40.18016 
141828000    277.43308     323.3165    269.94355   -12.645155    10.158327    53.372952     40.17877 
141832000    273.02384    302.04592    292.46446   -10.694731    8.4279046    9.5814593    40.174609 
141836000     285.8816    341.49196    282.98326   -13.603186    9.4749747    58.508705    40.175872 
141840000    275.72005    327.26939    275.10138   -13.459276    9.7844607     52.16801    40.173199 
141844000    279.00815    331.41459    280.84916   -13.601325     9.162523    50.565431    40.173155 
141848000    272.78269    316.25533     282.8299   -14.147009    9.2215551    33.425435    40.172591 
141852000    278.74226    325.87498     278.7309   -14.535775    9.4950677    47.144086    40.172375 
141856000    278.33841    337.29175    269.60561   -13.855251    9.6447173     67.68614    40.175273 
141860000    278.39684    321.23543    260.57491   -14.045537    10.280226    60.660517    40.173392 
141864000    277.02523    330.09918    276.18049   -12.923676    8.3262632    53.918695    40.176278 
141868000    284.04842    331.66407    285.42737   -12.801582    9.5641259    46.236696    40.179864 
141872000    274.22349    304.20867     284.6196   -11.882655    9.0718095    19.589071    40.180067 
141876000    276.88419     333.4867    261.49378   -15.215346    9.5122129    71.992922    40.185535 
141880000    284.84877    336.63236    282.43401   -14.049095    10.972513     54.19835    40.187105 
141884000    276.46625    303.36071    288.24223   -13.063184    9.3820522    15.118482    40.189676 
141888000    278.56218    323.35917    286.35172   -15.047124    9.9264877    37.007451    40.190348 
141892000    272.88735    309.12984    288.23607   -13.312634    9.1956591    20.893774    40.188207 
141896000    271.81064    317.57295    268.72247   -12.697335    10.996927    48.850481    40.190494 
141900000    272.24032    326.88168    261.88842   -12.449815     10.94572    64.993254    40.189679 
141904000    282.78025    350.56998    262.91561   -13.509699    11.168978    87.654365    40.189987 
141908000     279.1387      335.183    283.48237   -12.750986    9.9084478    51.700632    40.189714 
141912000    273.77434    300.95879    284.20221   -12.585684    10.163017    16.756581    40.187787 
141916000    278.72284    345.18214    284.01396   -14.420347    9.9048299     61.16818    40.192055 
141920000    271.07433     316.1815    276.18937   -12.568669    9.3326124    39.992135    40.191012 
141924000    281.17871    326.91268    280.04896   -13.260391    9.9451815    46.863715    40.189559 
141928000    273.82035    326.56434    284.21919   -12.381904    9.5103291     42.34515    40.187684 
141932000    277.04037    301.14109    279.12886   -14.191216    9.3729367    22.012227    40.186979 
141936000    285.88552    310.30183    294.27746    -12.75664    9.0656293    16.024366     40.18899 
141940000    278.70208     323.2211    271.39211   -12.911357    10.029679    51.828989    40.190086 
141944000    268.94689     304.2127    271.31055   -11.935228    10.132759    32.902151    40.190306 
141948000    274.29787    325.13382    280.97308   -12.876893    9.9481154    44.160746    40.188393 
141952000    278.07682     324.4956    285.81613   -12.819395    10.666725    38.679474     40.18974 
141956000    282.66957    338.60447    285.79939   -14.637316    10.960271    52.805082    40.189514 
141960000    273.45335    308.23979    274.32808   -12.947304    11.283161     33.91171    40.186919 
141964000    277.39599    319.00884     284.4653   -13.098924    11.001075    34.543542    40.187091 
141968000    271.72399    332.75011    270.20746   -12.705849    11.478409    62.542652    40.187691 
141972000    270.47766    310.47773    277.76857   -11.164125    11.029053    32.709158    40.188717 
141976000    272.43572    327.52906    258.06361   -13.781293    12.038919    69.465459    40.186898 
141980000    267.55376    328.69909    261.57698   -12.965214    11.792279    67.122104    40.187805 
141984000    272.47053    307.47015    283.10889   -12.674976    11.047591    24.361265    40.185996 
141988000    275.58138    320.65468    270.18869   -13.006206    11.542024    50.465983     40.18628 
141992000    270.55719     315.9846    285.98266   -12.852942    10.767732    30.001943    40.182537 
141996000    284.75199    341.12892    286.60725   -14.635959    11.031102    54.521675    40.184276 
142000000    266.12348    311.03795    257.68052   -11.557751    11.713065    53.357438    40.184715 
142004000     271.9645    323.36278    275.27386   -11.664707    11.025612    48.088911    40.184927 
142008000    262.07389    312.01637    266.39144   -12.244199    12.481496    45.624931    40.184821 
142012000    272.43655     326.6668     270.9635   -14.314839    12.031696      55.7033    40.187747 
142016000    267.43663    323.98621    283.06233   -15.261937    11.237049    40.923885    40.189863 
142020000    269.11649    289.08472     293.0342   -11.360197    11.460725   -3.9494776    40.189807 
142024000    263.48485    284.42087    284.74968   -10.193593    11.624142  -0.32880402    40.191042 
142028000    277.23392    311.16662    292.64188   -12.106488    11.639353    18.524735    40.187813 
142032000    275.08246    332.98174    285.79325    -13.04327    12.185679    47.188491    40.188566 
142036000    271.92704    326.04851    275.70219   -13.240806    12.062951    50.346317    40.189766 
142040000    278.54261    324.35734    304.04125   -11.742513    8.9388543    20.316092     40.19089 
142044000    275.00979    321.03759    274.91096   -12.427374    10.460961     46.12663    40.185543 
142048000    277.85641    311.47273    295.94544   -12.312237    10.714207    15.527287    40.184289 
142052000    276.98568    315.11839    302.93796    -13.57737    10.087067    12.180432    40.184333 
142056000     263.3637    287.23229    255.26246   -11.236642    12.619658    31.969834    40.185983 
142060000    269.18022      306.866    274.21258   -13.067682    11.642137    32.653424    40.183102 
142064000    261.77523    284.95347    268.60184   -12.343284    12.059498    16.351635    40.180836 
142068000    275.15542    320.47203    281.77538   -13.068434     10.88379    38.696653    40.180438 
142072000    274.27876    308.37575    289.87044   -13.290862    10.801957    18.505304    40.178806 
142076000    284.05675    353.25645    297.95488   -14.815896    9.6305132    55.301571    40.176953 
142080000    281.80026     353.2542    280.51765    -14.53901    10.670191    72.736544    40.178638 
142084000    265.29197    311.85465    264.86217   -12.939832    12.700121    46.992488    40.175704 
142088000     275.3922    338.59141    274.55436   -13.050983    11.735709    64.037046    40.173075 
142092000    265.48418    315.46589    258.50722   -11.807056    12.456761    56.958664    40.174633 
142096000    271.71266    325.63524    277.35338   -12.945404    11.793873     48.28186    40.175117 
142100000     273.2453    325.54398    271.23585   -13.691466    11.737508    54.308129    40.175422 
142104000    277.98638    339.28786    288.09036   -14.091497    11.178543    51.197501    40.175528 
142108000    273.92727    317.49132    285.71456   -13.715632    11.896834    31.776755    40.175126 
142112000    268.05091    325.72663    282.43269   -15.119484    13.249334    43.293937    40.176424 
142116000    277.85477    333.23833    289.22084   -13.782012    11.525039    44.017489    40.175523 
142120000    268.72921    318.31195    256.86417   -13.763349    12.990341    61.447779    40.177656 
142124000    280.00616    328.38372     282.2761   -12.977641    10.648901    46.107626    40.178904 
142128000    274.52179    318.01022    280.77333   -13.195689    10.952729    37.236892     40.17754 
142132000    278.15601    341.17417    287.82996   -14.892032    11.484811    53.344204    40.177424 
142136000    278.87285    329.86791    282.12303   -14.533238    12.887698    47.744872    40.179209 
142140000    277.34931    340.86769    292.41052    -14.20285    12.554729    48.457165    40.177343 
142144000    267.88043    325.27512    274.00009   -14.141746    12.979313    51.275031    40.175158 
142148000    259.81442    306.58174        248.6   -11.885465    13.457462    57.981742    40.176368 
142152000    268.84539    306.36807    292.75956   -13.073691    12.074163     13.60851    40.173234 
142156000    266.82011    327.32144    256.52997   -12.656928    13.392649    70.791472    40.172034 
142160000    272.29977    320.19177    286.63207   -12.393744    12.214987    33.559698    40.172709 
142164000    280.00202    342.46101    302.26966   -13.809982    11.883774    40.191346    40.171382 
142168000      273.043    332.28708    285.44798   -13.520245    12.530333    46.839104    40.170257 
142172000    273.88014    322.71314    299.46384   -13.397583    12.258236    23.249305    40.170884 
142176000    275.05952    312.32655    292.77635    -11.54205     11.64257    19.550197    40.170035 
142180000    261.91911     292.3412    256.45805   -12.405101    13.569651    35.883148    40.168453 
142184000    263.45766    315.03549    284.08426   -13.073338    12.286577    30.951229    40.168828 
142188000    272.25636    322.71349     286.9602   -13.894235    13.888509    35.753288    40.169512 
142192000    274.49808    327.89178    301.44863   -14.162343    11.689157    26.443149    40.169313 
142196000    270.45933    317.90071    266.44664   -13.866197     13.09057    51.454071    40.170641 
142200000    267.44274    312.38317    276.18419   -12.438931     11.85629    36.198984     40.17321 
142204000    266.79441    319.87871    272.00721   -12.962148    13.320683    47.871496    40.173434 
142208000    278.58394    323.31463    275.63116   -13.088946    13.282436    47.683467    40.174622 
142212000    267.55884    312.43827    277.18922   -13.930351    11.830399    35.249045    40.175538 
142216000    265.95362    304.52724    272.97857   -12.209998    12.471649     31.54867    40.175128 
142220000    265.00072    288.87681    278.45439   -13.635106    11.938901    10.422428    40.172971 
142224000     268.7656    313.32579     283.1536   -13.912987    12.513141    30.172184    40.171918 
142228000    269.78296    303.83012    284.47535   -13.567222    12.394347    19.354768    40.172307 
142232000    279.35423    352.16639     276.3021   -15.906853    13.762869    75.864296    40.171377 
142236000    273.94552    307.98415    292.17972   -13.712576    12.395608    15.804427    40.168043 
142240000    277.07914    320.28159    289.83576   -14.674251    12.503648    30.445828    40.167551 
142244000    274.29784     322.6672    281.02961   -13.955483    12.244421    41.637584    40.166287 
142248000    282.18725    333.18087    278.16708   -15.087428    11.538931    55.013785    40.167092 
142252000     271.8208    308.80754    278.14219   -14.407685    11.858299    30.665354     40.16586 
142256000    276.57551    335.52649    280.70331    -14.61959    11.884343    54.823178    40.168174 
142260000     272.4912    310.17008    285.71426   -13.111781    12.172034    24.455822     40.16534 
142264000    271.11494    317.99756    279.25425   -13.121168    12.551684    38.743301    40.164583 
142268000    274.91363    318.68884     304.2459   -14.343346    10.951124    14.442941    40.162911 
142272000    281.08575    340.20079    265.95414   -17.052989    12.210069    74.246647      40.1646 
142276000    265.59432    294.96206      269.062   -14.464603     12.11914    25.900056    40.163238 
142280000    274.97276    307.51196    281.94537   -14.519751    11.203605    25.566584    40.165396 
142284000    284.86585    339.23646    301.94866   -16.309197    10.895207    37.287804    40.165565 
142288000    275.67978    316.00503    298.75836   -14.812267    11.240276    17.246672    40.161143 
142292000    272.23548    312.55133     284.0383   -14.467112    11.566223    28.513033    40.156589 
142296000    268.95799    320.14325    275.20397   -14.598854    12.220698    44.939278    40.156874 
142300000    275.09303    317.22242    296.16533   -14.289957    10.787981    21.057094    40.155709 
142304000    285.55864    331.43304    296.06277   -15.390183    9.9285268     35.37027    40.158282 
142308000    276.53919    299.44756    282.61486   -13.691964    10.248638    16.832701    40.157931 
142312000     271.2724    316.97444    290.78342   -13.708069    11.415874    26.191018    40.155232 
142316000    273.85391    327.03461    291.82991   -14.168551    11.062451    35.204702    40.153992 
142320000    273.60912     300.9568    277.27408   -14.507073    12.286507    23.682723    40.150904 
142324000     272.2116    311.67787    281.72095   -13.775152    12.289502    29.956921    40.150641 
142328000    270.78216    308.40636    281.35245   -15.367028    11.473535    27.053916    40.151369 
142332000    277.34372    329.33612    279.45299   -14.141835    12.481007    49.883128     40.15166 
142336000    271.18105    319.25404    274.92778     -14.2489    12.959561    44.326268    40.151467 
142340000    276.58279    333.09893    284.09761   -15.392195    11.178753    49.001319    40.150626 
142344000    284.91905    316.36141    309.98586   -14.671949    10.570525    6.3755495    40.148482 
142348000    272.16984    308.32847    265.62685   -13.860091    13.027784    42.701626    40.145267 
142352000    278.46075    303.87864    293.90049   -13.612333    11.056272    9.9781567       40.145 
142356000    275.59916      315.047    258.49718   -13.200333    12.728048    56.549816    40.146872 
142360000    287.83094    341.19212    282.69626   -16.595546    11.215992    58.495854    40.147963 
142364000      269.411    314.17066     264.6869   -15.039475    13.104918    49.483759    40.146084 
142368000    276.79528    329.56936    267.18791   -16.351521    12.685489    62.381452     40.14432 
142372000     275.0014    315.76756    266.49045   -15.241088    13.165725    49.277117    40.140747 
142376000    281.18204    334.01396    279.39719   -15.410139    12.954393    54.616773    40.137847 
142380000    278.75348    295.22346    295.69451   -15.148121    10.756428  -0.47105085     40.13684 
142384000    279.20612    317.23441     286.8617   -13.932811    10.892539    30.372714    40.136801 
142388000    281.92404    341.19872    294.63465   -15.528121    11.108419    46.564068    40.134029 
142392000    280.09191    330.96848     284.2738   -15.461205    11.153098    46.694672    40.134908 
142396000     282.6992    336.83951    293.53095    -14.39151    12.332087    43.308566    40.137299 
142400000    276.80702     324.6197    273.51311   -14.378496    10.946031    51.106596    40.137409 
142404000     278.6901    334.78686    276.32327   -15.088024    11.727258    58.463591    40.140137 
142408000    276.18613    306.80318    280.78706   -14.457944    11.961941    26.016127    40.139617 
142412000    272.54851     331.1518    251.91825   -17.151078     13.53846    79.233547    40.140543 
142416000    275.94807    301.84942    272.32621   -14.539378    12.570233    29.523211    40.137288 
142420000    281.96361    336.46057    275.08378   -16.400829    11.232482     61.37679    40.135371 
142424000    276.37943     320.0076    284.21752   -16.719363    11.431478    35.790085    40.134291 
142428000    274.00586    313.64284    282.58106   -16.180407    11.557972    31.061772    40.133419 
142432000    280.56339    332.20817     275.8959   -16.484187    12.068874    56.312271    40.132815 
142436000    281.81076    318.29684    285.17009   -15.718346    11.483785    33.126757    40.130051 
142440000    271.78495    312.31132    250.49547   -14.298122     12.67016    61.815855    40.129371 
142444000    275.41999     319.6369    281.39035   -16.322498    11.419119    38.246549    40.128847 
142448000    277.61822    332.95241    267.66579   -15.789142    11.729963    65.286618    40.129088 
142452000    275.45527    333.51729    294.65476   -16.180487    11.524072    38.862533    40.129538 
142456000    282.06672    339.80913    289.08165   -15.906206    10.989205    50.727481    40.128954 
142460000    276.90329    323.32117    273.17965   -14.820843    12.388054    50.141522    40.128872 
142464000     277.2225    314.87703    294.22898   -14.998457    10.573713    20.648055    40.130894 
142468000    281.03119    315.23168    294.86832   -15.819474    11.074863    20.363363    40.130566 
142472000    277.69007    333.56607    286.23851   -16.290741    11.029149    47.327557    40.131637 
142476000    279.47383    300.60293    295.91489   -15.107032      10.5048    4.6880456      40.1288 
142480000    277.28565     332.4007     265.2555   -15.419473    11.840252    67.145205      40.1272 
142484000     277.1258    311.28093    287.80008   -13.887174    11.194954    23.480849     40.12715 
142488000    279.39144     306.4442    293.93271   -14.504986    11.416517    12.511486    40.127303 
142492000    280.82241    325.24248    299.87652    -15.52561    10.894707    25.365959    40.127704 
142496000     279.4032    329.32521    285.49922   -15.076565    11.473117     43.82599    40.129317 
142500000    274.49211    333.86968    278.70268   -15.531323    13.532814    55.166999    40.126826 
142504000    282.75025    319.02034    300.03368   -15.029116    10.845636    18.986663    40.126286 
142508000    276.87894    313.60989     280.4932   -15.215596    12.614934    33.116694    40.124012 
142512000    277.98848    308.01152     273.5751    -15.18055    12.401787    34.436419    40.123213 
142516000     265.7061    300.09937      269.216   -14.731455    12.448385    30.883368    40.123108 
142520000    275.04388    334.82528    263.94311   -17.383736    13.425389    70.882173    40.122701 
142524000    274.16398      324.362    250.64451   -16.209347    12.509064    73.717494    40.123348 
142528000    274.20218    312.62557    270.59094   -16.004415    11.594802    42.034632    40.125078 
142532000    282.87607    322.37705    278.04127   -16.132664    12.119772    44.335781    40.124561 
142536000    281.29777    331.93181    272.51317   -16.801923    12.078915    59.418633    40.121892 
142540000     282.5824    352.97499    276.42874   -17.571264    13.018178    76.546257    40.122078 
142544000     284.5837    320.98973    270.91315   -17.096626    12.252027    50.076575    40.121784 
142548000    280.13054     313.0496     278.9532   -16.144131    11.155846    34.096402    40.121159 
142552000    287.90806    350.22955     291.7361   -18.466886     11.28584    58.493448     40.12139 
142556000    275.15355    308.11109    296.89518   -16.344669     11.57059    11.215917    40.120119 
142560000    285.58778    325.73024    297.47263   -15.869998    11.260815    28.257614    40.120312 
142564000    276.01084    309.39034    288.07474   -15.155501    11.883798    21.315594    40.119992 
142568000    283.39782    338.33835    281.63955   -17.082746    13.042953    56.698798    40.118542 
142572000    279.36891    315.60562    270.73464   -15.471192    12.592981    44.870979    40.120292 
142576000    272.18795    303.03399    289.32946    -14.25553    11.449707    13.704533    40.120193 
142580000    284.75971    338.60703     288.4182   -16.836628    11.724054     50.18883    40.121527 
142584000    276.02343    304.53838     287.7151    -16.38518     11.53251    16.823279    40.118107 
142588000    269.60805    299.80592    271.03447    -15.37877    12.032671    28.771453     40.11889 
142592000    269.37524    307.22264    282.90198   -15.879922      11.3635    24.320656    40.118499 
142596000    275.37567    305.54808    282.33533   -14.521884    12.551538    23.212749     40.11954 
142600000    270.45465    320.98749    258.18473    -14.50082    13.650288    62.802766      40.1199 
142604000    285.26408    325.67232    298.35513   -15.332585    11.766383     27.31719    40.122243 
142608000    279.65106    320.39451    289.41843   -15.142954    10.331152    30.976075     40.12533 
142612000    282.91889    330.21541    286.84752   -16.049124    11.216418    43.367894    40.124326 
142616000    268.96236    319.27402    278.32318     -14.2807    12.594781    40.950838    40.124224 
142620000    282.58921    329.70822    298.97329   -14.292049    11.184954     30.73493    40.126287 
142624000    274.34209    313.40489    275.64423   -14.364495    11.703687    37.760658    40.124768 
142628000     278.2309    319.21619    294.20063   -14.044521    11.565522    25.015559    40.125818 
142632000    269.42932    304.81343    284.86981   -13.698895    11.801191    19.943624    40.127241 
142636000    279.75288    330.15724    280.49035   -14.071363    11.827965    49.666895    40.125894 
142640000    258.54069    303.38924    263.76797   -13.383833    12.644335    39.621276    40.126258 
142644000    272.85912    325.11807    280.32849   -16.147456    11.654959    44.789577    40.126189 
142648000    279.43548    359.31887    258.05309   -15.574083    13.283414    101.26577    40.126169 
142652000    267.14756    315.78977    285.47575   -14.325233    11.961961    30.314014    40.126781 
142656000    276.69571    335.13642    271.37914   -15.866202    13.371037    63.757277    40.125974 
142660000    271.48126     300.9307    284.85792   -13.544574    12.637189    16.072778    40.126063 
142664000    280.17736    320.00637    283.61779   -15.045137    11.348979     36.38858    40.125777 
142668000    277.31495    316.38565    283.82287   -14.733321    12.259277    32.562782    40.123863 
142672000    271.14711    306.41491     277.0942   -14.732831    10.970637    29.320715    40.124353 
142676000    275.30309    322.94332    283.70397   -15.821888    13.157183    39.239345    40.122037 
142680000    270.08253    310.97372    276.78364    -14.62663    12.963374    34.190081    40.120637 
142684000    268.80793    313.18427    280.84187   -16.495392    12.957659    32.342398    40.120032 
142688000    268.38412    319.17061    248.86187   -15.599377    13.819906    70.308733    40.120545 
142692000    270.51499    319.66818    269.53259   -16.317692    13.642049    50.135583    40.123195 
142696000    283.82311    314.63682    297.64756   -14.468114    12.611448    16.989265    40.123807 
142700000    274.98639    322.45266    270.98907   -16.247643    13.919008    51.463588    40.121623 
142704000     278.7254    326.98964    281.32804   -15.545125    13.823585    45.661606    40.120697 
142708000    266.32174    300.74577    286.07172   -14.463327    14.577137     14.67405    40.121094 
142712000    277.72979    325.84377    263.22683   -15.026622    14.088748     62.61694    40.120289 
142716000    276.36751    328.46862    296.39704   -14.809952    13.245554    32.071579    40.117136 
142720000    262.23793    308.99848    267.54437   -14.667481    14.082406    41.454109    40.116498 
142724000    261.52215    303.01261    273.35699   -14.465188    14.394397    29.655613    40.118183 
142728000    277.78824    341.54688    284.98173   -15.082748    12.487295    56.565149    40.121432 
142732000    272.17829    310.29506    290.30161   -15.438777    12.647964    19.993444    40.121243 
142736000    276.95537    322.17185    283.73633   -14.998975    13.342894    38.435519    40.121983 
142740000    277.69626    310.80607    284.56347   -15.477869    13.068878      26.2426    40.121029 
142744000    277.35855     316.1697    271.52522   -15.941617    13.832686    44.644475    40.121999 
142748000    277.54464    312.67434    299.76579   -15.144998    12.722127     12.90855    40.121254 
142752000    273.84317    331.81214    284.47498   -15.980596    12.128411    47.337161    40.121241 
142756000    278.96822    333.73737    297.85731   -15.306055    13.023623    35.880063    40.122538 
142760000    273.36055    326.76713    270.20069   -14.517335    13.257955    56.566447    40.122339 
142764000    281.27224    335.08302    295.34436   -15.102054    12.468604    39.738668    40.122014 
142768000    278.33684    324.54797    288.24364   -15.087777    12.504892     36.30433    40.122078 
142772000    268.93374    316.40045    267.08984   -14.518072    12.964737    49.310609    40.122964 
142776000    267.54281    309.31823    295.82845   -14.416914      12.2547    13.489785    40.120762 
142780000    276.28727    322.09013    257.83996   -15.634069    13.247314    64.250165    40.119153 
142784000    268.96429    306.99357    260.65034   -14.132853    13.334098    46.343236    40.117945 
142788000    275.50275    319.17883     284.1727   -12.889761    13.114158    35.006131    40.116777 
142792000    285.55618    342.06425    283.33597   -15.240837    12.891629     58.72828    40.115913 
142796000    276.93373    312.49676    287.65064   -12.672391    12.450562    24.846114    40.116658 
142800000    278.23593    313.62332    307.84006   -14.456777    10.933017    5.7832612    40.114306 
142804000    276.78924    329.11004    287.90391   -16.047428     12.93283    41.206126    40.115381 
142808000    279.45993    311.60431       302.54   -14.571806    12.023507    9.0643091    40.112135 
142812000    276.74687    293.98942    284.99586   -14.745941    11.755764    8.9935543    40.111173 
142816000    279.60514    324.50919    286.24275   -15.174283    11.719167     38.26644    40.109216 
142820000     277.1637    327.95655    261.99192   -15.182758    13.206818    65.964635    40.110969 
142824000    276.76155    308.47694    291.49467   -15.018373    11.693528    16.982268    40.111389 
142828000     279.6302     317.3057    297.75052   -14.738145     11.72574    19.555173    40.112695 
142832000     286.3033    327.64124    327.02528   -15.031927     11.12547    0.6159571    40.109415 
142836000    285.04201    329.60801    318.54345   -14.459915    10.785219    11.064561    40.108532 
142840000    282.44609    331.96468    279.44944   -14.396527    12.742855    52.515243    40.110647 
142844000    282.78363    317.95357    298.58462   -14.662855    11.254297    19.368951    40.108992 
142848000    286.72288      346.281    298.40121   -17.699067    11.545473    47.879786    40.110059 
142852000    281.70808    328.99699    276.29195   -16.556486    13.199312    52.705036      40.1105 
142856000    267.84241    289.51759    268.04884   -13.351617    15.069577    21.468741    40.111149 
142860000    275.03208    310.05558    286.00665   -15.051329    12.672557    24.048938    40.111202 
142864000    276.58506    317.22687    272.90599   -15.006951    13.795202    44.320873    40.108072 
142868000    281.78505    339.01914    266.41778   -16.999589    13.695782    72.601354    40.107991 
142872000    287.22151    344.27357    289.57884   -16.978753    12.021145    54.694737    40.106779 
142876000    279.25641    309.71425      291.515   -14.896953    11.834788    18.199248    40.104968 
142880000    282.85239    304.09431    300.16104   -15.409598    11.119672    3.9332678    40.103675 
142884000    286.63485    332.89718    282.95796   -16.230502    11.818169    49.939222    40.102037 
142888000    279.11178    313.91678    266.00313   -14.995162    12.996741    47.913655    40.101321 
142892000    284.18399    349.08153    293.80618    -16.52218    12.297793    55.275358    40.099761 
142896000    284.42079    319.33624    306.37476   -15.674412    10.490435    12.961479    40.097329 
142900000    276.15535    317.42877    297.83458   -15.760968    10.939552    19.594195    40.098186 
142904000    278.01642    323.99527    293.44491   -16.920362    13.064306    30.550362    40.097561 
142908000    279.21915     319.9257    289.97791   -16.633942    13.816674    29.947789    40.097045 
142912000    271.32504    299.43574    275.85769   -15.020412    13.294496    23.578049    40.097295 
142916000    269.72187    315.46506    278.25844   -16.602813    13.520637    37.206617    40.097775 
142920000     280.2252    337.54091    282.82474   -17.616659     13.09049    54.716166    40.099255 
142924000    270.53407    312.98224    269.80308   -16.223489    13.669207    43.179164    40.100159 
142928000    268.58423     312.7178    282.77033   -15.788566    13.678148    29.947465    40.098912 
142932000    276.64777    322.63103    281.54488   -15.436419    13.309329    41.086147    40.098497 
142936000    276.59695    314.52488    280.84342   -15.406977    13.769169    33.681458    40.099627 
142940000    284.34612    326.66337    276.11589   -15.338846    13.228284    50.547483    40.098991 
142944000    275.42593    336.14957    284.75902   -17.259642    13.778523    51.390548    40.098582 
142948000    271.50803    314.93376    273.09064    -14.75653    14.089218    41.843114    40.099974 
142952000     270.8761     346.4834    262.43273   -17.340676    15.401528     84.05067    40.099293 
142956000    278.39623    321.34208    286.15847   -14.198308    12.925945    35.183608    40.099525 
142960000    278.60304    336.53412    279.14263   -14.649973    13.492737    57.391496    40.098737 
142964000    272.22361    324.47467    288.67477    -13.62966     12.91814    35.799904     40.09773 
142968000    271.34896    303.23049    274.13822   -13.514227    12.607235     29.09227    40.099473 
142972000    281.93332    330.55411    293.52018   -16.315699    12.469263    37.033933    40.097791 
142976000    273.69039    322.84925    287.96838   -15.680537    13.406136    34.880874    40.100423 
142980000    277.60052     325.8151    277.75832   -15.529663    13.811394    48.056779    40.100902 
142984000    286.54287    329.13694     306.8468   -15.987903    12.036701    22.290137    40.101353 
142988000    279.85913    319.26124    288.25975   -15.390587     12.17865    31.001489     40.10202 
142992000    281.48456    341.79952    268.09895   -16.161784    12.360374    73.700567     40.10733 
142996000    276.76815    323.57514    267.97566   -16.081535    12.049532    55.599485     40.10601 
143000000    272.58528    296.90032    280.40624   -15.216248     12.69629    16.494076     40.10759 
143004000    277.15501    313.61878    282.41537   -15.279987    13.129788    31.203412    40.107163 
143008000    277.76329    314.60266    289.84342   -15.594284    12.600723    24.759241     40.10657 
143012000    268.44167    300.45376    263.41806   -13.740845    14.255354    37.035709    40.110147 
143016000    270.14429    298.71171      279.766   -13.848364    12.981671    18.945717    40.109505 
143020000    282.84203    325.03566    282.23769   -15.404379    13.235431    42.797965    40.108917 
143024000    273.22336    310.12975    284.94995   -16.056823    14.251847    25.179793    40.106094 
143028000     277.4727    314.05402    293.16051   -15.412096     12.49182    20.893509     40.10492 
143032000    277.48574    314.21377     285.8542   -16.319537    12.719623    28.359568    40.105245 
143036000    279.61558    322.67354    287.38876   -15.789016    12.146565    35.284783    40.103297 
143040000    279.69526    315.50802    276.25377   -16.311821    12.842436     39.25425    40.103553 
143044000    278.94904    329.68112    263.60142   -16.925755    13.151715    66.079705    40.103457 
143048000    276.80783    330.78639    270.46444    -16.84778    13.411633    60.321951    40.104328 
143052000    277.36835    315.06499    290.75273   -16.028746    12.009088    24.312252    40.105284 
143056000    276.38104     336.3665    265.79734   -17.347537    12.868134    70.569156    40.104145 
143060000    277.91838    336.21231    273.24713   -16.576738    13.680115     62.96518    40.105255 
143064000    285.70209    335.69728    291.12556   -16.662586    13.138574    44.571724     40.10357 
143068000     272.8378    304.35743    291.38685   -14.495073    11.803288    12.970581    40.100261 
143072000    272.81343    312.08626    268.95735   -16.985192     13.86093     43.12891    40.100416 
143076000    280.96911     330.8113    280.59432   -16.749213    13.370847    50.216981    40.097796 
143080000    273.46814    314.55079     274.0342   -15.671251    13.378704    40.516595    40.095958 
143084000    274.27731    301.93411    288.27924   -14.631055    13.032249    13.654873    40.095895 
143088000    273.26009    302.79311    279.91374   -15.149151    13.226241     22.87937     40.09528 
143092000    280.17827    310.24287    294.76988   -16.523826    13.060393    15.472984    40.093785 
143096000    272.51788    306.40638    282.66265   -16.489471    13.072393     23.74373    40.091344 
143100000    275.26903    314.99937    270.99928   -15.322453    14.297716    44.000095    40.089609 
143104000    272.17041    326.54127    272.17961   -16.656717    14.791383     54.36166     40.09107 
143108000    271.89627    306.56722    270.22168   -15.028043     14.05302    36.345539    40.091364 
143112000    275.51325    329.67564    268.97629   -15.138361    14.416309    60.699353    40.092583 
143116000    277.16364    314.43842    284.06853   -15.392884    13.187923    30.369886    40.092076 
143120000    283.22265    328.95226    291.39906   -14.501684    13.216975    37.553198    40.094474 
143124000    274.61802    316.06856    273.21832   -17.212099    13.373187    42.850242    40.092671 
143128000    286.75147    339.77324     294.7699    -17.25515    12.601228    45.003331    40.091788 
143132000    269.95907    300.05051     272.6249   -14.137814     12.95882    27.425608    40.092983 
143136000    285.28942    333.80277    273.88809   -16.216796    13.207116    59.914683    40.095286 
143140000    266.79301    308.45327    254.45992   -16.121976    14.602579    53.993354     40.09584 
143144000    270.27862    314.51545     246.4863   -15.493217    14.910335    68.029153    40.098307 
143148000    281.21821    311.13304    298.47756   -17.279001     12.90308    12.655479    40.099084 
143152000    283.04478    343.12309     271.5948   -17.426572    13.869341     71.52829    40.096581 
143156000    273.73036    324.06226    258.55539   -16.538653    13.682256    65.506868    40.098321 
143160000    284.44706    343.74149    286.09778   -17.801281     13.22245    57.643707    40.098463 
143164000    280.67379    307.13722    285.41663    -15.92705    12.138694    21.720596    40.097702 
143168000    265.89747    292.06605    270.32679   -14.980897    14.019608    21.739255    40.096137 
143172000    289.36515    312.79468    290.30331   -15.639558    12.749978    22.491368    40.095601 
143176000    267.54427    289.74611    269.58681   -14.758142    13.235124    20.159302    40.095344 
143180000    277.48961    309.19312    280.06992   -16.590059     13.11855    29.123202    40.096541 
143184000    285.18483    350.71624    288.67704   -17.817477    12.925968    62.039195    40.097142 
143188000    276.21307    311.37926    280.73381   -16.425053     11.37849    30.645442    40.100058 
143192000    282.62258    339.18926    276.91731   -17.900716    13.322087    62.271945     40.10102 
143196000    280.28208    314.51108    291.35874   -15.325716     12.26805    23.152346    40.101904 
143200000    286.31997    318.87649    295.21555    -14.17726    12.001465    23.660934    40.102821 
143204000    286.35522    341.99855     290.7265   -15.898862    12.745232     51.27205    40.105755 
143208000    281.08788    326.61711    263.73596   -16.564045    13.179595    62.881158    40.106001 
143212000    278.25662    328.15026    274.33827   -15.522893    12.766402    53.811989    40.107481 
143216000    271.37097    304.84768    268.10143   -14.819019    12.172963    36.746247     40.10903 
143220000    289.04004    333.16791    287.03669   -17.019719    11.421414    46.131217    40.109567 
143224000    292.05407    346.84302    292.70332   -17.991171    11.615389    54.139704    40.111516 
143228000    281.61209    319.93459    300.59536   -16.108756    11.240301    19.339225    40.110236 
143232000    288.14985    335.52975    274.05497   -17.424431    12.077669    61.474785    40.110222 
143236000    280.88687    327.68107    272.39153   -17.198846     12.48729    55.289536    40.109075 
143240000    282.62892    324.94884    290.74738   -17.205358    13.049155     34.20146    40.106436 
143244000    274.15711    321.00016    249.51985   -17.479821    13.144352    71.480306    40.108263 
143248000    268.14788    300.10474    266.63224   -15.399055    13.051189    33.472508    40.107836 
143252000    276.61405     307.9758    280.16746   -16.145926    12.181986    27.808348    40.109258 
143256000    277.27041    327.07944    274.86454   -16.453879    12.616432    52.214898    40.109966 
143260000    280.29396    330.64498    293.97584   -16.302492    11.649146    36.669142    40.109356 
143264000    273.15414    313.07473    281.93815   -16.064986    12.749582    31.136581     40.10958 
143268000    281.62251    334.11169     298.4894   -16.119341    11.367759    35.622288      40.1075 
143272000    274.13544    313.14816    273.14958   -14.850463    13.629057    39.998586    40.110068 
143276000    276.92842      336.114    264.56981   -16.451506    13.202891    71.544195    40.109061 
143280000    273.66418    327.32797    273.77162   -14.781147    13.333684    53.556357    40.107096 
143284000    277.31785    305.41512    292.53636   -15.481419    11.266772    12.878766    40.106406 
143288000    272.45509     324.9925     262.9051   -16.398081    12.858717    62.087399    40.103764 
143292000    282.63895    296.56505    293.54446   -14.223227    11.349897    3.0205956     40.10435 
143296000     283.2484    332.24398    288.68925   -15.329769    11.538239    43.554732    40.102459 
143300000    271.00574    305.90795    279.20911    -14.02489    12.435781    26.698841    40.102319 
143304000    282.10358    349.20168    281.77754   -16.766364    11.584528    67.424135    40.103684 
143308000    273.95456    311.77075    268.63143   -15.041604    12.545217    43.139315    40.102398 
143312000    274.81821     319.3842    277.20935   -15.248629    13.786461    42.174848    40.101486 
143316000    278.11274    309.14301    299.68197   -14.935702    11.543075    9.4610317     40.10081 
143320000    281.14245    335.72517    279.96363   -16.271526    13.552953    55.761544    40.102479 
143324000    283.69836    327.43305    295.71655   -15.436382    12.340034    31.716501    40.101948 
143328000    278.88785    356.74056    280.36153   -16.429291    12.282105    76.379033    40.101134 
143332000    279.42189    325.38489    276.75448   -15.383704    12.194501     48.63041    40.103443 
143336000    279.59275    329.23652    296.03982    -16.46236    11.771979    33.196697    40.101892 
143340000    273.86435    298.31864    284.82142   -14.211062    11.332079    13.497221    40.102782 
143344000    276.80496    318.36717    286.09733   -14.757795    10.985449    32.269841    40.102724 
143348000    276.09845    333.26107    288.87297   -16.229034    12.191674    44.388106    40.101918 
143352000    279.03515     329.9411    264.75181   -15.465515    12.698954    65.189299    40.103684 
143356000    279.05474    326.07206     287.5872   -16.294292    11.949956     38.48486    40.102732 
143360000    272.92289    303.74737    264.73215   -16.391165    13.325642    39.015219    40.102248 
143364000     283.0927    333.64582    284.81497   -17.391992    13.205158    48.830855    40.104999 
143368000    270.17961    301.13646    285.82282   -15.528119     13.25496    15.313647    40.104945 
143372000    267.95149    321.11902    275.05905    -15.71324    14.149409    46.059978    40.103445 
143376000    291.90971    344.51564    313.02202   -17.525746    12.735723    31.493623    40.103264 
143380000    275.36553     316.8552    297.34659    -16.73374    12.298229    19.508616    40.103131 
143384000    276.37628    326.48391    287.35515   -16.663851     12.18907    39.128769    40.101749 
143388000    284.63687    326.98157    289.32079    -17.39138    11.219501    37.660784    40.102073 
143392000    290.43656     343.1757    304.92885   -17.276182    10.702112    38.246849    40.101349 
143396000    278.01425    311.14692    272.86116   -16.008538    12.307178    38.285759    40.100783 
143400000    283.55253    320.65064    289.35206    -16.27265     11.83814    31.298586    40.099333 
143404000     274.8941    319.58021    267.44391   -15.434641     13.54738    52.136297    40.100257 
143408000    279.29068    321.02723    270.80345   -15.598763    12.314671    50.223788    40.100563 
143412000    291.96486     351.1794    282.35065   -18.372947    12.135502    68.828755    40.100194 
143416000    286.18248    325.67779    304.82304   -16.780021    10.460554    20.854758     40.10166 
143420000    284.70051    324.25735    292.83427   -16.170002    11.477262    31.423079    40.099637 
143424000    276.08762    322.91337    267.24453   -16.790598    12.305949    55.668841     40.10079 
143428000    276.70366    297.92267    289.93857   -15.495117    11.221616    7.9841046    40.099522 
143432000    272.68398    321.56954    251.32106   -15.827816    12.645084    70.248486     40.10084 
143436000    276.46972    319.19776    285.13321   -14.886638    11.674453    34.064548    40.101644 
143440000    270.74967    311.53577     269.0462   -14.712355    13.516054    42.489573    40.100893 
143444000    275.89534    313.81198    277.38506   -15.825722    12.490783    36.426923    40.102086 
143448000    278.74347    329.82544    289.47352   -16.588746    12.034504    40.351919    40.099329 
143452000     275.9497    310.87812    292.09334   -14.937228    11.747156    18.784773    40.100264 
143456000    276.30368    331.53442    276.04197   -15.328491    13.280408     55.49245    40.100973 
143460000    272.58285    309.98408     280.9576   -15.349415    13.363557    29.026482    40.101681 
143464000    278.79808    308.40555    294.88017   -16.028249    12.565775    13.525382    40.101671 
143468000    265.33634    288.02858    263.05035   -13.191419    14.678089    24.978231    40.099974 
143472000    290.30688    345.86771    299.64256   -16.470678    13.275708    46.225152    40.098573 
143476000    278.24883    339.93285    273.06239   -16.248657    13.611282    66.870461    40.099732 
143480000     286.0499    345.85062    298.50505   -16.456099    13.446274    47.345562    40.100614 
143484000    276.24018    304.22866    293.32364    -13.96849    12.435914    10.905018    40.099041 
143488000    272.18544     304.7058    279.78108   -15.175252    13.126201    24.924721    40.098276 
143492000    280.01019    320.83899    301.83419   -15.894152    12.805938    19.004805    40.097835 
143496000    279.50926    326.03744    282.58948   -15.723798     13.00929    43.447957    40.099721 
143500000    286.94318    348.43242    298.70185   -17.270474    13.241448    49.730576    40.101815 
143504000     274.5532    317.11817    271.49935   -16.115925    14.609355    45.618813    40.104227 
143508000    269.38736     314.8404    266.07825   -14.914842    14.944133    48.762147    40.101439 
143512000    276.28051    311.38052    285.60903   -15.505421    13.913758    25.771495    40.101519 
143516000    272.27912    339.36088    268.23582   -16.347391    14.977816    71.125067     40.10261 
143520000    269.98115    312.50363    303.16393   -15.744526    13.128579    9.3396998    40.101776 
143524000    281.34822    336.64033    286.99845   -17.584357    13.916043     49.64188     40.10271 
143528000    272.14522    319.95363    285.36171   -16.183047     14.56675     34.59192     40.10233 
143532000    276.79308    325.78348    294.10142   -15.619194    13.406499    31.682065    40.102639 
143536000    268.90299    306.56612    282.51464   -15.691506    13.587836    24.051478    40.101526 
143540000    277.80151    315.31977    298.27718   -15.642497    13.955423    17.042591    40.101063 
143544000    262.88717    319.74478    254.61534   -15.275402    15.465001     65.12944    40.102073 
143548000    270.46263    307.34074    285.65313   -15.861534    13.520815     21.68761    40.100897 
143552000    268.10206     320.7398    281.60458   -15.689373    13.055105    39.135216    40.101468 
143556000    253.78505    287.64093    246.09455    -13.22876     15.72881    41.546375    40.101576 
143560000    265.25746    319.52458    266.10317   -16.627493    14.754022    53.421406    40.101563 
143564000     266.2282    306.02762    260.01354   -14.237406    15.519139    46.014086    40.099994 
143568000    275.41933    328.35986    275.82073   -15.067047    14.580322    52.539123    40.098666 
143572000    269.08346    314.03032    290.38205   -14.834922    13.675265    23.648272    40.096818 
143576000    270.76287    321.53363     272.4348   -15.200657    13.840676    49.098822    40.096587 
143580000    268.58126    317.60632    286.04847   -16.483236    14.063418    31.557852    40.095058 
143584000     268.4782    322.39829    266.01176   -15.900808    14.976824    56.386533    40.096277 
143588000     274.7351    323.48065     277.5158   -14.986072    14.917852     45.96485    40.096812 
143592000    274.20611    323.08356    286.00573    -14.16363    15.062173    37.077825    40.095663 
143596000     278.8414    335.99707    277.19879   -15.296116    14.900026    58.798275    40.096406 
143600000     261.1489    309.44272    268.47605   -13.451092    14.002089    40.966668    40.096048 
143604000    258.25058    292.68459    269.02055   -13.898832    15.170637     23.66404     40.09689 
143608000    268.34316    301.69537    276.27565   -14.521916    14.301356    25.419719    40.098565 
143612000    272.09221    306.52826    293.87595   -14.769076    14.263687    12.652317    40.097855 
143616000     277.5632    330.79507    308.28755   -15.991094     11.95628    22.507521    40.097746 
143620000    277.71055    334.34886    282.63015   -15.762086    13.498558    51.718715    40.098366 
143624000    275.04936    303.72411    306.35859   -14.460816    13.091344   -2.6344805    40.096152 
143628000    283.68027     336.4623    295.72199   -14.782336    13.014551    40.740312    40.096188 
143632000    258.24578    298.39503    256.87931   -13.888314    15.123318    41.515714    40.098398 
143636000    271.53052    312.55705    284.49906   -14.953131    13.283734    28.057987    40.097394 
143640000    271.85809     324.1845    278.01349   -14.599478     13.89885    46.171011    40.096807 
143644000    257.34429    313.41213    245.80722   -14.682807    16.438921    67.604904    40.095811 
143648000    280.63357    338.18236    280.05445   -15.851664    14.232254    58.127907    40.097342 
143652000    271.11385    321.05196    272.77015    -14.86924    14.365129    48.281808    40.096307 
143656000    268.45046    305.90978    272.38211   -16.078399    14.301988    33.527661    40.094337 
143660000     275.2697    312.85995    279.02284   -15.601769     14.04455     33.83711    40.093731 
143664000    271.53535    304.16424    291.83676   -16.069709    13.988292    12.327485    40.093319 
143668000    279.03539    320.49025    296.88119   -15.673783    12.932299    23.609059    40.091868 
143672000    271.46955    308.99139    261.74796   -16.014707    14.755554    47.243431    40.091562 
143676000    273.77331    307.51222    276.47095   -14.944929    13.231184     31.04127    40.089608 
143680000    284.30284     335.1534    289.92217   -16.679855    12.953274    45.231225    40.092259 
143684000    269.13151      295.474    281.90055   -16.286798    13.567986    13.573452    40.095391 
143688000    277.12345    328.26371    283.59413   -17.679025    13.704074    44.669573    40.096735 
143692000     271.0834    302.78135    298.80711   -15.181793    13.627444    3.9742367    40.096573 
143696000    272.85161    308.30557    272.56093   -16.448604    14.060178    35.744643    40.097219 
143700000    280.00082    311.84922    306.73044   -15.948659    12.778716    5.1187851     40.09837 
143704000    275.15632      316.937    272.98829     -16.5385    13.927176    43.948709    40.100559 
143708000    285.36328      307.659    310.39836   -16.239825    12.627827   -2.7393657    40.098359 
143712000    286.97423    332.58194    303.02842   -17.596311    12.214756     29.55352    40.097314 
143716000    278.86176     314.3732    264.67518   -16.914928    13.804892    49.698014    40.097786 
143720000    275.74516    316.28276    289.96122   -16.033203    12.513027    26.321547    40.098211 
143724000    269.49272    313.01233    266.57661   -15.610914    13.261057    46.435717     40.09851 
143728000    283.00873    349.90249    255.40423   -18.686928    14.477529    94.498254    40.102856 
143732000    278.46783    321.58324     267.0527   -17.961272    15.141371    54.530545    40.105758 
143736000    279.20756    329.08674    261.58868   -17.615999    13.964341    67.498059    40.105721 
143740000    277.91242    334.01504    265.45029   -18.138799    14.604606    68.564749    40.106189 
143744000    282.67328    337.67139    263.65799   -18.068049    14.913909    74.013398    40.105557 
143748000    273.99931     318.2581    273.40636   -15.385049     14.76232    44.851735    40.105505 
143752000    287.13047    319.13221    308.86654    -15.33607    13.356455    10.265666      40.1055 
143756000    274.88692    302.02197    286.97194   -15.228723    13.019439    15.050024    40.104311 
143760000    279.44268     318.7163    279.38826   -16.717257    13.098388    39.328043    40.104086 
143764000    283.81515    323.36053    291.98653   -17.087651    13.043596    31.373993    40.104482 
143768000    266.47441    292.29451    281.19965   -16.243714    13.587362    11.094855    40.107271 
143772000    278.82949    328.26612    275.69659   -17.564493    13.908849    52.569524    40.107671 
143776000    280.92245    331.56024    279.66324   -16.544597    14.221212    51.896991    40.106101 
143780000    274.28084    310.40506    291.43402    -15.95456    13.768649    18.971038    40.104859 
143784000    274.32019     318.7019    274.33682   -15.612039    13.835629    44.365079    40.103095 
143788000    276.98628    325.59545    278.73759   -16.342407     14.13634    46.857863    40.104247 
143792000    279.22533    340.35006    268.36939   -16.784093    14.967574    71.980676    40.104882 
143796000    282.79184    334.81202    266.39285   -17.015912     14.37928    68.419165    40.106713 
143800000     266.4402     292.8296    278.95719   -15.187837    13.917324    13.872409    40.106091 
143804000    287.73797    352.46144    292.62495   -17.406898     13.80962     59.83649    40.105172 
143808000    280.66131    367.36137    273.44105   -19.035743    13.689459    93.920321    40.104971 
143812000    286.98309    345.81592    286.31485   -17.283886    13.265488     59.50107    40.104938 
143816000    277.03714    324.82126    254.79614   -16.455914    15.230438     70.02512    40.104626 
143820000    278.98199    328.36488    266.93923   -17.131385    15.038931    61.425645    40.105524 
143824000    265.46226    290.27446    266.53842   -15.134023    16.367224    23.736041    40.106293 
143828000    278.19417    315.53882    284.39343   -17.260317    15.318777    31.145385    40.108225 
143832000    281.42776    337.12114      285.857   -17.783814    14.098088    51.264139    40.106052 
143836000    269.57855    306.89861    284.44045   -14.804529    14.220953    22.458158    40.103918 
143840000     268.0937    321.41946    265.18419   -16.035118    14.933488    56.235273    40.102401 
143844000    271.76353      312.842     289.8433    -16.27871    14.651747    22.998701    40.100223 
143848000    262.43685    313.72276    269.18547   -16.290229    15.215564    44.537287    40.099583 
143852000    269.25259    307.00681    284.64898   -14.723682     13.59953    22.357829     40.10005 
143856000    271.31322    309.74437    279.31473   -15.707643     14.49896    30.429639    40.100652 
143860000    276.85987    322.45661    283.51082    -16.10454    14.884276    38.945798    40.100682 
143864000    276.39165    314.96354    274.39411   -16.453241    15.873323     40.56943    40.102786 
143868000    267.76542    311.78805    257.94126   -16.923665    15.956501    53.846788     40.10176 
143872000    286.13688    321.95743    294.07798   -17.394648    13.803079    27.879445    40.100234 
143876000    277.37622    316.93495     274.6212   -17.186626    13.795853    42.313753    40.099243 
143880000    278.89389    314.94999    277.51263   -17.489814    14.505197    37.437364    40.100991 
143884000    283.42837    333.27426    295.27079   -19.113789    13.383852    38.003475    40.097826 
143888000    282.29786    324.29669    301.30828   -17.802916     13.92654    22.988406    40.096905 
143892000    276.70709    299.59028    296.06226    -16.22403     13.71912    3.5280222    40.096246 
143896000    259.32361    283.99068    258.67892   -15.759726    15.063281     25.31176    40.097609 
143900000    276.51526    343.72114    271.90451   -19.052991     14.53053    71.816627    40.102059 
143904000    286.24618    331.94825    281.17365    -17.92463     14.30673    50.774592    40.102519 
143908000    267.22331    306.19458     258.3132   -18.427102    15.878646    47.881379    40.103208 
143912000    281.93645    342.39839    299.20731   -18.860119    14.509033    43.191079    40.102695 
143916000    265.50494    305.93987    283.17809   -16.534901    14.772386    22.761789    40.099849 
143920000    279.27165    312.18682    279.08491   -16.466505    14.954677    33.101914     40.09862 
143924000    275.32944    310.44564    293.79991   -17.096058    14.228103    16.645733     40.09794 
143928000    272.69942    293.83231     281.2361   -18.606187    15.164698    12.596211    40.097449 
143932000    271.90609    297.18177    262.75926   -15.765347    15.861904     34.42251    40.095464 
143936000    273.82267     311.9368    267.30885   -17.496006    14.941571     44.62795    40.094807 
143940000    279.41445    315.87966    279.73769   -18.179321     14.85636    36.141968    40.095084 
143944000    280.10658    317.67977    295.40011   -18.192486    14.710869    22.279657    40.094368 
143948000    267.94542    303.78184     266.4303   -17.623821    15.408083    37.351542    40.095078 
143952000    285.64161    338.88133    282.43296   -18.591462    14.702615    56.448376    40.094981 
143956000    278.54516    349.32126    280.05687   -18.887906     14.49753    69.264387    40.094509 
143960000    277.98485    319.00549    270.56559    -17.08457    15.450348    48.439898    40.093662 
143964000    276.87282    317.31609    281.58358   -18.107029    14.669655    35.732517     40.09324 
143968000    282.20564    323.99813    289.37415   -17.787459    15.228155    34.623987     40.09453 
143972000    281.50198    320.68906    291.87744   -17.972654    14.360171    28.811617    40.095622 
143976000    275.91331    335.40028    267.17249   -18.718152    15.953331    68.227791    40.095676 
143980000     282.5247    318.86116    294.60182   -17.964083    14.289164    24.259346    40.092968 
143984000    279.08772    320.72264    289.63632   -18.140899    15.194088    31.086319    40.093576 
143988000    285.07019    326.73561    301.74952   -18.122577    14.528993    24.986081    40.094139 
143992000    285.82163     328.9951    284.88152   -18.893766    14.586756    44.113577    40.096519 
143996000    279.92904    335.59808    273.46853   -19.023339    15.794218     62.12955    40.096071 
144000000    278.48772    335.83006    273.08519   -18.401794    15.716249     62.74487    40.096298 
144004000    278.57158    329.82656    263.02955   -18.451971    16.121576    66.797005     40.09781 
144008000    275.35486    321.06037    289.03095   -18.222919    15.624567    32.029422    40.094278 
144012000     282.1806    330.32093     274.6686   -18.936376    15.339489    55.652327    40.092309 
144016000    278.58831    321.91324    302.87577   -16.971743    13.899209    19.037469    40.089404 
144020000    282.03734    326.76686    307.10568   -17.905283     13.33796    19.661185    40.088889 
144024000    280.97108    313.70521     291.7901   -17.124967    14.637424    21.915109     40.08921 
144028000    276.23898    300.45107    280.79659   -18.598047    15.159255    19.654474    40.088488 
144032000    274.26661    309.24994    282.76883   -16.507884    15.113206     26.48111    40.089442 
144036000    272.29128    293.88357      282.762   -16.278756    14.952808    11.121571    40.086901 
144040000    275.09772    323.54474    271.07155   -18.079226    15.651977    52.473188    40.086086 
144044000    285.71141    336.65109    279.73225   -19.339927    14.836444    56.918844    40.087481 
144048000    290.22575    346.54289     304.7601   -19.272073    13.945617    41.782785    40.085446 
144052000    295.91492    353.89273    288.29853   -18.777954    13.417944    65.594208    40.085908 
144056000    281.73551    322.34993    279.77253   -18.176629    13.885739    42.577402     40.08646 
144060000      284.225    335.77355     282.6513   -18.922837      14.5861    53.122246    40.087213 
144064000    284.08053    335.64146    270.57301   -19.922544    15.857101    65.068458    40.086708 
144068000     279.1944       314.07    295.50999   -18.626179    13.970917    18.560007    40.087106 
144072000     271.5846     338.1595    260.92241   -20.175007    16.221237    77.237094     40.08905 
144076000    269.67574    316.13196    259.98551   -17.307379    15.859673    56.146448    40.088679 
144080000    280.08099    299.21238    279.31411   -16.494375    14.416957    19.898274    40.089502 
144084000    276.01512    315.98467    266.24032   -17.829776     14.51713    49.744343    40.090406 
144088000    272.91835     288.8192    286.53442    -16.77086     14.20581    2.2847732    40.088091 
144092000    278.36668    307.06397    275.15887    -18.35731    15.355851    31.905099    40.086891 
144096000    269.74819    310.79993    263.16482   -17.855955     16.50432     47.63512    40.084891 
144100000    261.34225    280.99278    263.27056   -16.119322     15.33085    17.722215    40.083184 
144104000    275.60008    336.51988     273.5531   -17.982206    15.983767    62.966778    40.085685 
144108000     274.9291    330.83138     272.4392   -18.760525     15.47991    58.392185    40.083593 
144112000    282.09537    337.64359    275.93323   -17.809773    15.323023    61.710355    40.084557 
144116000    271.75698    320.39067    264.77059   -17.828675    15.614519    55.620079    40.085951 
144120000    273.90876    334.58771    289.14777   -17.725356    13.945436    45.439937    40.086128 
144124000    276.65595    330.78114    293.72226    -17.71013    14.976841    37.058887    40.087921 
144128000    274.00732    306.09028    301.90973   -17.222823    14.961928    4.1805502    40.087964 
144132000    276.60266    337.68327    264.21875   -18.132844    16.621474    73.464528    40.086338 
144136000    268.44999    304.53528    275.86516    -16.71868    15.329973    28.670116    40.088603 
144140000    279.67594    332.19208    295.30864   -17.770917    15.571221    36.883433    40.088691 
144144000    271.14109    326.35448    271.37513   -17.411768    15.103805    54.979356    40.084427 
144148000    272.81525    317.03307    278.15548    -16.30916    15.127689    38.877585    40.082605 
144152000    274.89353    331.97344    287.08827   -17.549221    15.351695    44.885164    40.081926 
144156000    288.12257    341.12552    292.09807   -19.021489     15.47244    49.027445    40.082102 
144160000    276.01439    317.48215    291.09038   -17.892608     14.69542    26.391766    40.083215 
144164000    274.73396     331.3684    275.26478   -17.493081    15.601515    56.103619    40.083289 
144168000    274.28094    319.07534    265.74443   -16.584709    16.419474    53.330909    40.082453 
144172000    273.63286    329.45157    276.96134   -17.477764    15.825941    52.490234    40.081369 
144176000    270.15413     321.4565    266.48003   -16.647196    16.024559    54.976467     40.08096 
144180000    281.63983    343.63022    268.36099   -18.517663    15.937257    75.269225    40.080795 
144184000    279.00801    325.66132    271.44313   -17.724991    15.823676    54.218189    40.081769 
144188000    272.21305    330.27135    254.91615   -18.014611    15.613718    75.355194    40.081265 
144192000    275.53718    341.21245    262.53236   -18.857094    15.472853    78.680088    40.082509 
144196000    270.48879     320.2307    262.60644   -17.872452    15.622074    57.624265    40.081854 
144200000    275.37709    302.07053    304.69507    -16.83045    13.960653   -2.6245393    40.080729 
144204000    277.43731    337.32127    285.08524   -18.339078    14.410648    52.236028    40.079316 
144208000    281.53355    338.26058    275.36736   -18.718798    14.973509    62.893221    40.080482 
144212000    272.41019    318.49521    297.74842   -17.218282    15.059082    20.746794    40.079896 
144216000    271.02018    323.26003    272.01982   -18.473253     15.79884     51.24021    40.075956 
144220000    271.63525    301.89207    283.78444   -17.612958    14.746753    18.107628     40.07669 
144224000     275.4286    326.02865    291.61267    -20.27195    15.150082    34.415983    40.080885 
144228000    276.64031    304.42065    278.43197   -17.701325    15.284914    25.988678    40.080717 
144232000    270.52725    327.03287    261.94858   -18.852572    16.528821    65.084295    40.080889 
144236000    277.06224    318.92197    284.09756   -17.724193    15.040751    34.824406    40.081155 
144240000    283.10312    334.81253    277.98601   -19.086522    14.699281    56.826512    40.082472 
144244000    271.21139    314.15986    279.68546   -17.738835    14.424723      34.4744    40.080744 
144248000    287.88925    338.48417    281.01987   -18.020539    14.749043      57.4643    40.079255 
144252000    274.69524    321.00736    271.86253   -17.265505     15.90635    49.144827    40.076966 
144256000     270.9336    321.94764    284.23309   -17.597917    14.281732    37.714556    40.078125 
144260000    279.77218    306.32554     291.2755    -16.66289    14.214881    15.050044    40.080316 
144264000    275.94023    321.98278    278.89474   -18.515603    15.095091    43.088037    40.078746 
144268000     275.9158    307.73135    293.55556   -17.961827    14.532083     14.17579    40.079718 
144272000    270.01086    301.49713    275.30086   -16.171377    15.175248    26.196269    40.079991 
144276000    282.99102    330.40222    284.58131   -17.347423    14.364844    45.820905    40.079886 
144280000    275.52595    319.75227    291.81366   -18.524857    13.839155    27.938608    40.081244 
144284000    275.60049    301.12838    280.50969   -16.205107    15.080545    20.618681    40.080053 
144288000    278.74243    308.24298     287.0113   -16.850014    14.670513    21.231683    40.080171 
144292000    271.52913    309.92603    271.86244   -18.055355    14.815509    38.063593    40.079869 
144296000     298.5063     349.6525    309.57031   -19.420987    13.650812    40.082188    40.079541 
144300000    282.58357    339.14684    285.42612   -19.883659    14.231782    53.720726    40.079654 
144304000    275.02053    317.55405    272.44855   -18.336216    15.451799    45.105498     40.07837 
144308000    279.10517    320.94068    276.10509   -18.729809     16.00958    44.835584    40.078676 
144312000    275.36675    316.29202    263.86083   -17.298069     15.65737    52.431182    40.077646 
144316000    272.41574    311.58947    275.64891   -17.573862    14.257124    35.940556    40.078051 
144320000    281.62526    344.28096    271.43155   -19.815082    15.083067    72.849415    40.079541 
144324000    282.71967    332.17323    281.61246    -17.91885    13.648945    50.560767    40.080689 
144328000    286.18725     329.5373     284.1003   -19.381347    13.926051    45.436999    40.081014 
144332000    283.72606    321.01215     277.5799   -19.251439    15.711415    43.432246    40.079667 
144336000    279.53501    345.42885    275.59037   -18.956168    15.397448    69.838477    40.080463 
144340000    275.42437      321.694    281.59486   -17.298815     14.64414     40.09914    40.080281 
144344000    280.90887    334.97889    282.82294   -18.901877    14.729479    52.155953    40.079041 
144348000    280.85238    324.54485    268.86381   -18.800985     15.30285     55.68104      40.0812 
144352000    279.41999    332.69616    284.42361   -19.712527    14.478799    48.272555    40.080803 
144356000    287.05482    340.03992    290.22275   -18.694556    14.368205    49.817178    40.080065 
144360000    279.40794    316.27291    278.48034   -17.593788    14.979693    37.792574    40.081674 
144364000    292.98035    345.39699    300.91757   -19.292497    13.727073     44.47942    40.081597 
144368000     273.6824    305.07168     279.1632   -18.159297    15.680819    25.908479    40.081643 
144372000    286.28829    311.17676    315.40728   -17.700856    13.741481   -4.2305217    40.082658 
144376000    272.92724    324.89087    278.32105    -18.87137    14.953906    46.569821    40.082797 
144380000     277.3574    294.37332    288.32474   -17.284244    14.433404    6.0485837    40.083817 
144384000     282.3509    325.77467    308.39204    -19.34137    14.818506    17.382624    40.082782 
144388000    273.30121    321.67751    263.10145   -19.367327    16.657447    58.576058    40.082432 
144392000    278.46866    317.15728    290.61542   -19.604257    15.269109     26.54186    40.082828 
144396000    287.59221     348.3695    286.60599   -20.838269    16.172684    61.763507    40.084281 
144400000    286.65359    349.57262    283.35091   -22.339927    15.648571    66.221702    40.086246 
144404000    281.00294    330.29653    284.68342   -20.042848     15.09039    45.613117    40.087185 
144408000    279.63851    317.60708    278.62053   -19.524582    14.960927    38.986551    40.087304 
144412000    279.70614    331.35845    276.29018   -18.870082     16.25955    55.068269     40.08719 
144416000    276.65194    327.53958    287.06716   -20.770937    15.806446    40.472417    40.087349 
144420000    275.70408    324.93115    270.41622   -18.978205     16.12005    54.514928    40.088151 
144424000    278.81834    325.80818    276.32575   -19.305932     16.15357    49.482432    40.090497 
144428000    277.39404    310.79399    276.70009   -18.739626     15.57085    34.093902    40.090124 
144432000    278.85881    348.05539    278.10216   -20.756544     15.11276    69.953226    40.087572 
144436000    277.99645    321.56079    295.31822   -19.260858    13.476311    26.242571    40.086468 
144440000    284.47328    318.88165    299.11711    -18.14889    14.449426    19.764541     40.08611 
144444000    276.82876    319.06245    270.18429   -19.411453    15.020629    48.878158    40.085892 
144448000    274.90963    310.28115    289.76665   -18.026469      14.5559    20.514497    40.084778 
144452000    272.59783    287.07808    290.90777    -17.43107     14.06106   -3.8296954    40.083931 
144456000     278.2558    337.73399    260.77425   -19.953181    16.292233    76.959737    40.082177 
144460000    280.76902    325.89696    282.97661   -20.004051    15.161396    42.920346    40.081036 
144464000    289.60752    337.92209    290.92558   -19.364321    14.489754    46.996513    40.081556 
144468000    286.24104    332.01841    283.86087   -19.207088    14.615609    48.157543    40.080897 
144472000    285.60932    326.64009    286.58392   -19.430836    15.230985    40.056163    40.081196 
144476000    280.63358    336.23282    268.20865   -19.619853    16.933044    68.024176    40.081833 
144480000    274.93765    318.22339    265.23437   -18.796798    15.991563    52.989013    40.083343 
144484000    279.44545    314.36868     285.6684   -18.219011    15.172154     28.70028    40.081722 
144488000    265.23971    298.49966    263.24549   -16.847156    15.469015    35.254166    40.081473 
144492000    285.22619     337.4465    275.02348   -20.023608    15.090362    62.423024    40.079693 
144496000    268.02733    303.86401    258.71897   -17.261427    16.239983    45.145035    40.078491 
144500000    280.25406    323.16505    288.76031   -18.139718    14.872596    34.404746    40.079881 
144504000    288.50013    369.29253    277.01839   -19.870588     15.38475    92.274142     40.07869 
144508000     277.7388    312.39174    285.35826   -16.514983    15.497872    27.033484    40.078321 
144512000    277.22777    332.43439    277.59564   -17.163634    14.655295    54.838744     40.07982 
144516000     276.9333    335.00303    278.32107   -19.239132    13.600301    56.681963    40.080908 
144520000    285.64352    363.99511    276.96638   -19.162917    14.665625    87.028735    40.079796 
144524000    278.49345    318.19019    275.92334   -17.356589    14.502729     42.26685    40.079876 
144528000    280.83795    334.53589    286.35715    -18.69683    13.725745     48.17874    40.079751 
144532000    270.41856    303.04513    276.95294   -17.174766    15.168205    26.092191    40.078628 
144536000    277.15742    312.64773    302.41564   -18.267656    13.630753    10.232095    40.078645 
144540000    272.61735    309.56576    274.67182   -16.530332    14.229488    34.893935    40.078326 
144544000    279.43844    331.95233    279.90463   -17.770071    15.491605    52.047699    40.078932 
144548000    279.89805    331.90852    291.06363   -17.797945    13.825974    40.844887      40.0792 
144552000    283.73611    319.06384    295.87815   -18.081235    13.684007    23.185691    40.078542 
144556000    281.44612    338.49466    276.43582   -18.969837    15.154798    62.058845    40.079474 
144560000    276.29164    328.25493    288.76605   -17.593518    14.219948    39.488881    40.079117 
144564000    275.78343    322.14917    274.57296   -18.152378    15.814066    47.576213    40.080233 
144568000    279.83918    311.11352    289.04318   -18.291814    15.350614    22.070341    40.079878 
144572000    275.26695    306.65411    292.45149   -17.743548     15.64703    14.202623    40.081243 
144576000    276.73643    323.47398     266.8847    -18.43774    16.115954    56.589281    40.083629 
144580000    278.84251    327.90471    275.87028   -18.752932    14.686537     52.03443    40.085311 
144584000     289.2042    349.24735    304.81222   -20.158414     14.95186    44.435134    40.085049 
144588000    269.73126    303.89889    266.96446   -17.780592    15.611379    36.934429    40.085588 
144592000    284.09869    336.03394    277.54413   -19.146288    15.526348    58.489809    40.084575 
144596000    280.58351    336.25044    282.93057   -18.659507    15.315463    53.319872    40.083669 
144600000    271.57366    317.12348    266.71853   -17.292187    16.361869    50.404951    40.085088 
144604000    280.02611    343.81153    289.75132   -18.936839    16.607997    54.060204    40.082911 
144608000    282.76057     352.6536    280.52831   -19.560926    15.858525    72.125295    40.084142 
144612000    271.77521    324.45866    274.08368   -18.779358    15.107642    50.374979    40.084126 
144616000    279.26669    315.51141    295.88205   -19.288433    15.121496    19.629353    40.082035 
144620000    280.72907    314.76943    284.07137   -18.354489    15.161983    30.698065    40.080281 
144624000    268.92499    321.67705     277.2027   -18.745037    15.917837    44.474349    40.082468 
144628000    279.49234    315.80753    288.59466   -17.320496    16.167344     27.21287    40.081616 
144632000    280.60151    345.92708    280.48336   -17.972045     16.16196    65.443715    40.080862 
144636000    271.95345    292.17351    287.28536   -17.254604    16.158224    4.8881567    40.080873 
144640000    274.83135    298.34413    301.45866   -18.517206    15.200521   -3.1145277    40.080341 
144644000    278.82846    324.57947    301.72294   -18.126202    15.489116    22.856527    40.080096 
144648000    260.61241    313.45673    272.35464   -18.237722    16.763031    41.102088    40.079059 
144652000    276.31995    323.05115    267.39736   -18.670327    17.663557    55.653788    40.078396 
144656000    274.58048     347.6652    286.82044     -19.7526    17.602563    60.844767    40.080123 
144660000    276.20344    305.74233    284.84623   -17.987388    17.128048    20.896102     40.07908 
144664000    276.99099    318.88179    290.18875   -18.217038    15.810617    28.693036    40.080654 
144668000     269.7366    321.49437     265.9599   -19.048309    17.069301    55.534466    40.080478 
144672000    272.31115    297.66549    275.28947   -17.652481    17.026364    22.376015    40.078829 
144676000    277.76461    342.54039    260.17184   -21.038503    17.398134    82.368553    40.081565 
144680000    280.27718    316.91397    287.31105   -20.332138    16.577103     29.60292    40.081378 
144684000    272.06531    316.69576    274.06306   -19.981247    17.002483    42.632706    40.079707 
144688000     275.9636    325.51165    263.74622   -19.877491    17.757333    61.765433    40.080267 
144692000    276.30656     310.7975    288.47444   -17.547938    15.087498    22.323059    40.078411 
144696000    264.18315    300.70449     266.0124   -17.926625    17.660688    34.692097    40.082105 
144700000    283.83508    344.83067     285.1883   -20.972683    15.919064    59.642365    40.082021 
144704000     276.1864    313.33556      281.919   -17.938535    16.534475    31.416563    40.080646 
144708000    276.18572    317.29171    296.71137   -19.262151    16.075982     20.58034    40.079939 
144712000    273.37463     324.8593    273.74462   -19.963623    16.644895    51.114678    40.079224 
144716000      266.796    314.26852    263.98515   -19.656545    16.548099    50.283371    40.077453 
144720000    280.02374    319.57532    298.68929   -19.261163    16.473544    20.886027    40.077663 
144724000    275.03913    321.96996    264.78895   -18.428112    17.004477     57.18101    40.076512 
144728000    283.72879    341.22696    282.34163   -20.660225    16.942056    58.885323    40.076089 
144732000    271.26333     304.9806    296.91166   -17.643683    16.392612    8.0689481    40.074717 
144736000     280.8496    318.44255    305.36359   -19.295254    15.407732    13.078959    40.072148 
144740000    269.97799     322.9597    261.49859   -19.821673    18.124247    61.461114    40.073584 
144744000    265.65343    302.37171    267.50336    -18.50981    17.168269    34.868357    40.074185 
144748000    279.16136    307.88723    288.13784   -17.503889    16.524083    19.749389    40.071584 
144752000    275.89572    310.66021    293.56668   -19.117763    16.251664    17.093529     40.07133 
144756000    282.09707    345.08876    282.18112   -20.596065    16.962165    62.907636    40.071942 
144760000    270.73238    315.23413    276.17961   -20.691094    16.660198    39.054523    40.071222 
144764000    281.04126    320.25775    281.23766   -19.437631    17.194866    39.020085    40.070358 
144768000    277.26685     342.1531    270.22645    -20.20775     17.80035    71.926649    40.070545 
144772000    275.22485    314.52586    282.49992   -19.802297    17.095028    32.025941    40.072188 
144776000    280.20376    328.12601    284.43115   -19.390795     16.90452    43.694866    40.073669 
144780000     277.2043    333.13281    274.20111   -20.275297    16.831073    58.931706    40.073005 
144784000    270.62559    329.66439     264.5489   -19.741377    17.622977    65.115494    40.075491 
144788000    282.74402    319.52979    297.42661   -18.171981       17.148    22.103176    40.072992 
144792000    272.98728    304.78323    283.42495    -18.51333    18.236465    21.358284    40.071339 
144796000    269.42789    309.72869    274.69985   -17.447582    18.794629    35.028837    40.072286 
144800000    274.13096    310.83512     283.7169   -18.419145     17.80289    27.118223    40.070885 
144804000    275.95908    325.04384    269.59108   -19.704417    18.837719    55.452764     40.07151 
144808000    277.51467    335.26019    270.99445   -19.745775    19.071709    64.265737    40.071628 
144812000    272.32657    309.67823    283.29004    -19.29564    18.100326    26.388189    40.073917 
144816000    275.33862    311.23377    286.40406   -19.625209    17.869844    24.829703    40.074961 
144820000    282.36359    342.42547    299.28711    -20.30394    16.339132    43.138363    40.074605 
144824000    270.10279    330.13695    277.34276   -21.931263    17.378449    52.794187    40.073683 
144828000    279.28556    329.72659    270.29533   -20.264784    17.318306    59.431256    40.073061 
144832000    277.07842    327.47394    283.42767   -20.090803    16.503339    44.046265    40.073115 
144836000    282.11841    339.37619    283.21032   -20.129959    16.014111    56.165867    40.073909 
144840000    275.66976    324.53621    276.57596   -19.387451    16.936818    47.960247      40.0728 
144844000    272.89262    308.38814    286.66835   -19.443499    17.597263    21.719791    40.072233 
144848000    276.67262    324.30636     277.0274   -20.474902    17.641233    47.278956    40.069896 
144852000    272.71843    307.74571    279.60995   -18.857249    17.500981    28.135762    40.070709 
144856000    292.58345    354.80756    299.94326   -21.493998     15.40097    54.864302    40.069361 
144860000    282.04844     327.5271    294.99941   -20.996786    15.414865    32.527688    40.070262 
144864000     278.4288    334.98305     285.7607   -20.333727    16.430661    49.222351    40.070544 
144868000    280.71914    323.70222    275.97491    -20.19623    18.238274    47.727315    40.072882 
144872000    272.17686    316.77489    272.04943   -18.854552    17.224495    44.725454    40.069604 
144876000    272.25963    310.22116    306.36245   -20.348799    15.303759    3.8587069    40.068257 
144880000    269.62909    323.86765    268.72632   -20.081608    18.844705     55.14133    40.068755 
144884000     276.5958    314.50701    289.77569    -19.57294     17.31937    24.731329    40.069546 
144888000    273.02781    306.39571    286.59154   -19.629577    17.491984    19.804172    40.069402 
144892000    270.82251    302.12214    273.71735   -19.736999    16.803131    28.404794    40.068341 
144896000    274.16292    328.23433    283.77013   -20.160326    17.578724    44.464197    40.068705 
144900000    287.71738    332.57322    298.74304   -19.822095    15.864625    33.830186    40.068062 
144904000    283.12905    325.01804    300.69364   -19.800189    15.678804    24.324398    40.067801 
144908000    278.91534    350.60359     268.6404   -22.450201    18.444641    81.963186    40.069617 
144912000     276.7448    310.48726     285.1264   -20.758745    17.171606    25.360861    40.070694 
144916000    283.05124    342.80673    295.65169    -21.35488     16.23586     47.15504    40.069674 
144920000    273.26385    317.05871    289.53129   -19.180782    15.771431    27.527416    40.070656 
144924000    278.95242    331.79068    285.81807   -20.511169    17.345089    45.972612    40.070864 
144928000    257.45951    318.58184    260.32944   -19.277916    19.404321    58.252406    40.071053 
144932000    281.00532     323.7453    281.93884   -19.561719    18.518085    41.806459     40.06941 
144936000    276.51475     345.1672    283.24965   -19.718518    17.847035    61.917555    40.070185 
144940000    279.47159    329.06056    296.50789   -19.912835     16.81816    32.552673    40.070228 
144944000    269.45329    305.36339     275.9657   -19.274165    16.370488    29.397694    40.071316 
144948000    278.99591    328.04424    273.40867   -19.265133    17.160345    54.635573    40.071334 
144952000     275.8807    304.04214    283.55181   -19.023208    18.111333    20.490329     40.06985 
144956000    281.53499    334.83763    289.23753   -19.924233    16.782401    45.600097    40.069305 
144960000    258.72658    321.43747    268.98787   -18.957707    19.031254    52.449604    40.068532 
144964000    283.87981    331.31673    286.67554   -19.309278    18.525174    44.641187    40.069962 
144968000    283.91079    353.25654    282.20405   -20.598342    17.687724    71.052488     40.07255 
144972000    280.89214    319.75399     285.1467    -19.49949    17.178657    34.607282    40.071006 
144976000     275.0997    303.60575    298.24088   -18.098484     17.51037    5.3648737    40.071361 
144980000    267.44266    305.36967    280.22679   -18.609077    18.219092    25.142878    40.071484 
144984000    261.87266    288.77104    267.03682   -16.523874    18.112045    21.734224    40.072044 
144988000    276.62639    310.68203    301.87244   -18.536385     16.60084    8.8095871    40.071855 
144992000    269.56326    308.01365    283.90306   -18.231859    18.430049    24.110586    40.071481 
144996000    266.80521    298.14524    279.56581   -17.617927    17.338383    18.579425    40.070086 
145000000    274.32008    313.15748    285.44356   -19.028771      17.1495     27.71392    40.069921 
145004000    280.53902    315.89004    300.81475   -19.060865    16.320551     15.07529    40.068696 
145008000    275.72531    291.12815    304.05852   -16.757674    15.896663    -12.93037    40.069292 
145012000    278.39992    324.35672    290.28969   -18.866951    17.284672    34.067033    40.069478 
145016000    269.62777    310.32472    268.37364   -18.476063     17.94768    41.951076    40.068881 
145020000    285.02653    338.49238    291.22636   -20.039327    18.452967    47.266015    40.068527 
145024000    262.28053    300.26087    270.48685   -17.563701     18.96552    29.774022    40.068056 
145028000    275.17139    305.04604    286.99344   -17.769305    18.866577    18.052603    40.068854 
145032000    274.32988    326.47238    271.53779   -18.742132    19.597028     54.93459    40.069246 
145036000    265.53426    321.06194    268.86403   -18.270912    18.820709    52.197907    40.069404 
145040000    275.34473    336.99644     268.4523   -20.063893    18.405705     68.54414    40.069912 
145044000    268.72557    313.51655    269.82668   -19.183354    18.272499    43.689873    40.069656 
145048000    278.85137    351.00685    286.69146   -20.116836    17.818272    64.315389    40.069771 
145052000    279.92329    327.64487    288.66558   -18.273534    17.207267     38.97929    40.070249 
145056000    271.02166    328.68304     268.7151   -19.459837     17.26719    59.967939    40.067718 
145060000    272.47133    311.55546    293.51492   -18.815528    16.054926    18.040542    40.066261 
145064000    268.47076    316.98195    286.23067    -20.02536    16.991572    30.751278    40.066607 
145068000    270.07589    303.59995    280.88798   -18.056301    17.451463    22.711971     40.06485 
145072000    273.24314    317.78631    283.35782   -19.425957    18.016961    34.428488    40.064281 
145076000    276.56354    338.54006    289.71858   -19.647841    16.558742    48.821481    40.062772 
145080000    272.07861    315.47669    279.10878   -18.914117    18.552818    36.367905    40.063486 
145084000    271.45882    312.23564    294.41034    -18.79426    17.711102    17.825298    40.062888 
145088000    271.22512    338.80552    283.99694   -19.344763    18.891046    54.808576    40.063005 
145092000    264.38281    296.70205      278.824    -16.66914    19.377734    17.878048    40.062055 
145096000     271.5243    329.12708    273.65912   -19.914144    19.157045    55.467955    40.060864 
145100000    265.11233    296.37667    266.44443   -18.527776    19.219234    29.932231    40.059544 
145104000    268.33002    317.17799    283.45179   -19.273854    18.611838    33.726194    40.059367 
145108000    270.73012    323.33384    265.90638   -18.242343    18.386873    57.427454     40.05905 
145112000    271.55499    316.98927    288.30062   -18.959633    16.834534     28.68865    40.060952 
145116000    272.25061    332.04118    283.20887   -18.515628    17.264678    48.832312    40.061764 
145120000    264.07712    311.11162    288.53109    -18.44406    17.456204    22.580528    40.061155 
145124000    260.56634    309.71499    265.08722   -16.389568    19.058742    44.627768    40.061197 
145128000    261.07933    326.28168    275.11739   -18.169223    18.845549    51.164296     40.06147 
145132000    267.42584    338.25941    265.44868   -19.201104    19.061979    72.810728     40.06376 
145136000     273.1062    329.42418    282.38677   -18.229079     17.63565    47.037403    40.063909 
145140000    272.05782    332.19176    278.95951   -19.343042    17.176154    53.232245    40.064782 
145144000    270.16972    318.72389    285.79144   -16.752773    16.439315    32.932445    40.066104 
145148000    270.39197    319.40352    279.00509   -17.655483    16.418914    40.398434    40.066718 
145152000     262.9393    321.45729    267.45275   -18.391101    18.026853    54.004536    40.064246 
145156000    270.58159    313.54202    273.58877   -17.919195    17.977107    39.953249     40.06398 
145160000    269.74222    323.86733    290.48679    -17.69735    17.773117    33.380541    40.062427 
145164000    277.70605    333.77927    279.43575   -18.157934    18.675713    54.343519    40.061969 
145168000    270.95986    326.80562    282.90422   -17.692925    18.147029    43.901396    40.061981 
145172000    270.32646    299.50153    286.86522    -17.62442     17.41081    12.636307    40.061562 
145176000    271.52963    326.78909    292.92448   -17.713214    17.326492    33.864612    40.061389 
145180000    270.53911    309.66012    287.01109   -18.063481    16.999697    22.649031    40.062259 
145184000    277.90478    331.38164    278.89522    -18.08698    16.594243    52.486425    40.060439 
145188000    269.10815    320.09919    270.39826    -17.02232    17.586545    49.700928    40.060931 
145192000    267.82163    323.78882    279.93495   -19.998529    17.697748    43.853876    40.060064 
145196000    264.73075    308.97138    277.04458   -19.495158    17.048458    31.926803    40.058775 
145200000    270.76884     302.3906    297.18883   -19.072229    16.602136     5.201773    40.058156 
145204000    277.98193    324.76551     291.5553   -19.575779    16.727198    33.210215    40.059323 
145208000    266.76031    312.49861    273.16134   -18.917404    16.980252    39.337266    40.059738 
145212000    274.47673    309.28758    277.86761   -18.273177    17.493211    31.419977    40.059995 
145216000    273.14265    338.96592    269.22476   -19.468998    16.828885    69.741158    40.060675 
145220000    279.13072    328.70545    291.63805   -19.651219    16.006469    37.067398    40.062066 
145224000    277.23673    333.81763    281.51978   -19.598532     15.91334    52.297847    40.059903 
145228000    285.12378    320.81585    300.88513   -18.909395     14.41633    19.930713    40.060035 
145232000    288.66224    355.83769    272.53075   -20.972298    17.590808    83.306936    40.060132 
145236000    269.97519    315.25251    256.54459   -18.562101    17.864377    58.707912    40.061513 
145240000    284.44015    329.19483    290.03987   -20.267303    16.006916    39.154957    40.060852 
145244000    276.23076    315.81035    285.25534   -19.811211    16.735761    30.555013    40.060546 
145248000    278.68246    319.28019    272.01373    -18.83959    17.804096    47.266457    40.061523 
145252000    269.64909    293.39469    280.03798   -19.150726    16.683887    13.356711    40.062895 
145256000    273.48444    289.37635    309.16137   -19.663971    16.762679   -19.785021     40.06356 
145260000    276.40152    331.23004    287.04874   -19.798324    16.313708    44.181302     40.06275 
145264000    265.62184    304.72732    256.28006   -19.703819    17.793549    48.447263    40.062666 
145268000    265.44189    315.18562    271.54486   -18.748714    18.322398     43.64076    40.061778 
145272000    271.63984    315.04327    282.79803   -18.640246    17.615907    32.245236    40.060523 
145276000     271.1674    314.99757    278.51058   -18.965666    17.593616    36.486983    40.059072 
145280000    271.53158    309.95481    279.90167   -18.412864    17.378381    30.053136    40.059841 
145284000    271.19638    309.44317    276.28386   -19.139866    17.682483    33.159306    40.059835 
145288000    274.85768     318.2747    271.03118   -19.158454    17.096327    47.243526    40.059455 
145292000    269.62058    306.10884    279.63869   -19.053995    17.452426    26.470149     40.05885 
145296000    269.82773    337.24384    250.65897   -20.503184    18.751234     86.58487    40.059543 
145300000    277.03853    330.03154    284.02809   -19.074656    17.701046    46.003453    40.060656 
145304000    281.18313    322.51906    278.14298   -19.374738     18.15889    44.376077    40.060206 
145308000     267.0999    276.09815    288.32508   -17.546046    17.767874   -12.226923     40.06055 
145312000    271.95709    315.33078    273.21555   -19.313256     18.23315     42.11523    40.062141 
145316000    277.18092    339.47371    289.55452    -20.55618    16.663356    49.919183    40.061437 
145320000    276.96772    326.34889    296.84095   -20.454231    16.978305    29.507949    40.063034 
145324000    267.87777    312.37084    268.15984   -18.915616    17.348749    44.210999    40.060241 
145328000    274.16246    314.54801    287.20367   -18.948447    17.381818    27.344343    40.059074 
145332000    271.72102    288.02809    283.67479   -17.356952    17.576412    4.3533011     40.05729 
145336000    274.23247    322.96176    274.10316   -19.528051    18.136372    48.858604    40.056926 
145340000    266.04906    302.30116    267.04843   -19.179219    16.722127    35.252732    40.055486 
145344000    278.69332    324.76808    272.24895   -20.163741    18.835495    52.519136    40.057511 
145348000    282.63894    315.33173    291.08367   -20.659397    16.780719    24.248058    40.058203 
145352000     276.4127    314.38394    292.86282   -19.518122     17.23209    21.521118    40.057434 
145356000    277.80396    325.48931    287.14233    -20.56038    18.509673    38.346976    40.056466 
145360000    284.78676    336.21896    294.68961   -20.786731    17.067657    41.529351    40.055609 
145364000    274.54873    323.59275    269.99647   -21.037997     18.80575    53.596282    40.057721 
145368000    278.33286    324.32694    269.55743   -20.572082    17.753975    54.769512    40.059088 
145372000    271.45011    320.22034    276.83267   -20.000585    17.494854    43.387671    40.059607 
145376000    267.66759     302.0255    264.74139   -18.378711    17.831977    37.284112    40.057534 
145380000    274.21422    322.60359    274.07781   -20.022534    18.569033    48.525784    40.057622 
145384000    270.94474    325.95248    259.31977   -19.259869    17.978986    66.632709    40.058041 
145388000    278.47338    338.75003    287.14662    -21.44147    18.155689    51.603413    40.057175 
145392000    273.34709    305.74733    273.85674   -19.478008    17.445446    31.890589    40.058656 
145396000    268.99732    316.65946    258.90843   -20.377266    18.314324    57.751023    40.058242 
145400000    279.93965    339.86979      281.107    -21.38379    16.915417    58.762787    40.059009 
145404000    275.09767    330.60886    276.95139   -20.909713    18.301286    53.657473    40.058341 
145408000    275.47471    331.95281      280.266   -21.119194    17.462898    51.686813    40.060552 
145412000    272.81495    302.82132    292.59002   -19.577099     16.31011    10.231308    40.059878 
145416000    283.37697    336.37394    263.24629   -20.522327    18.195997    73.127649    40.061894 
145420000    270.48363    329.74445    253.79404   -19.762351    18.121822    75.950408    40.063435 
145424000    272.65276    318.82974    280.12255   -19.599393    16.567339    38.707192    40.062857 
145428000    278.05154    313.50284    292.33186   -19.916809     16.92696     21.17098    40.063945 
145432000    282.41374    318.63013    284.48295   -20.362355    16.856761     34.14718    40.065745 
145436000    271.65622     306.1765    270.57034   -20.023071    16.873027    35.606163    40.065037 
145440000    276.51295    313.78146    288.34822   -21.059544    16.092787    25.433242    40.064924 
145444000    275.05075    325.78663    275.85569   -21.116187    17.002776    49.930937    40.064787 
145448000    271.02547    296.74101    287.71511    -20.61831    16.802369    9.0258949    40.065097 
145452000    282.65416    330.00692    278.74146   -20.897738    17.264672     51.26546    40.065048 
145456000    275.49336    316.89281    270.24687   -20.066144    17.729527    46.645932    40.065272 
145460000    273.53721    315.83582    278.71819   -20.460138     16.77713    37.117627    40.065273 
145464000    277.59489    317.23549    283.70335    -20.91745    16.161916    33.532144    40.065738 
145468000    283.79039    336.44048    271.47882   -23.066831    18.380565    64.961658    40.069044 
145472000    276.98748     337.6947    282.25876   -20.685142    17.807552    55.435936    40.067097 
145476000    279.49432    322.78016    274.44874   -20.907886    17.576139    48.331426    40.067671 
145480000    273.63541    320.26573    266.89747    -20.99962    17.469913    53.368255    40.067146 
145484000    268.80453    296.62701    265.03989   -18.661285    18.150462    31.587122     40.06692 
145488000    279.43134    324.87108    285.12618   -21.465032    17.744337      39.7449    40.067194 
145492000    267.70305    285.44847    281.37163   -19.357123    17.563943    4.0768411    40.067027 
145496000    269.67126    297.68254    265.67881   -20.219639    17.488795    32.003725    40.067771 
145500000    290.95706    322.43101    294.80782   -22.021798    16.122134    27.623194    40.068601 
145504000    283.70083    314.09323    294.50672   -21.738502    15.867564    19.586508    40.070083 
145508000    273.49321     306.5655     287.5087   -21.014278    17.067021    19.056798    40.069422 
145512000    282.35793     324.8858    281.48353    -21.68162    18.353927    43.402276    40.069032 
145516000    273.26079    295.78927    283.03793   -20.895858    18.108762    12.751336    40.068872 
145520000     285.5535    311.29874    301.71855   -20.953473    16.903173    9.5801975    40.067399 
145524000    274.28739    283.00327    278.47934   -19.495802    18.223197    4.5239227    40.066767 
145528000    287.49287    320.67369    288.71146   -21.034752    16.911145    31.962229    40.066774 
145532000    276.84764    309.35207    281.08478   -19.532096    16.656553    28.267293    40.067573 
145536000    277.38797    307.95223    288.82738     -20.3757    17.616889    19.124847     40.06757 
145540000     273.4715    305.20448    289.00627   -20.593967    16.959269    16.198206    40.066592 
145544000     275.6418    318.54984    283.91214   -22.468698    17.079062    34.637698    40.066613 
145548000    275.35599    327.12553    266.38796   -20.910941    16.790603    60.737572    40.066843 
145552000    286.13984    333.89481    282.51643   -20.756587    16.679566     51.37838    40.067477 
145556000    277.04727    295.17771    299.79892   -19.265543    16.137298   -4.6212074    40.067425 
145560000    281.51191    314.86942    275.59314   -19.533985    17.203455     39.27628    40.067171 
145564000    283.09538    321.58233     298.2776    -21.51004    15.772839    23.304725    40.067058 
145568000    278.29421    305.57119    286.11268   -21.529247    17.711612    19.458507    40.067464 
145572000    280.12878    316.86225    277.16206   -21.433608    17.137185    39.700189    40.068061 
145576000    286.62506    332.28724    282.01251   -22.541929    16.290822    50.274733    40.066211 
145580000    279.37349    306.67688    287.41963   -22.323916      17.0296    19.257249    40.064381 
145584000     281.5063    326.99721    288.08646     -22.8114    17.231933    38.910746    40.065974 
145588000     274.3268    307.35282    277.71467   -21.859689     18.52386    29.638152    40.066162 
145592000    270.47167    320.61753    274.51189   -21.482825    18.293665    46.105643    40.067211 
145596000     283.2452    318.96545    282.47711   -21.622697     17.36499    36.488343    40.066712 
145600000    272.36555    312.22123    277.31384   -21.748822     18.18136    34.907389    40.065714 
145604000    280.52934    321.04838    291.05911   -20.731461    17.913834    29.989277    40.065254 
145608000    274.01225     322.3246    286.32555   -20.952826    17.370981    35.999047    40.066511 
145612000     281.6597    323.65198     296.1339    -20.66515    17.883687    27.518075     40.06301 
145616000    278.80056    321.69594    281.54608   -21.059576    16.913935    40.149864    40.062493 
145620000    275.53171    325.10084    276.68415   -20.423669    17.969715    48.416687    40.060493 
145624000    274.67832    326.57329    259.07805   -22.631372    17.945961     67.49524    40.060357 
145628000    271.52937    317.85915    285.60403   -20.705168    18.146677    32.255111    40.061341 
145632000    277.78642    322.96398    291.22077   -19.741014    18.580041    31.743204    40.060192 
145636000    276.67554    354.29313    273.63929   -21.568123    19.197188    80.653843    40.060293 
145640000    279.11412    315.48924    285.53369    -19.72864    18.229209    29.955551    40.061941 
145644000    273.74907     335.3358    293.37917   -19.910192    17.126496    41.956634    40.060956 
145648000    277.36338    343.71586     276.8359   -21.479437    18.218902    66.879961    40.061057 
145652000     281.5991    342.01042    285.17613   -20.886984    16.882386    56.834288    40.060445 
145656000    267.58862    302.97179    282.23933    -18.66534    17.638219    20.732461    40.060516 
145660000    275.10747    337.01711    300.30386   -20.526428    17.349613    36.713257    40.061101 
145664000    270.84547    318.09727    281.72395   -19.059416    18.680672    36.373313    40.060133 
145668000     279.4411    330.08789    303.07981   -19.210256    17.760527     27.00808    40.060288 
145672000    265.39746    298.61143    280.78789   -18.674526    19.172394    17.823541    40.058073 
145676000    274.84221    322.26364    278.64612   -19.963125    19.809651    43.617516    40.058235 
145680000    275.85096    326.03308    285.10034   -19.806499    18.824547    40.932734    40.059376 
145684000    263.03954    289.12371    265.57157   -18.519457    18.199111    23.552138    40.056291 
145688000    276.44605     310.9397    280.91316   -19.833505    19.503661    30.026541     40.05532 
145692000    271.39619    320.81166    271.25431   -19.336125     19.57345    49.557349    40.056288 
145696000    273.21121    319.64247    286.38389   -20.672722     19.54996    33.258573    40.055789 
145700000    270.39568     290.5105     286.8562    -19.80571    18.892885    3.6542998    40.055546 
145704000    275.02827     317.9765    312.42089   -20.947494    18.107487     5.555611    40.053659 
145708000    272.53678    322.69267    263.47159   -21.032879    19.086386    59.221081    40.052544 
145712000    264.05171     302.4047    265.49307    -21.35965    19.832231     36.91163    40.052546 
145716000    277.32012    325.04997    279.83985   -21.051577    18.934556    45.210115    40.052516 
145720000    276.02991    302.53349    289.05603   -21.256709    17.367531    13.477465    40.053614 
145724000    268.05576    316.26985    257.65911   -20.873433    18.876365    58.610742    40.052879 
145728000    281.55239    324.91731    292.29066   -20.975905    17.152164    32.626651     40.05545 
145732000    281.49964    340.94196     282.3851   -22.602402    17.729663    58.556862    40.055394 
145736000     268.8072    299.02385    279.37742   -20.130141    18.922551    19.646423    40.055373 
145740000     277.6541    306.65634    282.66724   -20.094857    17.571469    23.989102    40.054137 
145744000    281.48749    319.06099    309.14411   -20.131395    17.204976    9.9168743    40.055337 
145748000    280.98253    313.44273    313.78289   -20.002334     17.54942  -0.34016177    40.053617 
145752000    273.27035    328.98054    271.21305   -19.768798    18.903148    57.767494    40.055508 
145756000    272.73303    325.22298    289.85855   -19.957748    16.707209    35.364428    40.055415 
145760000    281.67064    325.76996    280.21431   -21.493061    18.726005    45.555647    40.053478 
145764000    275.94966    327.29071    269.78519    -20.30486    18.559924    57.505522    40.052906 
145768000    267.53574    314.34074    288.66524   -19.307095    18.118777      25.6755    40.053668 
145772000    277.97679    338.42318     282.0526   -20.908774    17.105119    56.370578    40.053069 
145776000    267.40178     322.6239    270.92615   -20.850715    19.131777    51.697751    40.054774 
145780000    272.97811    316.64628    289.18535   -19.666307    18.337331    27.460932    40.054772 
145784000    270.24422    300.20683    275.79421   -19.833903    19.583288    24.412619    40.053741 
145788000    278.45466    311.79312    325.20359   -20.829829    18.479346   -13.410476    40.052104 
145792000    272.10682    316.34068    293.02117   -19.752005    19.546457    23.319509    40.052552 
145796000    266.64616    308.35272    282.61476   -20.267883     20.15632    25.737959    40.052304 
145800000    270.89534     327.9712    291.56946    -21.55834    19.144905    36.401737    40.053281 
145804000    277.43749    348.73133    277.90626   -21.555673    20.502399    70.825068    40.053242 
145808000    263.38798    299.81777    267.51067   -18.915761     21.02611    32.307094    40.052424 
145812000    265.14913    324.27357    265.84641   -20.704309    21.442219    58.427159    40.051737 
145816000    263.64063    326.63011    253.89741   -19.928708    21.111964    72.732698    40.048347 
145820000     275.8413    311.62195    299.63618   -18.811901    17.651404    11.985772    40.047967 
145824000    271.74178    333.46632    275.68317    -20.43465    20.218414    57.783145    40.045547 
145828000    275.29185    331.39033    290.93399    -19.50751    19.370479    40.456339    40.045842 
145832000    285.88639    334.53007    319.00634   -21.855541     18.46768    15.523733    40.046593 
145836000    269.85678    312.18385    273.68802    -21.36902    19.540292     38.49583    40.046449 
145840000    262.25828    304.70923    268.21237   -19.382367    20.061236    36.496856    40.046557 
145844000    278.14255    324.77031    299.48121   -19.926063    19.000504      25.2891    40.045604 
145848000    262.87637    314.01412    266.80521    -19.46646    19.463624    47.208908     40.04451 
145852000    263.34257    302.12537    262.96165   -18.499653    20.238023    39.163713    40.042881 
145856000    277.64384    336.81417    278.37524   -20.685557    20.071277    58.438929    40.042499 
145860000    277.17405    327.83289    297.11272   -21.580081    19.553233     30.72017    40.043281 
145864000    266.42443    292.74631    283.94649   -19.632899    20.001532    8.7998128    40.042291 
145868000    269.30402    318.46379    269.39368   -21.351207    20.840966    49.070111    40.039679 
145872000    263.71102     292.7867    270.00309   -20.574475    20.266949    22.783612    40.039637 
145876000    271.65664    320.59931    280.11331   -20.913331    19.446505    40.485997     40.03919 
145880000    269.91471    308.71864    289.85712   -20.155931    18.479665    18.861515    40.039152 
145884000    281.93677    347.84442    286.79388   -22.001718    19.023388    61.050539    40.040357 
145888000    268.67322    332.30946    261.33532   -21.920386    20.601699    70.974144    40.040604 
145892000    272.48151    332.50412    262.63525   -22.775884    20.131233    69.868872    40.040833 
145896000    277.59531    306.45084    291.67701   -22.147468    19.423335    14.773832    40.041716 
145900000    272.97247     312.5638    277.02305   -21.327847    19.056771    35.540747    40.041167 
145904000    269.02337    298.45553     286.2375   -20.002861    18.398209    12.218033    40.040353 
145908000    283.02452     328.7395    292.34987   -22.000342    19.908379     36.38963     40.03975 
145912000    270.38637    300.19165    274.99965   -20.689372     20.19334    25.191994    40.039488 
145916000    279.38872    335.65615     287.8646    -23.06579    19.515651    47.791556     40.04018 
145920000    271.23012    317.17054    263.54473   -21.860529    20.643049     53.62581    40.040458 
145924000     275.7656     311.5891    290.20911    -21.35474    20.389716    21.379987    40.040458 
145928000     275.5215    315.87435    273.53248   -22.379036    19.226987    42.341875     40.04058 
145932000    275.42772    315.49284    274.77208   -21.003003    19.916946    40.720757    40.041382 
145936000    270.05306    312.47742    263.71553   -21.320308    19.895732    48.761899    40.041148 
145940000    280.06653    320.79778    306.14658   -22.179876    17.873777    14.651194    40.039713 
145944000    280.28388    341.28211    289.79263   -21.702955    19.096372    51.489478    40.039481 
145948000     263.1573    309.25137     271.0206   -20.503547    20.388371    38.230765    40.039016 
145952000    273.25683    356.69748    259.00551   -22.585348    21.240912    97.691971    40.040922 
145956000    269.13899    314.98346    283.09861   -19.448955    20.135351     31.88485    40.040795 
145960000    274.50235    317.73614     282.7155    -20.26723    20.035563    35.020645    40.039834 
145964000    266.97124    315.91615    269.76138   -21.707832    21.047046    46.154774    40.039943 
145968000    271.89662    318.73707    292.76026   -21.544375    19.835253    25.976805    40.040844 
145972000    257.41617    307.20094    267.09433   -20.685251    20.722578    40.106606    40.040505 
145976000    260.93308    306.99691    268.66167   -20.253325    20.789056    38.335244    40.040474 
145980000    269.27571    334.51481     279.4939   -21.170441    20.498394    55.020915    40.039216 
145984000    269.98894    302.11714    290.95306   -18.619691     19.55721    11.164075    40.038101 
145988000    254.83161    272.00622    268.16953   -17.557587     20.63567    3.8366895     40.03948 
145992000    272.38076     324.1317    290.15343   -21.459983    19.355751    33.978268    40.037791 
145996000    269.13209    318.56586    280.25471   -21.323857    20.049738    38.311156    40.038851 
146000000    283.52891    341.95514    282.33364     -20.9003    19.214314    59.621507    40.040506 
146004000    269.77136    317.08828    268.06485   -19.988707    20.658699    49.023434    40.040284 
146008000    270.71907    321.22084     278.0375    -20.27452     19.47028    43.183344    40.042079 
146012000    283.67739    348.20453    299.35295    -23.34026    19.423588    48.851578    40.041895 
146016000    263.68646    301.75977    265.18317   -19.673685    19.140634    36.576599    40.041007 
146020000    276.80582    351.48224    258.77397   -21.682714    20.026683     92.70827    40.039697 
146024000    282.92241     334.5304    282.04464   -21.484498    17.925351     52.48576    40.039465 
146028000    276.43275    312.04499    292.12928   -19.754994    17.744876    19.915709     40.03874 
146032000    270.05224    326.75471    250.61676   -20.945594     19.76644    76.137948    40.039389 
146036000    274.18563    312.42604     274.8711   -20.020096    19.254088    37.554934    40.038816 
146040000    275.62161    306.33737     287.0912   -20.319592     17.97462    19.246167    40.039212 
146044000    272.85863     299.9296    288.22439    -20.43885    18.649221    11.705205     40.03797 
146048000    276.75683     335.5954    262.10235   -22.662154    19.508531    73.493054    40.040137 
146052000    283.01521    337.48562    285.57782   -21.751042    18.429118    51.907806    40.039445 
146056000    273.16348    321.73353    280.87309   -21.091801    19.523063    40.860444    40.039195 
146060000    275.39009    327.52844    269.11195   -21.715462    19.547227     58.41649    40.038486 
146064000    289.15656    342.56766    309.62351   -22.994742    17.949194    32.944147    40.037931 
146068000    274.40883    299.58412    285.48933   -21.082733    19.141814    14.094789    40.037794 
146072000    278.64966    320.01241    289.22758   -22.276582    19.851089    30.784833     40.03727 
146076000    269.36678    300.56288    286.64698   -20.984154    20.372913    13.915901    40.036074 
146080000    274.38721    315.75258     283.3242   -19.475414    20.403097    32.428389     40.03626 
146084000     274.7137    322.50111    292.28214   -20.522511    19.168725    30.218974    40.035963 
146088000    272.74411    306.45707    289.74628    -20.83705    19.293645    16.710795    40.036494 
146092000    264.09865    312.74914    266.81119   -21.586385    19.714727    45.937952    40.037024 
146096000    282.10445    336.40492    278.12342    -22.82584     19.59394    58.281507    40.037424 
146100000    277.80712    342.14391    287.53033   -22.685477    19.410658    54.613578    40.036359 
146104000    276.24863      335.477    265.53769   -22.789661     20.91836    69.939308     40.03659 
146108000    277.51917    311.78907    286.96897   -21.641129    18.716321      24.8201    40.037152 
146112000    269.64938    311.26939    270.13782   -21.947945    20.265284    41.131576    40.037382 
146116000    281.76223    330.08866    293.88911   -21.731348    20.453857     36.19955    40.038677 
146120000    272.46362    297.93257    293.98345   -20.272812    19.054215    3.9491221    40.038702 
146124000    270.39862    301.51865    281.54021   -21.014955    20.159038     19.97844    40.038481 
146128000    270.61092    318.53697    292.33715   -21.982399    19.663909    26.199812     40.03822 
146132000    276.47014    302.62825    284.80522   -21.276292    19.357631    17.823029    40.039113 
146136000    270.47147    296.73375    280.63954   -19.724658     19.83459    16.094204    40.038062 
146140000    279.22108    327.93165    284.75163   -22.018662    19.448784    43.180012    40.037322 
146144000    271.53332    309.54682    288.87195   -21.176053     19.88887     20.67487    40.038667 
146148000    281.67589    333.87408    291.18089   -22.935167    19.934524     42.69319    40.036647 
146152000     273.4108    311.48098    287.80386   -22.674279    19.722947    23.677122    40.036486 
146156000    273.79805    308.59839    259.79548   -21.161827    19.547286    48.802907    40.036904 
146160000    273.34581    319.03967    295.28291    -21.58304    18.433641    23.756756    40.037036 
146164000    274.36623    321.40993    284.24525   -21.547674    18.333015    37.164674    40.036986 
146168000     280.5655    325.70806    280.77128    -22.25819    19.836885    44.936776    40.036176 
146172000    282.60587    311.15908    290.25509   -20.915581    17.590663    20.903993    40.036228 
146176000    277.13816    332.15663    268.92686   -22.870256    18.412815    63.229761    40.036971 
146180000    276.71322    330.09628    264.41523   -22.557059    20.400495    65.681046    40.037835 
146184000    282.61335    354.48888    275.67312   -23.662221    19.091285    78.815763    40.038029 
146188000    269.51376    326.56112    261.12211   -22.091481    20.292364    65.439003     40.03742 
146192000    276.61548    330.10899    274.96906   -21.481535    20.802906    55.139926    40.037457 
146196000    278.64857    324.65864    279.45715   -22.439122    20.092962    45.201496    40.038847 
146200000    276.59264    332.66709    278.27379   -22.344942    19.852441    54.393294    40.040633 
146204000    282.58835    340.71025    273.61754   -23.555532    18.953393    67.092713    40.041408 
146208000    278.74065    326.74187    284.70607   -22.650717    19.556553    42.035796    40.042251 
146212000    285.09814    331.86579    294.25256   -22.799746    18.811467    37.613235    40.044219 
146216000    279.41536    325.26494    281.15965   -22.301108    19.203001    44.105292    40.043419 
146220000    279.40433    337.30745    271.42422   -22.227302    20.607287    65.883232    40.043017 
146224000    279.24316    304.89855    286.71847   -21.394839    19.868867    18.180075    40.042649 
146228000    270.05112     315.9718    264.58281   -22.403903    20.885329    51.388988    40.041825 
146232000    267.42374    293.50767    263.43536   -21.222474    20.362199    30.072312    40.041325 
146236000    269.24257    312.13499    250.02273    -23.16811     20.29185    62.112256    40.041541 
146240000    276.11902    318.36044    280.61994   -22.930051    19.668933    37.740503    40.043726 
146244000    272.05835    304.24252    266.94685   -22.029578    19.836614     37.29567    40.043966 
146248000    272.88368    308.87509    272.13638   -20.998213    19.612244    36.738703    40.042955 
146252000    282.88956    343.92445    284.65764   -23.366407    18.270523    59.266803    40.043608 
146256000    281.52088    335.88724    277.02166   -23.282347    19.391386    58.865579    40.044728 
146260000     282.9945    324.27353    295.89546   -20.831401     18.45795    28.378065    40.045281 
146264000    266.81227    318.90484    258.47568   -20.690205    19.261299    60.429158    40.047034 
146268000    277.16423    329.66541    263.17001   -22.059548    19.779583    66.495399    40.047068 
146272000    275.20034    318.53161    293.39569   -21.121509    19.400696    25.135921    40.045526 
146276000    273.76635    333.71307    278.48983   -22.139951    19.802193     55.22324    40.044057 
146280000    268.28444    304.79949     273.0667   -20.924862    20.133397    31.732791    40.044818 
146284000    281.59159    326.11092    289.25057   -22.807005    19.343705    36.860356    40.044603 
146288000    279.42053    329.35822    275.34848   -22.922193    19.859192    54.009746    40.045968 
146292000    279.29577    364.23004    263.32751   -24.014839    18.921299    100.90252    40.047604 
146296000    280.94216    343.23286    289.98376   -22.774402    19.375169    53.249095    40.046742 
146300000    277.24274     315.6999    277.45189   -21.818677    19.034604    38.248008    40.045935 
146304000     279.3864    338.11217    257.52448   -22.372667    19.243707    80.587685    40.045742 
146308000    276.35062    315.14443    294.65104   -20.968533    17.844181    20.493388     40.04742 
146312000    271.76325    319.18461    283.61447   -20.947628    17.539045    35.570139    40.046172 
146316000    277.33688    324.30627    280.96531   -22.433849    18.431597    43.340956    40.047458 
146320000    267.22437    306.77371    277.81092   -21.860502    18.746393    28.962786      40.0437 
146324000    279.18288    313.40931    288.88595   -22.425021    18.765778    24.523363    40.044632 
146328000    266.08655     293.8749    281.43886   -21.865616    20.028829    12.436037    40.043491 
146332000    282.18353    309.69632    303.47722   -21.888762    18.171138    6.2191007    40.043469 
146336000    280.73055    322.39759    281.15132   -22.933592    18.395045    41.246275    40.041128 
146340000    277.75337    332.89804    278.81242   -21.724679    19.591672    54.085619    40.041924 
146344000    265.89107    293.93539     270.8584   -20.121746    20.157953    23.076988    40.041388 
146348000    283.68108    342.31759    292.57877   -22.530319    18.779853    49.738821    40.042412 
146352000    280.19138    338.96963    279.29196   -22.037953    19.305506    59.677667    40.041899 
146356000    273.90217    318.32034    278.91858   -20.357694    19.221193    39.401763    40.042495 
146360000    271.52939    318.16804    280.93553   -20.939098    18.251708    37.232509    40.041365 
146364000    272.23443    321.35731    276.09596   -21.396061    19.435911    45.261353    40.041239 
146368000     280.2057    319.71404    285.01307   -21.749827    19.246286    34.700967    40.042488 
146372000    274.62488     305.6769    288.95349   -20.437539    18.771222    16.723415    40.042051 
146376000    277.73155    313.77982    281.52197   -20.978488    17.891046    32.257847    40.042425 
146380000    282.63525    306.26488    295.61618   -19.376708    17.528752    10.648695    40.042132 
146384000    281.06231    335.18503    279.99356    -21.62797     18.32374    55.191462    40.044348 
146388000    279.45043    338.80975    284.87944   -21.896878    19.396311    53.930315    40.045434 
146392000    274.86754    311.55538    272.83495   -20.121754    19.342539    38.720426     40.04465 
146396000    278.50858    338.50903    271.78957   -21.506473    18.924183    66.719454    40.045533 
146400000    278.31367    322.66335    293.56751   -19.713259    18.850501    29.095837    40.045454 
146404000    273.33851    319.54477    297.59636   -19.235838    17.771893    21.948419    40.045027 
146408000    276.10139    325.43906    287.10147   -20.424966    17.806112    38.337585     40.04572 
146412000    269.97109    328.34655    257.30122   -21.162811    20.184656    71.045335    40.045288 
146416000    274.16182    317.95797    301.77295   -20.386735    17.865004    16.185022    40.042801 
146420000    276.53636    339.24824    276.63961   -20.367638      20.0964    62.608629    40.043496 
146424000    267.04697    331.77364    270.75617   -20.420969    20.031513    61.017469    40.045186 
146428000    268.41756    317.44811    264.65482   -20.718029    18.892526    52.793285    40.044488 
146432000    278.79476    321.34278    287.43943   -20.681422    18.683128    33.903358    40.045316 
146436000    279.32874    321.85867    290.32932   -20.909471    18.533305    31.529357    40.046506 
146440000    268.71166    294.83362    287.73455   -20.366206    18.284626     7.099071     40.04526 
146444000    280.27668    337.93945    288.43581   -22.637981     18.58472    49.503641    40.045068 
146448000    271.62304    297.54104    280.22093   -19.703703    18.593666    17.320111    40.046648 
146452000    279.11253    333.84566     266.0949   -23.845325      19.9543    67.750756    40.046039 
146456000    270.57421    313.06086    270.22442   -22.047947    20.303054     42.83644    40.045954 
146460000    279.30397    312.29697    288.03994   -23.215055    19.334707    24.257024    40.044773 
146464000    277.91674    342.43896    254.88728    -22.85852    21.126298    87.551679    40.045327 
146468000    277.88342    327.21875    284.39153    -22.80246    19.371357    42.827226    40.047148 
146472000    280.63267     324.8938    264.00412   -22.935168    19.384012    60.889677    40.047899 
146476000    284.10662    326.21099    305.12816   -22.354498    18.382527    21.082832    40.047517 
146480000    271.90424    312.62746    278.70211   -21.346519    19.753022    33.925353    40.048402 
146484000     271.6494    319.30496    270.36429    -22.01556    19.691375     48.94067    40.048544 
146488000    277.97282    315.08814    290.47937   -21.335407    18.429992    24.608768    40.047979 
146492000    278.45554    314.85122    281.85435   -22.484983    19.406246    32.996867    40.047745 
146496000    266.93137    306.17484    267.40617   -20.940898    19.768968     38.76867    40.047732 
146500000    269.24314     307.3911    270.58699   -21.187076    20.029887     36.80411    40.047161 
146504000    272.69471    322.66035    266.54445   -21.166136     21.80022    56.115896    40.048213 
146508000    264.60391    301.39014    283.97347   -20.128123      20.0266    17.416664     40.04858 
146512000    273.33756    310.14997    270.02875   -19.696703    19.926093    40.121225    40.048253 
146516000    275.41409    321.81873    265.93361   -20.917265    19.429191    55.885116     40.04853 
146520000     281.2713    329.69497    295.85836   -20.210788    17.877053    33.836609    40.046298 
146524000    284.81293    313.14062    303.50575   -20.479273    17.791354    9.6348624    40.044789 
146528000    278.00306    313.69934     281.4337   -20.828971    19.992542    32.265632    40.043951 
146532000    276.35819    319.15036    274.67013   -20.965958    19.388103    44.480231    40.043835 
146536000    272.30306    312.20673    285.33312   -19.969407    19.533853    26.873616    40.042058 
146540000    285.14752    355.53338    273.07563   -21.572897    19.968457    82.457757    40.041441 
146544000    268.36934    292.52599    270.14305   -20.955851    21.291818    22.382942    40.042993 
146548000    269.99114    318.60218      280.033   -21.062871    19.805088    38.569183    40.042737 
146552000    283.19157    308.97802    285.94379   -21.033222    19.150224    23.034227    40.042556 
146556000    272.02716    309.87107     282.9684   -21.205053    20.160717     26.90267    40.042774 
146560000    281.24677    318.50015    288.69291   -22.374481    20.628109    29.807244    40.042623 
146564000    278.55669    317.12169    296.91412   -22.885772    18.703475    20.207574    40.042944 
146568000    269.04078    288.59113    290.15292   -19.892431    19.347201   -1.5617932    40.041554 
146572000    278.70041    329.67368    297.61686   -22.109018    19.447621    32.056815    40.040839 
146576000    269.77268    315.73396    275.42711   -22.271029    21.276701    40.306848    40.040963 
146580000    274.41553    321.79251    277.99955    -23.81225    21.091799     43.79296    40.038908 
146584000    276.03082    313.10749    297.69375   -23.125306    19.322737    15.413738    40.039859 
146588000    274.25609    310.18863    289.71669   -22.350896     19.57153     20.47194    40.039848 
146592000    280.97826    351.16081    282.18552   -23.181046    20.250927     68.97529    40.038708 
146596000    281.92732    344.03463    279.37614   -23.305138     19.85027    64.658484    40.038944 
146600000    280.96152    338.54214    285.82394   -23.417539     19.89176    52.718196    40.039603 
146604000     281.6565    336.80868    290.02795   -23.430687    21.966816     46.78073    40.039324 
146608000    271.47606    337.81799     273.0015    -22.92936    20.549307    64.816489    40.040662 
146612000    280.25463    330.84043    285.67668    -24.00242    20.482763    45.163745    40.040408 
146616000    276.17198    310.61225    286.11143   -23.239729    20.161023    24.500818    40.040626 
146620000    269.70814    303.05098    269.16592   -21.300886    20.774034     33.88506    40.040561 
146624000    281.23536    324.80585    285.17065   -22.525242    19.742007    39.635198    40.041594 
146628000    274.50791    331.13201    274.69338   -24.821922    21.892129    56.438633    40.041735 
146632000    282.90689    335.06581    280.65513   -23.821655    20.717463    54.410679    40.042648 
146636000    278.15026    315.17633    271.89693   -22.276443    20.636625    43.279403    40.043735 
146640000    269.06202    315.31803    268.31131   -22.704388     20.46398    47.006719    40.042961 
146644000    278.49104    325.55872    271.31043   -24.291874    20.352903    54.248289    40.043364 
146648000    276.88766    319.20971    287.23214   -23.867328    20.105563    31.977566    40.044574 
146652000    282.37219    315.79327    290.07726   -22.432751    19.610203    25.716009    40.043634 
146656000    274.78253    319.45032    269.18021   -23.160806    20.577185    50.270117    40.043233 
146660000    278.20274    318.50269    273.42621   -23.035669    20.230367    45.076478    40.042295 
146664000    284.28627    335.72075    294.87858   -23.865082    18.546082    40.842172    40.042387 
146668000    267.04075    315.24346    262.33951   -23.227384    20.486234    52.903944    40.041815 
146672000    268.78746    282.78566    280.55812   -21.304853    20.574182    2.2275428    40.041263 
146676000    289.53341    320.65649    297.28988   -22.486232    18.700134    23.366612    40.041292 
146680000    275.84954    321.51277    277.95205   -22.826714    19.615114    43.560725    40.042984 
146684000    284.64254    328.54577    291.16215   -24.347085    19.086173    37.383614    40.043113 
146688000    283.94465    323.98472    298.71991    -23.84632    18.009024    25.264809    40.042779 
146692000    275.13737    313.36513    261.88873    -22.85302    20.258029    51.476404    40.040293 
146696000    276.55418    315.99723    279.91507   -22.766535    19.458185    36.082158    40.039217 
146700000     277.9597    327.42223    278.57611   -24.219956    19.119371     48.84612    40.039082 
146704000    283.53734       328.79    288.02251    -24.23182    18.549064    40.767494    40.038683 
146708000    276.09066    318.99989    265.35705   -21.906796    20.926064    53.642836    40.039454 
146712000    272.20144    308.88012    257.27595   -22.211442    20.497857    51.604171    40.038472 
146716000    283.46753    336.79234    282.75626    -23.86239    19.581686    54.036076    40.039429 
146720000    278.01958    321.79163    275.55243   -24.160651      19.5078    46.239195    40.039603 
146724000    291.76017    342.04859    292.89972   -25.410235    18.764214    49.148871    40.040373 
146728000    276.72049    323.62558    271.20437   -24.141401    19.548421     52.42121    40.039261 
146732000    280.48118    321.75067    285.63106   -24.076875    18.937303    36.119603    40.039909 
146736000    283.57989    321.09641    296.49114   -23.563166    19.287633     24.60527    40.041257 
146740000    289.96527    326.36748    294.43244   -22.979795    18.611469    31.935045    40.041238 
146744000     285.8902    334.16778     281.5154   -24.337573    20.230357    52.652381    40.043065 
146748000    275.85114    309.60168     271.6155   -23.665949    20.066987    37.986175    40.042668 
146752000    282.56637    334.80397    290.31346   -25.277074    19.165427    44.490515    40.043062 
146756000     282.7422     300.8622     303.7745   -22.655353    18.553499   -2.9122948    40.041558 
146760000     273.3869    313.08575    270.57424   -24.515593    21.061162    42.511511    40.041038 
146764000    270.45491    324.46429    253.08718   -24.401071    21.418609    71.377115    40.041438 
146768000    274.34349    297.62358    285.32949   -21.679903    20.598219    12.294098    40.040991 
146772000    268.12991    308.97114    271.42846   -21.794804    19.844951    37.542679    40.040235 
146776000     283.1399    314.54504    304.75147   -23.362564    17.837366    9.7935697    40.040582 
146780000    276.67001    333.45474    268.79139   -23.278954    20.516165    64.663352     40.04138 
146784000    280.72112    334.78907    264.60687   -23.463164    20.562383    70.182197    40.042414 
146788000    274.15468    303.95472    300.87097   -21.650312    19.704088    3.0837508    40.042458 
146792000    284.57243    321.57292    306.19456   -22.509238    19.616527    15.378358    40.040104 
146796000    267.86454    278.89972    298.49952   -21.437026    20.085487   -19.599802    40.039599 
146800000    275.23917    319.74814    291.08746   -23.404443    21.121077    28.660681    40.038666 
146804000    293.48315    361.39236    297.90525   -25.354004    19.837699     63.48711    40.037947 
146808000    277.93713    336.47459    283.02883   -23.636734    20.702074    53.445763    40.038308 
146812000    271.31416    298.64319    276.88504   -21.153613    21.142931    21.758143    40.037298 
146816000    276.29049    308.50969    288.09952   -23.077918    21.047581    20.410163    40.036945 
146820000    273.70582    339.19465    279.60031   -24.027011    21.142075     59.59434    40.036917 
146824000    272.72964    327.20193    275.20939   -24.878372    20.574275    51.992539    40.037633 
146828000    274.06562    343.81355    265.63651   -25.441157     21.01268    78.177042    40.037329 
146832000    273.41725    315.92325    274.21275   -23.427735    22.784591    41.710497    40.037473 
146836000    274.06665    317.47434    283.44961   -23.452655    21.542457    34.024727    40.038628 
146840000    273.22815     319.1204    272.20683   -23.877361    21.047899    46.913565     40.03754 
146844000    280.34101      349.038    276.03411   -24.692726    20.943272    73.003889    40.037846 
146848000    278.45036    316.46086    297.01099   -21.989472    19.958315    19.449868    40.037213 
146852000    268.49312    307.59851    279.43466   -22.255361     20.51811    28.163844    40.036209 
146856000    276.36984    318.44489    282.08366    -22.06146    20.608122    36.361225    40.035913 
146860000    272.53541    313.20006    287.59324   -23.231498    20.745037    25.606821    40.035951 
146864000    276.34098    321.30655     286.9867   -22.147904    20.122235    34.319847    40.035253 
146868000     271.3235    338.90167    265.76418   -23.192707    20.240082    73.137485     40.03558 
146872000    279.67064    318.27019    302.69156   -22.286847    20.049449    15.578634    40.035693 
146876000    275.09764     332.4366    274.24981   -22.589097    21.444705     58.18679    40.034775 
146880000    273.47833    315.42489    273.91047   -22.169922    20.919387    41.514422    40.035398 
146884000    278.11702    298.53533    307.27715   -21.057725    19.800845   -8.7418199    40.034604 
146888000     276.7259    318.44951    283.06546    -22.64955    20.787092    35.384053    40.034066 
146892000    282.14671    328.61182     299.4098   -22.744861    20.041778    29.202013    40.034233 
146896000     266.1146    325.66349    253.52932    -22.67526    22.052423    72.134171    40.033417 
146900000    275.51791    325.83677    278.71491   -22.620979    21.391327     47.12186    40.033184 
146904000    275.94759    328.10381    278.80237   -23.359695    21.234452    49.301442    40.032721 
146908000    278.74827    326.81143    294.65624   -23.547318    20.507721    32.155188    40.033505 
146912000    279.05982    315.55773    275.06743   -22.161797    20.635573      40.4903    40.033395 
146916000     268.5048    312.28665    279.33063    -22.56429    20.545602    32.956021    40.034656 
146920000    273.10746    324.91347    278.05939   -22.555643    20.342656    46.854077     40.03411 
146924000    278.41617    313.57503    279.89297   -22.240334    20.781092    33.682066    40.034299 
146928000    275.14841    310.58053    280.23442   -23.486105    20.626772    30.346115    40.033479 
146932000    270.20827    307.83494    268.24123    -22.37183    20.560204    39.593712    40.034509 
146936000    273.10512     309.7625     279.9056   -21.657825    20.789797    29.856895     40.03382 
146940000    273.02585    312.42801    274.95238   -22.676802    19.734867    37.475626    40.032824 
146944000    276.62274    321.61121    268.32419   -23.167518    21.310105    53.287022    40.032676 
146948000    277.94932    326.09667    283.85338   -23.374703    20.690071    42.243293    40.033316 
146952000    276.58028    334.81776    279.04577   -23.900336    20.468633    55.771992    40.032721 
146956000    272.54962    329.55577    277.63299   -24.710858    20.962439    51.922776    40.031862 
146960000    278.32514    327.76667    274.10115   -24.110116    20.756602    53.665522    40.032232 
146964000    273.25562    330.16035    273.54434   -23.904368    21.518085    56.616015    40.031697 
146968000    278.87274    310.37441    288.59234   -22.692709    20.043854    21.782074    40.031177 
146972000    276.97649     301.0101     304.0179   -22.995226    19.792614   -3.0078046     40.02939 
146976000    283.79676    348.17368    296.15445   -24.146102     19.94366    52.019229    40.029011 
146980000    265.75387    292.86416    258.66121   -22.509045    21.409511    34.202943     40.02982 
146984000    272.83538    309.35111    276.28515   -22.974695    20.953368    33.065967    40.028251 
146988000    282.74179     342.9056     280.0243   -25.060935    19.994743    62.881303    40.029184 
146992000     271.4023    299.93672    274.67562   -23.874709    20.063563      25.2611    40.028323 
146996000    272.50337    324.91337    267.01194   -23.317088    20.727821    57.901431    40.029627 
147000000    275.45429     315.9403    281.81613   -23.925534    20.446736    34.124166    40.029565 
147004000    275.96259     332.7429    263.09619   -24.800251    22.330133    69.646717    40.031154 
147008000    285.77931    338.11888    289.80987   -25.044366    20.490938    48.309011    40.031196 
147012000    270.39752    303.53508     289.9078   -23.657655    20.756529    13.627279    40.029298 
147016000     279.2249    332.08589    267.07704   -24.066273    20.736368    65.008851    40.030847 
147020000    282.83552    340.86883    297.29656   -25.087828    20.669088    43.572265    40.031093 
147024000    281.93842    344.20097    282.19695   -25.048798      20.7711    62.004021    40.033566 
147028000    285.23652    332.14702    294.25827   -25.560121    20.765174    37.888748    40.032821 
147032000    275.15669     317.2694    274.56115   -24.864017    21.865494    42.708259    40.032395 
147036000    285.96927    351.57812    285.06191   -26.319136    20.472159    66.516208    40.030479 
147040000    281.38732     345.6738    261.16941   -24.887252    22.880454    84.504388    40.030666 
147044000    280.05123    315.21831    289.35217   -24.331253    20.852349    25.866132     40.03006 
147048000     271.4955    302.82288    268.88658   -24.101324    21.973418    33.936306    40.029865 
147052000    271.95097    333.62797    271.52909   -26.416679    20.872032    62.098885    40.029566 
147056000    277.49111    348.85946     265.6428   -25.745676     22.16433    83.216654    40.029589 
147060000    283.90667    333.89555    284.11905    -24.56965    20.639958    49.776499    40.030667 
147064000    281.27009    354.00157    275.42303   -26.743468    21.745712     78.57854    40.030216 
147068000    275.32526     340.5541    266.91956   -24.851585    22.104719    73.634542    40.030508 
147072000     289.4596    349.19157    288.58231   -27.146981    20.716817    60.609256    40.030342 
147076000    271.81541    302.59345    273.58749   -23.619844    21.142984    29.005955    40.031538 
147080000    283.31032    350.05814     268.9296   -26.103535    21.836412     81.12854    40.033681 
147084000    273.78397    308.91857    289.21374   -23.622728    21.879851    19.704822     40.03423 
147088000    270.46922    307.09311    272.71551   -23.944099    23.133437    34.377596    40.034238 
147092000    284.52115    343.11722    273.05579   -25.606101    23.273566    70.061427    40.033465 
147096000    279.02308    343.57046    274.99314   -24.764421    22.687785    68.577319    40.032705 
147100000    273.18532    311.31673    274.19998   -25.529119    22.278523    37.116756    40.033457 
147104000    275.93638    327.06928    267.23849   -25.346917    22.080419    59.830786    40.032656 
147108000    273.72582    281.81673      311.177   -23.244514    20.252894   -29.360269    40.032673 
147112000    282.58015    325.34085    284.13894   -25.334827    19.822338    41.201912    40.032881 
147116000     282.4869    318.93433    293.36991   -24.019703    21.134374    25.564424    40.032072 
147120000     284.5781    338.10182     290.8717   -26.249412    21.646522    47.230114     40.03204 
147124000    279.19969    318.37299    298.78622   -24.925869    21.417916    19.586776    40.032129 
147128000     270.9734    296.50706    280.56137   -23.635116     21.20731     15.94569    40.031028 
147132000    274.22927     311.0031    269.55186   -24.243822    22.751904    41.451233    40.030813 
147136000    268.20626    308.99783    268.30318    -23.38006    23.113284    40.694649    40.031912 
147140000    265.89551    312.93048     283.7495   -24.010364    22.807154    29.180977    40.030835 
147144000    272.84765    322.77985    291.95487   -25.357111    21.988312    30.824986    40.031144 
147148000     274.8752    303.69746    287.30677   -23.537362    20.980625    16.390689    40.031434 
147152000    274.46541    318.87369    288.84709   -23.593333     22.54929    30.026593    40.030732 
147156000    280.09214    325.63771     296.0509   -24.874872    21.657467    29.586809    40.030399 
147160000    270.34735    311.62397    290.77868   -24.031778    21.593849     20.84529     40.02896 
147164000    278.63366    345.01653    269.09919   -26.697967    21.689118    75.917343    40.029626 
147168000     273.7377    322.20165    278.57722   -25.438712    20.909566    43.624433    40.030402 
147172000    290.95057    352.82339    303.19342   -27.590791     19.03734    49.629969    40.030821 
147176000    272.20278    317.83913    260.49409   -25.767493    20.781313    57.345046    40.031387 
147180000     278.4888    319.67168    281.85109   -26.488932    20.597912    37.820591    40.031617 
147184000    272.03903    307.78397    277.44362   -24.428841    21.000843     30.34035    40.032402 
147188000    268.95971    299.64149    268.42585   -24.554257    21.636647    31.215643    40.033309 
147192000    270.83884    314.93172    259.17397   -25.365004    21.178277    55.757751    40.033977 
147196000    283.20141    343.01219     272.6017   -26.404976     21.21881    70.410492    40.033067 
147200000    271.03432    295.82813    291.03545   -24.759333    20.382777    4.7926761    40.032254 
147204000     274.4878    318.36052    262.97818   -25.142586    22.327964    55.382337    40.033556 
147208000    282.13916    316.95262    286.77764    -24.35983    21.063345    30.174981    40.031485 
147212000    275.24456    319.30439    268.68436   -24.538474     22.31766    50.620034    40.030935 
147216000    281.33871    317.12486    273.05838   -24.124984    22.370069    44.066474    40.030412 
147220000    283.39902    329.96122    284.49796   -25.443687    20.266812    45.463261    40.030548 
147224000    284.01185    348.39828    277.04331   -27.296107    20.303027    71.354965     40.03004 
147228000    277.93022    329.14406    260.28675   -25.064214    22.603093    68.857314    40.030918 
147232000    273.23247     334.8586    286.99109   -26.128338    20.567772    47.867515    40.030628 
147236000     277.5603     324.2639    283.91988   -24.889692    21.181145    40.344019    40.029755 
147240000    274.16076    313.63179    291.42368   -24.012994    20.313846    22.208115    40.029492 
147244000    277.22106    334.07154    287.01258   -25.104564    20.795754    47.058962    40.028182 
147248000     277.9284    327.83468    305.79175   -24.752127    20.651124    22.042925    40.027049 
147252000    273.21918    315.94547     285.0537   -24.556561    21.071894    30.891771    40.026008 
147256000    278.05618    333.89473    259.66978   -25.303321    21.860602    74.224951    40.025745 
147260000    277.70517    315.02326    289.71463   -25.621799    20.968448    25.308626    40.024698 
147264000     282.1766    322.91755    287.29816   -24.087271     21.93528    35.619392    40.023172 
147268000    279.03683    309.46611    299.19298    -24.36215    21.403122    10.273132    40.022314 
147272000    282.42313    337.18646    294.18422   -24.848729    21.320033     43.00224    40.022601 
147276000    277.84521    316.30581    278.89215   -23.996384    22.130503    37.413664    40.021637 
147280000     260.4141    292.82671    265.31275   -24.058396    23.228732    27.513965    40.020948 
147284000    275.94815    321.81815    285.00677   -23.978702    21.964883    36.811379    40.020879 
147288000    273.03435    304.73185    281.36001   -23.912745     22.74975    23.371838    40.019496 
147292000    272.25765    323.51331    282.72498   -25.497513    22.132126    40.788325    40.021676 
147296000    280.55539     326.3854    293.11951   -23.851528     21.94018    33.265887    40.021865 
147300000    269.91301    308.40698        274.8    -22.09249    22.963048    33.606982    40.021437 
147304000    275.83255    319.59308    310.85359   -23.422686    21.440152    8.7394872    40.022269 
147308000    273.47478    321.04318    278.77827   -23.945831    22.785582    42.264907    40.022139 
147312000    273.57338    313.45891    282.82293   -23.175699    21.313432    30.635973    40.022629 
147316000    273.23178    319.37237    291.44044   -24.327963    22.193979    27.931926    40.022867 
147320000    279.58779    328.39543    288.20332   -24.124584    21.872321    40.192117    40.022936 
147324000    267.98409    303.43071    281.29993   -23.104203    22.180524    22.130778    40.022239 
147328000     269.4354    314.27268    267.26892   -23.935229    23.036875    47.003761    40.022851 
147332000    270.67457    315.39488    287.19199   -24.256635    21.394989    28.202888    40.023859 
147336000    267.06328    310.95273    262.81291   -25.144944    22.561005    48.139813    40.024785 
147340000    273.15121     309.5843    277.32883   -24.098087    21.752466    32.255467    40.026991 
147344000    281.78577    331.85542    289.53345    -24.65963    21.767164    42.321961     40.02629 
147348000    284.17116    355.26057    284.82502   -25.544409    22.217724    70.435551    40.026617 
147352000    278.90534    302.82519    310.39427   -23.812119    21.263229   -7.5690757    40.025787 
147356000    273.55977    310.62713    279.80682   -23.389221    22.853566     30.82031    40.025875 
147360000    263.93253    313.09838    261.23662   -24.333339    23.202695    51.861751     40.02606 
147364000    267.31974    301.37552     273.2982   -23.370101    23.094234    28.077316    40.026985 
147368000    270.73939    304.76421    274.61226   -23.715735    22.941893     30.15195    40.027766 
147372000    278.40768    329.29695    290.49989   -24.265946    22.043082    38.797061    40.027669 
147376000    270.27805     315.8937    274.62103   -24.622128     22.82219    41.272671    40.027503 
147380000      272.655    313.09155       287.61   -23.458652    21.987656    25.481558    40.027014 
147384000    261.76109    303.10644     274.7461   -23.297447    23.489914    28.360338    40.027667 
147388000    260.05908    303.86585    259.79325   -22.295328    23.608739    44.072601    40.027928 
147392000    275.28984    319.79252    274.64017   -25.115488    22.731074    45.152347     40.02599 
147396000    272.41795    306.76738     272.8819   -24.157196    23.872076    33.885479    40.025441 
147400000    261.22192    288.05942     280.0201   -22.004002     23.69564    8.0393173    40.024009 
147404000    269.59438    306.20815    289.00287   -22.522493    21.446413    17.205279    40.023711 
147408000     275.2562    330.74572    275.99976   -24.000801    22.820718    54.745953    40.023066 
147412000    272.47598    300.01462    282.48852   -22.291304    23.494485    17.526101    40.020935 
147416000    273.19343    321.52648    294.39807   -23.251838    22.918274     27.12841    40.021413 
147420000    280.51669    329.00784    298.42582   -23.849924     22.25344    30.582024    40.021994 
147424000    276.12784    335.94731    286.55838   -24.097985    21.998475    49.388936    40.021952 
147428000    275.52298    306.54012    300.96092   -23.139924    23.024796    5.5791973    40.021635 
147432000    279.87467    320.83819     289.2727    -23.99655    22.282263    31.565492    40.021263 
147436000    279.50335    317.24208    295.48512   -23.182771    23.067651    21.756957    40.021913 
147440000    273.24889    330.25055    277.32289    -25.21501    22.857093    52.927655    40.021636 
147444000     278.0606    322.16429    289.09469   -25.155129    23.723317    33.069605    40.023128 
147448000    274.39072     308.0256    306.77399   -24.451003     21.95598    1.2516112    40.022935 
147452000    266.88853    319.55217    291.29709   -24.296793    23.212783    28.255087    40.024308 
147456000    263.96119    302.49073      264.959    -24.00661    25.073065    37.531735    40.025098 
147460000    268.32674    332.95787    279.65983   -25.480728    24.589795    53.298042    40.023997 
147464000    268.19709    300.59205    283.36131   -23.670676    23.928358    17.230745    40.022391 
147468000    273.79759    329.22791    284.70275   -24.264829     22.63185    44.525156     40.02181 
147472000     275.8779    324.41132    293.83536   -24.479263    23.674281    30.575961    40.021724 
147476000    274.18832    321.93873     274.6408   -24.828976     25.08786    47.297929    40.020078 
147480000    274.99442    339.33645    281.83873   -25.914888    23.783987    57.497717    40.017267 
147484000    282.79174    329.53186    297.17587   -24.590275    22.108379    32.355985    40.017376 
147488000    268.09733    320.48595    275.92291   -25.861759    25.056857     44.56304    40.014978 
147492000    270.97358    322.50027    275.18989   -25.537803    23.045121    47.310384    40.014012 
147496000    267.56747     299.6789    301.77888   -23.636524    23.720316   -2.0999838    40.012074 
147500000    270.35456    330.38594    275.48267   -25.583406    24.878697    54.903272    40.011119 
147504000    265.99524    296.13411    292.86308   -23.466006    25.592085    3.2710385    40.009517 
147508000    266.77707    320.68645    273.27646   -23.846382    25.907635    47.409987    40.007483 
147512000    272.41333     319.3088    308.58329   -24.038507    24.456148    10.725508    40.007556 
147516000    269.27519    316.46475    279.83522    -25.22346    24.286354    36.629536     40.00564 
147520000    267.10076    310.84116    284.37011    -25.03282     24.79766    26.471053    40.005717 
147524000    267.15024     299.1348    284.80123   -23.868722    24.437496    14.333566    40.005059 
147528000    267.34928    330.73384    269.53985    -25.37831    25.023553    61.193991    40.004036 
147532000    266.29157    312.49046    279.04702   -24.734925    24.838887    33.443444    40.004032 
147536000    279.24427    334.00394    298.93434   -26.646003    23.845472    35.069604    40.004174 
147540000    276.97112    323.91975    301.15519   -26.948686    23.985577    22.764564    40.003412 
147544000    274.23338    312.69698    286.41612   -25.009368    24.840324    26.280859    40.002182 
147548000    274.48246    312.36365    291.17901   -25.599046    24.438737    21.184637    40.001059 
147552000    272.71558    329.66314    278.32746   -27.337484    24.227044    51.335678    39.999666 
147556000    276.58301    338.51926     270.9534   -27.730091    24.587764    67.565865     40.00084 
147560000    277.05236    328.16906    262.18761   -27.352906    24.204866    65.981457    40.000872 
147564000    270.81582    321.63655    268.63493   -26.943818    24.668645    53.001613     40.00115 
147568000    264.85129     291.7751    265.66549   -24.792541    25.357407    26.109614    40.001776 
147572000     279.7442    316.84901     287.7332   -26.090892    22.777961    29.115806     40.00153 
147576000     273.0656    326.07018    272.78076   -26.243691    23.191839    53.289424    40.002564 
147580000    272.86096    334.55062    281.48329   -26.637112    23.204885    53.067327    40.002543 
147584000    274.99943    328.20639    280.07976   -26.472534    23.402438    48.126627    40.003394 
147588000    272.69784    318.41011    271.62328   -25.823875    24.062588     46.78683    40.003104 
147592000    272.86811    307.89372    271.05964   -25.260668    24.150006    36.834077    40.005065 
147596000    270.59551    302.64841    277.89529   -25.303843    24.682768    24.753116    40.004655 
147600000    278.73856    331.05334    280.34887   -25.708134    23.468914    50.704473    40.002617 
147604000    281.98534    325.28952    287.72909   -25.203664    22.313725    37.560432    40.001944 
147608000    274.75642    324.50193    273.10226   -25.008404    23.821641    51.399664    40.001898 
147612000    281.32664    331.31861    283.18453   -26.381685    22.988686    48.134075    40.003126 
147616000    264.99302    306.67117    270.09962   -23.939042    22.550808    36.571553    40.004739 
147620000    279.85617     318.7903    285.74109   -24.582556    22.555283    33.049206     40.00508 
147624000    277.95731    310.74925    291.85649   -23.779529    23.579267    18.892766    40.005362 
147628000    275.03177    323.30393    283.22027   -25.441614    24.739497    40.083661    40.004075 
147632000    276.88907    326.77976    284.48097   -26.686593    24.410193    42.298791    40.002996 
147636000    282.31678    339.40424    274.37259   -26.360552     24.23547     65.03165    40.003132 
147640000    272.06713    316.53736    284.53999   -26.772218    24.144366    31.997371    40.003447 
147644000    274.44511    292.62578    291.73275   -25.976612    23.946558   0.89303365    40.003971 
147648000    276.59828    325.44053    278.84664   -26.434207    24.675316    46.593883    40.004239 
147652000    285.68066    358.92731    298.72502   -28.517551      23.4946    60.202292     40.00289 
147656000    277.65477    331.65346     273.3837   -26.355282    23.950246    58.269758    40.002703 
147660000    265.63042    306.89339    273.74546   -26.162858    23.372021    33.147935    40.002921 
147664000    280.04922    337.13558    280.85321   -26.510027    24.021578    56.282377    40.003367 
147668000    272.94467    319.27191    276.93422   -26.280433    23.915228    42.337688    40.003272 
147672000    274.62439    331.28875    267.84012    -26.59325    23.212315    63.448633    40.003486 
147676000    277.49492    315.09117    306.98919   -24.745489     21.84737    8.1019783    40.003785 
147680000    277.35816    334.27106    288.88539   -25.865679    22.642845    45.385665    40.003439 
147684000     273.4082     312.5913    290.27101   -24.468983    22.306333    22.320292    40.004397 
147688000    280.74116    329.20691    278.95243   -25.755745     23.07905    50.254481    40.005882 
147692000    282.24427    316.71811    315.09967   -25.456706    21.280875    1.6184411    40.005499 
147696000     276.5971    341.02467    258.67168   -27.715327    25.050662    82.352988    40.005576 
147700000    278.70579    325.50924    281.09924   -28.164559    23.315438        44.41    40.004649 
147704000    268.61321     313.4841    274.31074   -25.750827    25.088362    39.173355    40.005556 
147708000    273.28054     333.2895    266.41428   -26.830218    26.072689    66.875218    40.006542 
147712000    278.57053    305.14378    293.87338   -25.377642    23.258364    11.270395    40.006581 
147716000    287.67816    349.40505    292.65551   -27.792375    23.047457     56.74954    40.004844 
147720000    267.24663    304.04079    256.30527   -25.377306    23.906824    47.735518    40.005338 
147724000    275.37675    323.91555    278.54482   -26.378997      23.4604    45.370723     40.00534 
147728000    275.74508    323.71482    273.53973   -28.153009    24.552028    50.175089    40.005495 
147732000     272.6803    307.33062    289.98053   -26.518735    23.675106    17.350084    40.006148 
147736000    280.45773    326.75518    281.38062   -26.660253    23.737209    45.374561    40.006611 
147740000    273.23369    312.43029     279.9677   -25.600505     25.18732    32.462594    40.007407 
147744000    281.58664     333.9273    281.37972   -26.441319    24.649358    52.547578    40.006491 
147748000    279.46382    326.54425    293.15728   -27.505286    25.866921    33.386972    40.005328 
147752000    271.36722    328.38263    273.03554   -26.879705    25.039242    55.347088    40.004188 
147756000    277.61982    317.23991    283.01668   -27.148644     24.66667    34.223229     40.00466 
147760000    271.65071    328.14193    268.55789   -27.513363    24.751183    59.584038    40.005808 
147764000    276.72533    328.87029    281.74366   -25.994847    24.918672    47.126629    40.006522 
147768000    268.77683    311.86167    269.74083   -25.813604    25.165152    42.120842    40.005145 
147772000    264.44206    311.35464    280.47275   -25.669615    24.841042    30.881891    40.004874 
147776000    276.51279    314.10636    279.49676   -26.624695    25.091017    34.609599    40.005047 
147780000    270.87387    339.47714    244.80855   -27.009165    26.401163    94.668584     40.00579 
147784000    280.76872    327.56898    286.85157   -27.576796    24.229948    40.717414    40.006047 
147788000    290.51823    328.76766    304.26986   -27.500533    23.905484    24.497803    40.005956 
147792000    269.86208    321.64254     277.9729   -26.230721      25.0712    43.669641     40.00762 
147796000    274.01233    339.09172    275.28829   -26.595641    24.770465    63.803428    40.006909 
147800000    276.30768    336.16393    264.15972    -27.10096    25.298286    72.004207    40.007977 
147804000    273.88695    316.69503    265.35898   -25.618857     25.96333    51.336047    40.008476 
147808000    274.65888    310.98414    283.50969   -25.993525    24.364926    27.474458    40.008574 
147812000    280.71491    314.89149    299.41851   -25.633951    22.227959    15.472977    40.008914 
147816000    283.65605    335.38372    287.59179   -26.369619    24.729537    47.791935    40.009289 
147820000    276.73791    337.32328    280.40119   -27.089177    24.715024    56.922097    40.008747 
147824000     269.6181    332.67633    266.74499   -26.856918    24.928746    65.931333    40.008839 
147828000    279.26225    317.01429    290.93985   -25.895744    24.103967    26.074443    40.008606 
147832000     282.4538    339.68253    290.12524   -28.184952    23.712752    49.557294    40.007794 
147836000    275.17263    335.12837    259.08093   -26.211387    26.389237    76.047443    40.008487 
147840000     273.8936    307.96684    278.85787   -26.150864    24.917682    29.108968    40.007933 
147844000    278.37825    322.45918    276.46872   -27.030689    25.050598    45.990461    40.008666 
147848000    280.76519    325.71526    296.90244   -26.491828    24.496885    28.812818    40.008663 
147852000    283.02915    348.47855    291.45263   -27.242891    23.465505    57.025918    40.010007 
147856000    281.03029    328.40583    288.42828   -26.779796    24.400704    39.977544     40.00871 
147860000    279.32426    324.54354    287.44338   -25.434823    23.714501    37.100164    40.009553 
147864000    265.81587    296.36108    287.71401   -24.225022    24.311381    8.6470638    40.009501 
147868000    279.99137    341.94393    278.96547   -26.147418    24.034526    62.978459     40.01008 
147872000     278.0918     326.2566    286.21921   -25.422317    24.719782    40.037382    40.009322 
147876000    273.61738    302.43628    312.60001    -24.28577     23.06325   -10.163729    40.007508 
147880000     287.4294    361.24792    292.57487   -25.904674     23.04565    68.673056    40.008411 
147884000    284.83097      337.548    284.21476   -25.561136    23.717156    53.333244    40.009885 
147888000    276.97971    335.73343    289.67439   -27.068499    22.359903    46.059034    40.010614 
147892000    270.97518    316.76827    272.64353   -24.856626    23.208546    44.124738    40.009959 
147896000    268.57747    304.24722     288.2919   -25.248976    23.549517    15.955322     40.01038 
147900000    263.77661    311.51708    268.66204     -25.8413    24.645952    42.855043    40.009636 
147904000    266.73679    306.69453    277.66465   -25.932813    23.843534    29.029884    40.009441 
147908000    264.88661    321.64703    248.62548   -25.439581    25.224987    73.021544     40.01063 
147912000    283.56004    326.34573    313.04536   -25.583242    21.908676    13.300365    40.010276 
147916000    278.53723     338.7342    277.86205   -26.868981    24.973752    60.872158    40.011171 
147920000    275.53519    337.02783    280.60011   -26.128764    24.460222    56.427722    40.011444 
147924000     272.5525    307.48304    285.81177   -24.821176    24.107895    21.671266    40.010963 
147928000    284.42993    335.06469    303.46776    -26.00943    23.627439    31.596929    40.011315 
147932000    264.35861    304.00154    257.00436   -24.482786    25.473164    46.997182    40.011923 
147936000    267.08275    300.82749    274.42151   -24.892528    23.468057    26.405973    40.012275 
147940000     268.7023    320.97388    282.61769   -25.234564    23.893463    38.356196      40.0118 
147944000    271.22538    330.20603    263.81203   -26.484196    24.928377    66.393994    40.011193 
147948000    272.50291    308.44351    291.55798   -23.639937    23.109066     16.88553    40.010977 
147952000    267.14567    318.01089    274.46319   -25.027597     25.41753    43.547698     40.01255 
147956000    276.62627    325.29683    288.56337   -24.879387    23.645325    36.733464    40.011749 
147960000    263.43418    301.88227    287.55419   -23.283365    24.682832     14.32808    40.013415 
147964000    265.64004    328.37319    255.50061   -24.074883    26.242508    72.872575    40.012621 
147968000    259.50095    311.63972    277.77429   -24.743061    24.237298    33.865427    40.013793 
147972000    275.83748     305.9442    302.96606   -24.224087    23.638823    2.9781442    40.012937 
147976000    262.86303     320.0485    273.57613   -24.993239    25.784188    46.472375    40.014202 
147980000    264.53966    304.55644    277.35414   -24.679592    26.283498    27.202302    40.013363 
147984000    262.76551    315.67929    267.10438   -23.748025    25.173985    48.574911    40.013141 
147988000    272.29289    328.03313     278.8231   -26.267862    24.384577    49.210029    40.013408 
147992000    265.09736    306.85224    289.24406   -24.501215    25.547283    17.608176    40.013358 
147996000    266.93485    331.97347    280.03963   -24.805383    24.864193    51.933839    40.016532 
148000000    270.41828    338.63474    279.42975   -25.624701     25.81825    59.204982    40.016694 
148004000    272.14225     321.9786     269.9469   -26.501226    26.500364    52.031699    40.017068 
148008000    270.77577    326.69809    277.04691   -26.872499    25.838763    49.651186    40.015881 
148012000    264.38388     312.1863    278.03319   -25.855239    26.006295    34.153106    40.015999 
148016000    256.68814    314.16473    250.40691   -25.146859    27.066588    63.757817    40.016515 
148020000    265.22666    303.62914    276.91032   -23.986879    25.252694     26.71882    40.015319 
148024000     265.4178    312.73136    285.92029   -24.818809    25.121278    26.811071    40.016385 
148028000    271.08643    305.52451    273.43287   -24.033639    24.979879    32.091633    40.015591 
148032000    268.33754    355.90041    244.65239    -26.82871     25.86222    111.24802    40.017922 
148036000    269.49438    311.95763    291.23344   -24.016072    24.158349    20.724189    40.019342 
148040000    271.74179     300.4401    282.76019   -24.871018    24.036619    17.679918    40.019722 
148044000    272.19085    327.30036    277.66563   -25.251075    23.978795    49.634729    40.019795 
148048000    271.01906    344.83109    264.78104   -26.529631    24.729002    80.050058    40.020684 
148052000    272.87762    332.66873    267.22625   -24.873922    25.093292    65.442488    40.019911 
148056000    267.27343    322.11667    279.93763   -23.664237    24.762237    42.179041     40.01974 
148060000    279.03766    335.39892    292.81861   -25.337016    24.791744    42.580308    40.019201 
148064000    275.29928    338.52631    280.09253   -26.277363    24.562641    58.433773    40.019093 
148068000    263.75709    326.45391    253.44538     -25.7206     26.20235    73.008529    40.019453 
148072000    264.50837    311.39322    282.79311   -24.319864    24.065508     28.60011    40.020042 
148076000    281.27753    342.97823    283.50813   -24.633871    24.226838    59.470108      40.0189 
148080000    269.18476    318.35948    282.23117   -23.912339    24.312653    36.128313    40.019524 
148084000    272.19445     317.6594    277.35636   -23.551297    23.974543    40.303044    40.020449 
148088000    262.21293    315.55527    264.51051   -24.255019    24.909738    51.044758    40.019868 
148092000    276.30106    321.01697    267.93418   -23.689167    24.850338    53.082785    40.019603 
148096000    277.55349    345.12068    319.69939   -24.868979    21.949513    25.421287    40.020143 
148100000    282.92127    346.01627    286.21381   -24.438559     23.23329    59.802459    40.020882 
148104000    270.96546    312.73611    293.44049   -23.633977    23.172089    19.295623    40.020364 
148108000      268.627     324.0675     276.7989   -24.583611    23.532723    47.268606    40.020568 
148112000    268.79844    314.80415     291.1388   -23.298151    22.389083    23.665345    40.020548 
148116000    264.46243    300.98343    293.04627   -23.830417    23.422945    7.9371586    40.020322 
148120000    281.56419     319.6513    296.12641   -24.004405    22.246013    23.524887    40.018973 
148124000    274.86899    320.55723    280.78568   -23.135948    24.178906    39.771552    40.020864 
148128000    277.54157    325.27087    283.15783   -24.560456     23.90382    42.113048    40.018279 
148132000    279.50559    300.08675    316.90484    -23.68818    22.378524   -16.818087    40.017179 
148136000    279.06172    327.61041     287.5928   -25.285071    23.318122    40.017607    40.018831 
148140000    269.79912    323.37561    281.94563   -24.276444     23.85176    41.429981    40.020241 
148144000    270.38451    319.41162    269.55401   -26.129716    24.240974    49.857608    40.021262 
148148000    271.67022    299.83642    282.86499   -23.234178    22.879883    16.971431    40.021338 
148152000    273.95393    314.55671    285.27624   -24.509853    22.853648    29.280464    40.021832 
148156000    274.26458    307.41968    290.05299   -23.287728    22.677506    17.366697    40.020139 
148160000     275.6692    320.40927    281.52868   -24.788444    21.939944    38.880589    40.020393 
148164000    276.67259    304.00664    286.57351   -25.652367    22.720259    17.433128     40.02127 
148168000     271.0026     314.6841     274.0333   -23.170788    23.364237    40.650802    40.020232 
148172000    273.09112    329.66989    263.84666   -24.183084    23.683967    65.823232    40.021142 
148176000    277.73769    319.30904    286.78301   -25.184148    22.056662     32.52603    40.022049 
148180000    272.80885    324.09895    285.01827   -24.056661    22.899518    39.080678    40.022752 
148184000     275.0278    337.96098    269.87791    -24.55363    23.675848    68.083067     40.02414 
148188000    279.44725    332.39922    279.19047    -25.07572    22.277264    53.208748    40.023198 
148192000    275.53288    334.61631    273.50403   -24.991019    23.179883    61.112285    40.023752 
148196000    277.20705    342.96386    295.37625   -25.890251    22.254033    47.587608    40.024395 
148200000    270.37205    286.92971    286.27428    -24.19257    21.579921   0.65543264    40.024283 
148204000    282.66819    324.98307    302.82653   -24.032864     22.56555    22.156545    40.023735 
148208000     272.1541    306.06583    278.19022   -24.110602    23.635869    27.875611    40.025163 
148212000    278.31195    326.40773    293.18068   -25.333291    23.208497    33.227049    40.025658 
148216000    275.29634    332.66776    277.63738   -25.113802     24.64637    55.030377      40.0254 
148220000    270.25474    311.07835    280.23489   -22.565918    23.497733    30.843454    40.025221 
148224000    269.84909    317.65306    278.25064   -23.695891    23.650692    39.402421    40.024952 
148228000     271.4905    306.26496    284.90983   -23.880528    23.079878    21.355133    40.024842 
148232000    267.57517    306.85147    272.12055   -23.903191    24.701888    34.730922     40.02568 
148236000    275.47414    322.60891    290.16653    -24.83644    23.197117    32.442386    40.026639 
148240000    259.86877    311.59326    262.28268   -24.495013    24.749081    49.310582    40.026044 
148244000    266.10533    324.13873    261.05915   -24.188506    25.189678    63.079585    40.028018 
148248000     278.5808    343.45933    278.57899   -25.385506    24.321418    64.880338     40.02984 
148252000     277.3553    314.84357     294.4857   -24.359898     23.57001    20.357875    40.030403 
148256000     274.2918    309.15193    282.07619   -24.709203    23.245804    27.075738    40.030605 
148260000    269.20153    312.83903    269.25176   -25.207494    23.794918    43.587271    40.031542 
148264000     266.8371    292.86395    274.16853   -23.350512    22.743279     18.69542    40.032272 
148268000    282.07282    329.49584    302.72301   -25.603197    21.342721     26.77283    40.031385 
148272000    272.12197    309.25356    296.64793   -24.772973    22.224788    12.605628    40.032135 
148276000    269.51181    302.63375    283.65956   -24.273867     23.52718    18.974196     40.03219 
148280000    278.62466    331.30795    280.66161   -25.306129    23.746574     50.64634    40.030783 
148284000    277.46338    336.39784    267.34609   -24.368288    24.122254    69.051751      40.0302 
148288000    271.97455    314.91717    277.39177   -24.622676    22.957179    37.525401    40.029792 
148292000    276.13732    338.96045    276.71389   -26.029022    22.903596    62.246566    40.030865 
148296000    269.88169    317.28825    272.07505    -24.93042    23.623175    45.213199    40.032179 
148300000      273.936    338.02363    271.11534   -25.021187    22.898118    66.908284    40.032114 
148304000    270.84208     319.8844    284.09936   -24.366276    25.345846    35.785035      40.0303 
148308000    274.37363    336.18664    278.78486   -25.485209     24.55047    57.401785    40.030468 
148312000    276.39839    332.91301    291.67122   -24.862666    23.889801    41.241791    40.029741 
148316000    279.03803    347.61902    272.61058    -26.19544    24.472043    75.008444    40.030268 
148320000    264.17352     317.6202    255.68605   -24.737399    25.147993    61.934151    40.029955 
148324000    268.08023    315.73332    260.60408   -24.321796    25.315342    55.129238    40.030186 
148328000    267.61321    309.95441    280.87849   -24.044559    24.008158    29.075919    40.028773 
148332000     276.3431    326.03558    292.28812   -23.876289    24.388105     33.74746    40.027965 
148336000    267.73513    320.39288    276.37723   -24.686231    24.857289    44.015651    40.026756 
148340000    274.63373    321.07433    291.72843   -23.692884     23.68652    29.345899    40.027719 
148344000    263.08392    305.77849    264.28918   -25.108508    25.469978    41.489313    40.029243 
148348000    264.39176    316.81466    274.82961    -24.37529    24.656612     41.98505     40.02858 
148352000    263.60435    296.83667     284.3411    -24.56066    24.896433    12.495576    40.027139 
148356000    269.31042    317.71469    284.60252    -25.47852     24.81658    33.112161    40.028411 
148360000    270.42621    312.73554    292.93821   -24.608546    25.197827    19.797331    40.029234 
148364000    260.84683    318.46888    259.34964   -25.027745    26.581586    59.119239    40.029628 
148368000    267.35386    306.55903    277.12947   -24.519588    23.866715    29.429561    40.028954 
148372000    281.49657    327.12589    300.44093   -25.042242    23.407417    26.684968    40.027775 
148376000    274.07555    309.28638     291.2045   -24.307701    24.638215    18.081879    40.027674 
148380000     260.5419     307.1965     274.4885   -23.178427    25.943587    32.708002     40.02771 
148384000    270.18826    302.79558    278.60359   -23.619087     24.73232    24.191992    40.026338 
148388000    269.62706    319.37573    296.47962   -25.532402    24.834641    22.896105    40.025559 
148392000    267.05768    318.45946    290.22071   -25.457066    25.759194    28.238743    40.025482 
148396000    269.84623    331.00382    270.89296    -26.04204    25.308464    60.110863    40.025993 
148400000    271.49025    315.98508    298.90603   -25.460049    24.794482    17.079054    40.025621 
148404000    285.43488    325.95926    316.80656   -25.182808    23.896236    9.1527051    40.024346 
148408000    269.29471    306.51869    287.41618   -24.675607      25.3206    19.102512    40.024155 
148412000    279.78389    336.02389    293.68239   -26.226704    24.639416    42.341498    40.023617 
148416000    278.14091    343.35844    290.41758   -27.124066    24.647139    52.940851    40.025295 
148420000    264.14299    309.66977    257.71302   -25.523473    26.221062    51.956754    40.026031 
148424000    271.99304    311.51925    262.39498   -26.205005    25.592008    49.124268    40.026512 
148428000    268.62102    296.61798    298.70545   -25.501531    24.046767   -2.0874755    40.025459 
148432000    272.22898    312.68882    283.28177   -24.803743    24.239504    29.407045    40.027649 
148436000    274.72434    305.90324    279.53645   -24.695864    25.112744    26.366791     40.02801 
148440000    277.92436    324.59955    293.59558   -25.993558    23.094066    31.003969    40.028509 
148444000    270.30574    321.58062    280.91281   -26.345375    23.420488    40.667802    40.028668 
148448000     275.2553    325.99147    281.47261   -26.005025    24.154158    44.518864    40.029651 
148452000    262.38298    287.82493    274.52781   -24.660527    24.819289    13.297123    40.029694 
148456000    268.58666    329.99649    255.70729   -25.869603    25.429699    74.289198     40.02964 
148460000    272.65101     335.5083    281.36494   -27.071564    23.750486    54.143364    40.029479 
148464000    277.99973    322.79588    298.69168   -25.248034    23.901713    24.104198    40.030143 
148468000    274.92557    338.66226    267.93052   -26.617655    25.522584    70.731737    40.030851 
148472000     269.6628    331.08549    264.04861   -27.064608     24.46384    67.036886    40.032101 
148476000    273.34674    316.12791      296.462   -25.884802    24.358942    19.665905    40.031935 
148480000     263.1877    305.27103    277.05393   -24.647224    24.562635      28.2171    40.032742 
148484000    271.95565    331.13885    281.15224   -25.515154    25.022301    49.986611     40.03309 
148488000    272.30107    328.12553    280.03952   -24.746758    24.686919     48.08601    40.033056 
148492000    271.30536     314.0123    275.87512   -25.751131    25.345027    38.137179    40.033727 
148496000    276.18785     346.2441    260.80844   -26.240322    26.178523    85.435666    40.033696 
148500000    270.38471    311.26502    264.82354   -25.799901     25.94277    46.441488     40.03404 
148504000    276.19342    299.86434    304.16308   -25.831608    25.039471    -4.298738    40.033881 
148508000    266.51561    307.86659    274.97634   -25.326725    25.630339    32.890253    40.036049 
148512000    267.69191    309.37584    273.56661   -25.357987    25.627756    35.809232    40.036241 
148516000    270.89482     308.1058    290.65106   -25.714676    24.699063    17.454736    40.035991 
148520000    274.63024    317.74841    295.74556   -25.441516       25.114    22.002856    40.036158 
148524000    267.29092    322.84055    289.20542   -25.749481    25.840295     33.63513    40.036379 
148528000    270.48494    315.39783    263.57539   -26.149511    25.863251    51.822435    40.035677 
148532000     273.1382      331.614    285.70199   -26.404447    25.605396    45.912013    40.034587 
148536000    273.91437    316.32109    283.89845   -26.207118    24.780409    32.422637     40.03438 
148540000    273.50432    329.94394    287.14582   -26.671994    25.745492    42.798118    40.034012 
148544000    273.99989    336.96062    265.44585   -26.679395    26.591486    71.514766    40.034239 
148548000    271.71717    323.77099    286.10802   -26.062194    25.157314     37.66297     40.03423 
148552000    268.09282    314.99468    269.42239    -26.46819    26.041069    45.572289    40.034457 
148556000     270.8975    314.85392    287.63339   -25.539041     26.17712    27.220529    40.033774 
148560000    275.56807    313.89472    296.42287   -26.341927    25.685524    17.471847    40.033767 
148564000    275.64438    321.52327    286.08591   -25.002711    25.214998    35.437357    40.034287 
148568000    280.99613    340.42964    288.66353    -26.24837     25.28545    51.766115    40.033968 
148572000    273.54106    317.99441    283.66137   -27.105275    24.937638    34.333039     40.03355 
148576000    275.03369    335.09108    279.23096   -27.162913      25.6063     55.86012    40.034885 
148580000     270.4756    307.55687    267.62234   -26.870919    25.374757    39.934532    40.035288 
148584000    266.99987    305.74856    272.59797   -26.876911    25.824048    33.150583    40.035858 
148588000    265.37341    300.96924    267.40485   -26.219727    26.043659    33.564387    40.035303 
148592000    272.50578    352.00119    268.63955   -28.377451    26.460761    83.361644    40.034788 
148596000    281.12166    336.50634    280.52405   -27.910748    25.170792    55.982291    40.035983 
148600000    266.30847    288.46909    293.63548   -26.553199    24.554593   -5.1663974     40.03495 
148604000    275.24849    339.23556    269.52751   -27.022434     25.56998    69.708042    40.034911 
148608000    273.73063    314.56857     273.8048   -27.266863    24.429022    40.763774    40.035223 
148612000     273.1873     317.4708    271.89048   -28.418934    26.010281    45.580319    40.035355 
148616000     275.5497    336.27584    279.96835    -27.95014     24.37043    56.307495    40.036562 
148620000    282.06487    355.20697    279.48747   -27.395871    24.611525    75.719498    40.037445 
148624000    270.51777    310.00627    268.97676   -26.524552    25.078095     41.02951    40.036588 
148628000    278.44009    337.20702    271.07368   -26.212661    24.946989    66.133338    40.037073 
148632000    270.91841    306.34653    277.04405    -25.55126      25.4411    29.302482    40.036281 
148636000    270.48263    330.19481     272.3131   -26.256262    25.208803    57.881712    40.035634 
148640000    263.27641    298.19481    277.17998   -25.487946    26.210054    21.014831    40.035011 
148644000    274.99399    320.12615    287.39004   -26.372736    24.192187    32.736105    40.035864 
148648000     282.2424    348.30541    283.63456   -27.607286    24.439691    64.670845    40.036477 
148652000     276.0092    318.39058    288.63256   -26.273931    24.590578    29.758012    40.037426 
148656000    272.54975    317.87605    281.96543   -26.747709    24.595787    35.910621    40.037238 
148660000    274.65972    335.06748    285.76288   -27.344459    24.760353    49.304605      40.0377 
148664000    272.60555    320.96704    269.54991    -28.01638    26.490262    51.417124    40.038379 
148668000    278.66536    314.82648    270.09138   -28.653532    25.154486    44.735097    40.037119 
148672000    282.43543    338.33584    293.58315   -28.447061    24.580868    44.752686    40.036906 
148676000    264.38985    294.85106    274.74565   -25.638247    24.506648    20.105408    40.037307 
148680000    275.81053    320.82061    276.85198   -27.937883    24.815919    43.968635    40.036611 
148684000    281.41963    322.56226    278.58592   -28.082725    25.836539    43.976342    40.036691 
148688000    277.72951    326.24331    275.96532    -27.69188      25.1538    50.277987     40.03677 
148692000    290.72138    334.23927    295.03163   -28.331194    23.466825    39.207636    40.036308 
148696000     276.0326    310.98701    288.15435    -26.96156     24.33031    22.832664    40.036947 
148700000    275.41733    316.09691    285.15946   -27.300064    25.144032    30.937449    40.038222 
148704000    276.91205    313.97747    283.66881   -27.974738     25.34756    30.308659    40.037572 
148708000      293.633    364.83296    289.62416    -29.92435    24.666314    75.208802    40.037666 
148712000    277.15823    335.86901    289.34234   -28.376788    24.639489    46.526662    40.038767 
148716000    271.15048    313.30247    277.35136   -27.228168    26.316036    35.951105    40.038168 
148720000    274.87804    330.62048    278.34825   -27.822347    25.737922    52.272233    40.038845 
148724000    290.32141    318.96692    301.18479   -27.507812    22.967285    17.782134    40.037755 
148728000    281.39768    354.75941     272.5779   -29.051822    24.884382    82.181516    40.036834 
148732000    277.73728    335.27862    280.61122    -27.93309    24.585332    54.667402    40.037602 
148736000    276.96694    308.21616    295.92917   -27.389715    23.882701    12.286991    40.037738 
148740000    274.07008     321.6112    286.40457   -26.841506    24.074933    35.206628    40.037992 
148744000     282.5777    326.05302    298.16271   -27.799684    23.082401    27.890306    40.038502 
148748000    279.66423    342.38019    273.55272     -27.9789    24.415678    68.827478    40.038704 
148752000    284.49329    325.62699    301.32874   -28.502943    24.074717    24.298252    40.038539 
148756000     282.2364    340.33268    271.11322   -28.731065    24.501596    69.219465    40.038269 
148760000    275.01571     291.0783    292.10478   -26.405672    24.078673    -1.026479      40.0373 
148764000    284.23971    325.99356    295.46706   -28.494629    23.504108    30.526504    40.037471 
148768000    276.75313    332.52977    272.22246   -29.530868    24.301371    60.307306    40.037759 
148772000    280.47777    304.57641    286.30043   -27.166311    23.712135    18.275984    40.038528 
148776000    273.72003    319.99747    270.84618    -28.20345     26.03184    49.151296    40.037657 
148780000    280.77787    322.00957    273.61291   -27.677059    24.372509    48.396663    40.038388 
148784000    293.15732    337.97426    324.34895   -28.049511    22.619141     13.62531    40.038163 
148788000    274.87123    315.36953    282.85838   -26.153542    24.025898    32.511157    40.038321 
148792000    281.25403    331.68787    286.43971   -26.713999    24.538664    45.248156    40.039269 
148796000    278.04263    333.20167    280.98519   -26.709139    24.583621    52.216477    40.039351 
148800000    267.69378    326.94631    271.29612   -26.117382    23.911118    55.650189    40.039591 
148804000    275.72745    318.22071     282.5037   -24.964973    24.695388    35.717011    40.039496 
148808000    273.84495    333.63686    274.77543   -27.580033    24.390057    58.861435    40.040054 
148812000    266.22606    318.06842    273.06337    -26.72988    25.508045    45.005055    40.040935 
148816000    263.92382    304.73661    266.53407   -25.024889    24.457733    38.202536     40.03967 
148820000     274.6589    340.01993    262.04457   -26.234881    25.642283    77.975355    40.040295 
148824000    273.52996    322.80173    288.13688   -26.121734    25.865136    34.664855    40.039437 
148828000    278.55161    318.03735    306.32381   -26.167897    24.989978    11.713541    40.038158 
148832000    278.78448    366.48954     282.2786   -28.150507     24.72399    84.210946    40.037374 
148836000    266.59604     315.6499    277.38285   -25.408326    24.668312     38.26705    40.038605 
148840000    271.90264    295.88489    292.90882   -27.163157    24.596941    2.9760753    40.038462 
148844000     280.8628    326.22386    284.03185   -27.158272    24.746592    42.192017    40.037283 
148848000    271.15006    316.06761    270.73501   -26.891384    24.493015    45.332593    40.038479 
148852000    282.07796     315.2089    286.36187   -26.685537    23.004329    28.847025     40.03798 
148856000    272.54707    310.77264    271.03504    -26.76314    25.306923    39.737597    40.035858 
148860000    272.66119    314.16888    294.48405   -26.747661    23.172697    19.684836    40.035694 
148864000    277.45575    335.26841    283.80264   -26.571116    23.096522    51.465764    40.035301 
148868000    270.61317    297.71442    307.69103   -25.251357    22.485807   -9.9766113    40.034834 
148872000    273.79456    311.14571    293.32697   -26.083919    22.993007    17.818735    40.034678 
148876000    270.74097    302.22474    276.42345   -25.770437    24.329729    25.801291    40.034669 
148880000    270.09683    307.80933    279.74786   -26.164041    23.973685    28.061473    40.035008 
148884000    280.01044    329.45057    284.50159   -27.080681    25.935472    44.948981    40.034435 
148888000    280.91972    334.41679    296.16318   -25.558947    24.906071    38.253618    40.034947 
148892000      271.879    301.65623    295.94365   -24.998456    24.122669    5.7125847    40.034356 
148896000    273.35354    342.11269    278.97526   -28.028277    25.770859    63.137431    40.034967 
148900000     272.2635    336.26509    259.26592    -26.28447    25.933687    76.999179    40.034614 
148904000    269.09874    329.00315    271.97857   -26.359278    25.134812    57.024586    40.034677 
148908000    275.01948    323.04039    291.84095   -26.619608    23.837116    31.199443    40.033988 
148912000     269.4394    320.34447    265.96011   -26.833418    25.957692    54.384363    40.034003 
148916000    266.49951     299.2244     284.2754   -26.307138    26.179196       14.949    40.033271 
148920000    276.42086    310.55014    289.82273   -26.281563    25.657076    20.727409    40.032532 
148924000    276.31506    330.06053    295.78684   -28.040178    24.424699    34.273691    40.032047 
148928000    271.62513    311.77999    286.84515   -26.262037    25.397039    24.934844    40.031116 
148932000      271.376    304.38123    276.00174   -26.581991    25.925248     28.37949    40.031732 
148936000    270.57414    308.55379     281.7153   -24.651226    25.296676    26.838493    40.031012 
148940000    270.27081    313.71957    265.68063   -25.912121    25.642424    48.038944    40.031784 
148944000    276.05178    317.33569    291.66445   -25.530156    24.371948    25.671238    40.032604 
148948000    276.36593    347.96067    271.28981   -28.091757    24.666305    76.670856     40.03251 
148952000    280.38955    340.36533    281.39754   -26.901324    25.561548    58.967789    40.032068 
148956000    279.18365    320.77581    300.11159    -25.69287    22.912928    20.664228    40.031682 
148960000    272.60745    329.33203    279.72639    -26.69835    24.015785    49.605642    40.031608 
148964000    285.30129      337.872     279.1081   -25.826154    23.679199    58.763898    40.032782 
148968000    276.74772    321.43146    291.03372   -24.738128    23.091114    30.397738    40.032587 
148972000    279.53977    321.68988    305.75342   -26.861091    22.957354    15.936461    40.031476 
148976000    276.50744    318.41607    279.79633   -25.883317    23.616895    38.619747    40.032716 
148980000    277.85135    323.59425    290.58418   -26.006703    22.851965    33.010077    40.032404 
148984000    264.10581    289.58991    277.91382   -25.159344    24.053151    11.676083    40.032224 
148988000    265.55027    287.87533    268.77292   -22.953713    24.729268    19.102409    40.031708 
148992000    277.17932    323.79518    286.38628   -26.479869    24.252055    37.408901    40.031142 
148996000    273.92289    308.10865    270.85429    -26.36094    24.613528    37.254366    40.031528 
149000000    273.98964    330.41653    279.85136    -26.52205    23.762752    50.565172    40.031951 
149004000    273.57703    307.51722    288.31003   -25.653733    24.067109     19.20719    40.032138 
149008000     283.8626    337.38941    282.17566   -26.827682    23.371495    55.213749    40.031972 
149012000     274.8698     319.3811    267.82036   -25.822429    23.905829    51.560741    40.031854 
149016000    265.58554    297.75546    294.14246   -24.853966    24.663483    3.6129959    40.031642 
149020000    269.93409    313.55845    271.95701   -24.841261    25.453492    41.601442    40.030345 
149024000     273.4404    321.16197    267.26547   -26.002206    24.470637    53.896502    40.029873 
149028000    280.51797    350.99664    279.63862   -27.354325    24.050974    71.358011    40.030952 
149032000    273.30434    318.69182    274.38292   -25.587271    24.472756    44.308901    40.030729 
149036000    273.56721    324.34874    287.21593   -26.779435    23.494102    37.132803    40.030496 
149040000      272.772    303.55675    270.94086   -25.620728    24.062368    32.615895    40.029978 
149044000    276.29067    325.80285    288.29942   -26.308134    23.066177    37.503425    40.029758 
149048000    275.12724     318.8992    301.70035   -26.087473    23.217819     17.19885    40.028294 
149052000     272.1682     320.1926    295.77269   -25.836912    22.933424    24.419903    40.028716 
149056000    272.77715    312.48532    272.11982   -25.728478    25.494913    40.365498    40.029768 
149060000    278.41059    328.68737    285.09282    -26.13608    24.979387    43.594549    40.029814 
149064000    274.35449    335.43715    258.61341   -27.250928    26.059539    76.823731    40.030482 
149068000    275.13741    333.74722    270.39013   -27.144269    25.570842    63.357091    40.030402 
149072000    278.76901    344.53991    271.07095   -27.709887    25.248043    73.468953    40.030862 
149076000    275.60149    319.82388     292.5135   -25.881837    23.576517    27.310376    40.030903 
149080000    274.08906    349.65249    279.46125   -27.917554    25.491962    70.191245    40.030784 
149084000    267.25506    324.28963    258.31274   -27.702989    25.305508    65.976898    40.032066 
149088000    275.82901    327.10547       293.92   -26.651797    25.303604    33.185479    40.030313 
149092000    278.14974    331.51917    280.72702   -27.949676    26.228121    50.792148    40.030617 
149096000    271.31869    319.99068     282.3619   -26.901936    25.749875    37.628781     40.03159 
149100000    280.82855    316.04103    299.53179   -27.070085    25.150063    16.509246    40.031911 
149104000    272.69791    315.55726    282.92232   -25.933466    25.502282    32.634941    40.031505 
149108000    273.14971    342.10999    278.47922   -27.383114    26.741195    63.630769    40.032188 
149112000    274.35303    303.63359    304.44436   -27.406309    25.464845  -0.81076765    40.032007 
149116000    275.18805    317.18253    291.19963   -26.595186     26.06023    25.982896    40.032036 
149120000    285.45923    351.07153    284.08566    -28.63201    25.781843    66.985865    40.031482 
149124000    276.86396    331.78107    271.91501   -26.678878    26.806078    59.866052    40.031607 
149128000    273.09594    302.95003    282.52936    -26.70784    26.075887    20.420672    40.032838 
149132000     268.5997    325.51107     286.3938   -26.753908     25.58159    39.117268    40.035245 
149136000    269.58809    330.27465     256.5091   -26.898571    26.953473    73.765551     40.03508 
149140000    264.13845    313.88277    262.50754    -26.22698    26.147193    51.375231     40.03498 
149144000    269.19785    328.98358    267.61715   -27.262897    25.972145    61.366432    40.034444 
149148000    274.74527    316.49417    285.09343   -25.525044    25.837839    31.400739    40.035163 
149152000      268.766    324.70358    290.29119   -26.409738    24.843923    34.412386    40.035467 
149156000    275.73991    320.48939    286.88062   -27.611665     26.05629    33.608766    40.035896 
149160000     273.6563    331.94102    283.36706   -28.693199     25.76433    48.573961    40.037436 
149164000    272.42548    324.26916    291.71597   -27.126203    25.001119    32.553182    40.037849 
149168000    265.25622    300.58324    271.50073   -26.760047    27.135567    29.082508    40.038187 
149172000    268.51286    316.52534    259.06864   -29.187055     26.45136    57.456701    40.038558 
149176000    270.77967    342.31645     269.7991   -28.727903    26.663899    72.517351    40.038016 
149180000     273.9493    324.91698    294.96233    -27.03682    26.041351    29.954651    40.038295 
149184000    278.02819    340.71778    290.33901   -28.766874     26.53327    50.378778    40.038858 
149188000    272.56373    344.97082    269.67757   -27.978501     26.64058    75.293245    40.039507 
149192000    265.89106    324.62562    255.40185   -25.750811    27.249481    69.223765     40.03932 
149196000     276.4826    312.01792    295.33365   -25.485088    25.343646    16.684269    40.039595 
149200000    270.88091    306.58342    292.94696   -25.110292    25.860937    13.636459    40.039545 
149204000    269.20535    319.83512    272.35738   -26.096788     26.48255    47.477739    40.039322 
149208000    272.10119    306.65049    296.83342   -25.515142    25.720587    9.8170689    40.039677 
149212000    261.40065    306.51058    265.75467   -25.830102    26.113295    40.755907    40.039897 
149216000    270.59674    324.48298    273.70771   -26.428989    26.546819    50.775271    40.038888 
149220000    263.10739    298.39856    307.96657   -25.303591    25.742902   -9.5680127    40.037413 
149224000    269.41654    313.42993    309.64009   -24.988411    24.727293     3.789838    40.037712 
149228000    265.83551    314.72911    285.39197    -25.38335    26.987064    29.337138    40.038551 
149232000    266.28764    310.14258    286.83192   -25.900936    25.769918    23.310664    40.037985 
149236000    274.34044    321.45477    295.13728   -26.141487    26.163065    26.317486    40.036748 
149240000    263.68457    315.67835    274.51487   -26.611378    26.727788    41.163483    40.036682 
149244000    273.59143    328.23967    274.78941   -26.721299    28.184864    53.450265    40.035847 
149248000      264.272    302.12863    288.30541   -25.489931    26.345565    13.823223    40.034887 
149252000    264.99925    311.71207    268.20204   -26.123718    27.649565    43.510026    40.036339 
149256000    265.52078    320.58087    271.04625   -25.270069     27.50148    49.534617    40.035732 
149260000    260.96352    316.07302    263.57786   -26.565291    28.328552    52.495163    40.037141 
149264000    268.28893    320.94586    276.83012   -27.180889    27.089954    44.115741    40.036665 
149268000    266.68319    314.03461    289.26027   -26.897285     26.42639    24.774339    40.036082 
149272000    269.25602    332.10297     280.0521   -27.386845    26.853402    52.050877    40.037228 
149276000    268.34077    332.35803    275.51277   -26.296849    28.025923    56.845264    40.037786 
149280000    265.46455    306.77449    285.32657   -25.710925    26.388939    21.447921    40.037772 
149284000     262.2351    300.40676    278.47878   -26.165635    27.288655    21.927977    40.038076 
149288000    268.23779    318.53746    268.38422   -26.898249    28.422444    50.153241    40.037989 
149292000    271.09008    316.41433    277.74542   -26.556303    27.402262    38.668906    40.038471 
149296000    269.33792    307.91689    272.87943   -26.241969    27.149512    35.037459    40.037423 
149300000    280.52127    334.38279     291.6841   -28.579166      25.4855    42.698687    40.035854 
149304000    277.48708    337.87084    284.35278   -28.637403    26.571166    53.518054    40.036401 
149308000    277.71775    345.99705     278.4487   -28.268618     25.93706    67.548341    40.037182 
149312000    276.69594    313.75093    281.52565    -28.00691    26.052477    32.225282    40.037114 
149316000    266.49837    302.68472    267.24701   -26.778548    27.307288    35.437709    40.037418 
149320000    274.91608    313.74434    269.65231   -25.765413    27.631653     44.09203    40.038249 
149324000    270.46955    312.32726    283.84301   -26.193008    25.248318     28.48425     40.03703 
149328000    269.89515    313.68488     269.0575   -27.100053    26.793122    44.627377    40.037027 
149332000    271.80087     305.1352    295.50048   -27.476865    25.084953    9.6347129     40.03613 
149336000    280.47977    340.69689    280.32599   -28.313216    26.244032    60.370898    40.036231 
149340000    276.74016    347.94944    287.60104    -28.45362    25.565408    60.348396    40.035355 
149344000    274.12192    324.55725    289.43614   -27.685055    24.771552    35.121105    40.035442 
149348000    274.99544    320.33285    288.07078   -27.852291    25.006123    32.262072     40.03544 
149352000    277.76611     342.1489    282.34312   -29.042127    25.344613    59.805782    40.034579 
149356000     272.7203    318.58476    297.93792   -28.050271    25.371158    20.646839    40.034025 
149360000    276.29011    334.18379    289.17733   -28.607097    25.499479    45.006456    40.034727 
149364000    280.60393    333.04544    283.29272   -28.130754    25.968795    49.752725    40.034574 
149368000    277.39057    313.20715    291.91797   -26.520237    26.070902    21.289183    40.035058 
149372000    273.70926    332.42634    278.03577   -29.433931    26.577236    54.390567    40.035203 
149376000    272.92199    311.04693     288.3609   -27.398986    26.074923    22.686028    40.035854 
149380000    266.80775    310.23328    273.70089   -27.087347    27.329322    36.532389    40.036598 
149384000    271.86436    319.59711    273.57516   -27.414519    26.278188    46.021953     40.03713 
149388000    268.70935    335.25113    267.93898   -29.547218    26.137361    67.312147    40.037373 
149392000    265.81895    322.20145    262.28368   -26.850614    27.379699    59.917772    40.037329 
149396000    273.91859    323.11099    279.97925    -27.80258    25.574747     43.13174    40.037168 
149400000    276.48718    335.17306    279.25531   -27.786637    26.550721    55.917744    40.037688 
149404000     272.7106    311.51015    283.78974   -27.282281    25.644898    27.720411     40.03651 
149408000    273.77023    337.68947    269.26541   -28.470771    25.532545    68.424062    40.036585 
149412000    284.85941    332.85462    307.05845   -27.151057    23.519435    25.796167     40.03677 
149416000    278.67533    315.19913    295.68571    -26.59653    24.247801    19.513428    40.036976 
149420000    281.51562    321.23613     299.4877   -27.691075    23.990396    21.748426    40.036936 
149424000    277.57023    295.86924    303.87343   -27.022905    24.039574   -8.0041875    40.036083 
149428000    278.26522    327.41764    279.72726   -27.395573    24.730545    47.690388    40.036774 
149432000    270.02871    313.52163    276.37425   -28.452128    25.652466    37.147371    40.037284 
149436000    265.84687    300.61043    255.34531   -26.741876    25.396124    45.265122    40.037738 
149440000    274.14278    336.10384    274.90797   -29.341443    24.587191    61.195871    40.038266 
149444000    277.08256    343.30107    265.97151   -28.287829    25.592601    77.329561    40.039905 
149448000    278.14338    325.14917    291.31444   -27.403446    23.868009    33.834738    40.039348 
149452000    277.30306     313.0814    278.41263   -26.194881    23.642176    34.668775    40.040292 
149456000    272.37904    307.41722    271.60142    -26.62203    24.938274    35.815802    40.040065 
149460000    280.39222    319.07073    281.57427   -27.331385     24.77404    37.496464    40.040429 
149464000    276.04851    329.03786    275.10277   -27.495973    24.360085    53.935088    40.039566 
149468000    264.99681    283.26272    270.86073    -26.27166    24.448383    12.401989    40.040338 
149472000    279.65149    319.64745    287.24246   -27.583588    24.415194    32.404981    40.039621 
149476000    280.17301    334.09212    273.96516   -28.269348    24.803007    60.126967    40.039794 
149480000    266.83003    317.09108    256.42316   -26.566791    26.194189    60.667924     40.03963 
149484000    271.24051     317.2756    283.23108   -26.549009    24.435026    34.044521      40.0392 
149488000    268.29348    309.18444    270.96013   -27.278028    24.953398    38.224317    40.039566 
149492000    274.95081    321.80169    260.10864   -27.283469    26.193562    61.693048    40.040429 
149496000    280.27153     335.3869    271.32003   -28.281479    24.922566    64.066876    40.039988 
149500000     274.1095     315.6804    282.81271   -26.788518    24.714041    32.867689    40.039414 
149504000    265.41243    309.89388    282.28787    -25.96566    25.163837    27.606006    40.038885 
149508000    262.91185    284.56197    278.48004   -25.459667    25.464861     6.081934    40.039815 
149512000    285.56833    335.69645    294.46402   -26.898756    24.055791    41.232427    40.040023 
149516000    270.30951    322.70358    266.56556   -26.671758    25.169638    56.138026    40.039479 
149520000    276.54707    340.51725    276.96677   -27.553263    25.250842    63.550487    40.039618 
149524000    272.01668    336.87518    289.36765   -25.954738    24.666822    47.507526    40.040527 
149528000    271.22425    330.01805    274.30803   -24.987316    25.342117    55.710026    40.039906 
149532000    277.75189    320.11044    292.74599   -26.888952    24.380287    27.364451    40.039865 
149536000    277.87514    335.62582    285.24058   -26.883324    25.365698    50.385232     40.03838 
149540000    266.75477    299.88223    274.85513   -25.873173    25.267083    25.027104     40.03968 
149544000    274.08267    320.83964    281.37379   -28.055867    25.326566    39.465854    40.040103 
149548000    275.25661    328.64782    274.25403   -27.374212    25.626968    54.393789    40.040323 
149552000    275.55916    322.68426    290.43757   -27.056999    23.907256     32.24669    40.039397 
149556000    270.08536    299.50987    298.83644   -26.241623    24.838793   0.67342991     40.03854 
149560000    262.11062    296.19171    264.27789   -24.065959    25.643808    31.913819    40.037943 
149564000     269.1192    305.91596    265.96492    -25.28093    26.311331     39.95104    40.037575 
149568000    264.58663    314.26021    273.57395   -27.190126    26.764555    40.686262    40.037247 
149572000    275.67717    339.63495    281.54999   -27.514441    26.996086    58.084958    40.037462 
149576000    266.65756    313.00856    263.56585   -26.304093    28.332703    49.442704    40.037414 
149580000    282.22455    353.68211    277.37112   -28.040134      26.0524    76.310999    40.038798 
149584000    260.11216    303.38335    266.13307   -25.016542    25.276418    37.250282    40.039263 
149588000    275.97331     325.0002    293.18656   -26.470306     24.66372    31.813645    40.040492 
149592000    272.25705    325.46328    287.64276   -27.854235    24.007171    37.820521    40.041484 
149596000    274.47574     320.6205     292.2164   -27.552921    24.420282    28.404099    40.041189 
149600000    280.39783    336.08256    285.17872   -27.723301    24.571606    50.903846    40.041713 
149604000    275.76673    313.37593    295.12131    -26.36207    23.886496    18.254624    40.041998 
149608000    275.56691    307.42231    289.58045   -25.455221    24.670638    17.841861    40.041486 
149612000    268.51795    326.93707    263.53284   -25.928483    26.341801    63.404227     40.04144 
149616000     279.6471    338.73323    270.26575   -26.189166    26.049794    68.467479    40.040918 
149620000    269.11713    312.71143    270.10993   -24.737427     24.98359    42.601502    40.040185 
149624000    280.62662    332.77106    299.12426   -26.711974    24.405996    33.646801    40.040843 
149628000    274.98551    331.77196    261.52871   -27.616778    24.967367    70.243256    40.042412 
149632000    274.24982    313.94399    290.03156   -26.692938     24.82142    23.912437    40.041374 
149636000    269.90929    298.74362    267.07988   -25.615882    25.943101    31.663742     40.04095 
149640000    284.20086    325.17958    298.38408     -26.6215    24.891923    26.795499    40.041677 
149644000    277.72473    300.38985    289.80511   -25.578379    23.585315    10.584741    40.040341 
149648000     282.3317    335.12045    287.00423   -27.075688    24.969694    48.116219     40.04165 
149652000    276.18049    312.06353    286.29533   -26.811465    25.305174    25.768206    40.042697 
149656000    273.93087    308.53827    294.60356   -24.925474    24.679542    13.934709    40.042204 
149660000     279.6571    329.20626    299.45257   -26.479294     23.70247    29.753686    40.042958 
149664000    278.04549     327.7689    285.96948   -26.588101    24.966761    41.799427    40.042895 
149668000    265.99306    315.87237    277.29826   -25.491948     25.51452    38.574103    40.043408 
149672000    270.55704    323.47444    267.84229   -26.943456    25.128273    55.632148    40.044317 
149676000    268.13371    318.89398    267.79943    -25.98263    24.922662    51.094552    40.043552 
149680000     274.1906    330.29213     286.4693   -28.409123    23.782292    43.822834     40.04513 
149684000    271.37804    308.46954    270.82479   -25.784991     25.21528    37.644753    40.043514 
149688000    279.44599    321.92329    284.68575   -27.073828    25.361731    37.237537    40.042765 
149692000    283.54056    329.49208    292.49981    -27.81405    24.993121    36.992264    40.042583 
149696000    273.11016     327.6974    285.01686   -26.674919    25.287997    42.680542     40.04225 
149700000    273.23312    335.47329     274.1066     -26.2709     25.11278    61.366689    40.041632 
149704000    279.52136     332.9341    288.24447   -26.817649    24.221765    44.689625    40.040735 
149708000    267.66471    303.36501    278.87859   -25.177947    23.986838    24.486426    40.040791 
149712000     278.3373    315.97274    296.75559   -26.224485    24.096753    19.217151    40.040274 
149716000    276.64293    342.20662    286.92875   -27.653516    25.252525    55.277871    40.042037 
149720000    279.29516    329.23888    289.94693   -27.191833    24.622158    39.291947    40.041121 
149724000    268.91228    317.77226    262.50812   -25.570006    26.034308    55.264138    40.041164 
149728000    271.89415    315.86876    286.43471   -27.251813    24.905028    29.434042    40.042295 
149732000    277.12831    327.01237    267.44966   -26.472898    26.447648    59.562704    40.043129 
149736000    274.45116    306.55544    279.84531   -26.379447    24.976015     26.71013    40.043183 
149740000    267.49861    332.66348    259.02103   -27.132435    26.382391    73.642459    40.043871 
149744000    273.60957    298.10288    299.41937   -26.704697    23.820576   -1.3164913    40.042416 
149748000    268.84615    307.42083    286.28685    -26.42711    25.437446    21.133985    40.042067 
149752000    273.60012    314.74981    286.19668   -26.405884    24.734594    28.553135    40.042104 
149756000    278.77595    321.23476     276.6658   -27.407292    24.878955    44.568961    40.041909 
149760000    268.76605    301.24725    290.38869   -26.787657    24.636065     10.85856    40.042438 
149764000    272.42164     316.1054    269.65334   -26.940028    26.187853    46.452061    40.041938 
149768000    274.13093     330.8539    270.55646   -26.907031    25.978057    60.297439    40.042292 
149772000    275.18901     308.1093    293.59806   -26.817266    24.138713     14.51124    40.041248 
149776000    281.11465     327.9881    289.19676   -27.780365    24.902059    38.791341    40.041219 
149780000    281.24305    336.31103    278.73126   -28.356628    25.175327    57.579766    40.041156 
149784000    272.29646    327.70526    274.82715   -28.877486    26.329007    52.878109    40.040744 
149788000    280.00242     318.5195    298.14214   -28.055057    24.947372    20.377359    40.041212 
149792000    279.10192    325.29057    282.51368   -27.349618    24.721338    42.776887    40.041432 
149796000    284.51075    348.60409    291.12155   -28.953174    25.962456     57.48254    40.041725 
149800000    266.50911    322.43953    273.12018   -28.223627    26.875631    49.319342    40.040481 
149804000    280.95668    310.71224    301.89616   -27.220354    24.388147    8.8160739    40.041243 
149808000    278.44708     309.6788    269.69361    -26.66452    26.329713    39.985182    40.040282 
149812000    268.73335    323.20335    261.68821   -27.307663    27.109345    61.515142    40.039832 
149816000      274.576    310.85262    284.08736   -27.369457    26.557506    26.765257    40.040483 
149820000     271.6939    319.88008    276.79524   -27.707991    25.965543    43.084835    40.040359 
149824000    279.16376    315.08016    303.83144   -26.677229    24.103143    11.248721    40.040755 
149828000    278.81432    322.22069    293.53199   -28.248275    25.092152    28.688704    40.040947 
149832000    279.86083    322.78113     301.5412   -27.515106    24.627917    21.239923    40.041665 
149836000    275.21076    307.25154     292.4284   -27.605549     25.77872    14.823139    40.039736 
149840000    267.72524    295.56733    276.51093   -26.757721    26.726445    19.056398    40.037851 
149844000    264.36775    283.50763    257.23186   -25.114682    26.719433    26.275766    40.037056 
149848000     274.8353    328.44787    293.28879   -27.515825    24.509637    35.159086    40.037099 
149852000    285.99046    320.72926    290.13637   -27.009011    24.371796    30.592892    40.037381 
149856000     280.7535    304.44801    293.87912   -25.874158    23.564274    10.568885    40.037335 
149860000    273.43795    315.72447    292.69946   -27.446453    23.691018    23.025009    40.037124 
149864000    275.53656    301.34093    291.94328   -27.920086    24.891649    9.3976473    40.035552 
149868000    273.86666    315.69811    278.77822   -27.108122     25.55197    36.919883    40.036229 
149872000     283.5104    319.71768    323.78707   -27.671792    22.917532     -4.06939    40.035545 
149876000    275.67975     296.2716    289.76746   -25.256027    23.622298    6.5041417    40.033792 
149880000    279.93048    315.90214    287.83384   -27.852872    24.072938    28.068308    40.032958 
149884000    275.50659    301.66618     282.6905   -27.656706    24.204132    18.975683    40.032579 
149888000    275.89601    309.50026    280.98389   -27.039021    24.799297    28.516369    40.033201 
149892000    274.23651     324.9335    287.53925   -28.243723    24.893618    37.394254    40.032756 
149896000    276.76628    306.91965    304.65596    -27.56706     24.62158    2.2636861    40.032349 
149900000    285.49218    312.09945    287.25271    -27.09977    24.875898    24.846741    40.032666 
149904000     279.7669    310.89709    294.56472   -27.771883    23.795182    16.332374    40.032463 
149908000    275.87492    331.66834    266.20631   -29.029904    25.090818    65.462038    40.032924 
149912000    277.34207    292.72024     293.9968   -26.367929    23.309681   -1.2765575    40.033119 
149916000     287.1037    311.24427    295.24431    -27.45927    24.223173    15.999953     40.03175 
149920000     272.2694    322.66698    268.27568   -28.641783    24.994364    54.391294    40.031129 
149924000    276.69489     302.5395    281.09598   -28.214247    24.723993    21.443526    40.030464 
149928000    269.97152    305.12308    287.72942   -27.887976    24.310179    17.393662    40.030441 
149932000    287.98115    318.26638    301.99618   -28.629573    24.236419    16.270201    40.029797 
149936000    278.48506    322.40972    263.98193   -28.682672    26.386649    58.427789    40.029668 
149940000    275.81581    325.90951    261.80296   -27.540207    24.976193    64.106553    40.030991 
149944000    277.58384    345.77137    256.50284   -28.128911     25.17209    89.268533    40.032751 
149948000    270.59552    312.62147    266.71151   -27.006247    24.479729    45.909954    40.031796 
149952000    277.95001    311.61768     282.1413    -27.57616     24.60882    29.476381    40.033608 
149956000    286.79674    324.16417    292.16802   -27.269873     24.73468    31.996157    40.032864 
149960000    272.57842    322.41387     276.8152   -27.478615    24.808913    45.598665    40.032529 
149964000    274.38765    312.34523    276.40698   -27.641733     24.37825     35.93825     40.03213 
149968000    279.31216    324.30442    278.22013   -27.608936    25.006898     46.08429    40.031799 
149972000    286.08134    316.75451    297.26991   -28.397889    23.758875    19.484601    40.032609 
149976000    281.67005    300.37563    304.79312   -26.855284    22.947727   -4.4174872    40.032003 
149980000    273.87269    302.81555    271.18233   -28.075686    23.900602    31.633217    40.030671 
149984000     284.1267    314.17935    291.13289   -27.699746    23.705106    23.046459    40.028921 
149988000    274.07083    297.74158     280.2469    -27.18434    24.591281    17.494679    40.028729 
149992000    275.09573    308.74648    273.96097   -26.542935    25.231777    34.785508    40.028805 
149996000    269.50614    309.89028    260.92019   -27.359372     24.64507    48.970089    40.029306 
150000000    269.87972    320.83651    271.08431   -27.013761    24.188866    49.752195    40.030399 
150004000    279.38218    322.58352    282.51077    -27.64991    23.532143    40.072748    40.029403 
150008000    276.08626    333.12081    273.96365   -27.950931    23.759287    59.157155    40.027418 
150012000    280.98656    322.26732    285.31285   -27.310171    23.643755    36.954473    40.026739 
150016000    285.22726     316.9652    297.59216   -27.079847    22.988757    19.373034    40.027709 
150020000    276.31709    315.17794    286.35253   -28.113465    23.197289    28.825407    40.026448 
150024000    288.21206    346.32508    314.74103   -28.282128    22.025748    31.584048    40.026873 
150028000    275.00172    333.54029    278.38885   -28.170496    24.937858    55.151437    40.027309 
150032000    275.47458    321.14941    260.02993   -27.668022    25.384268    61.119483    40.025831 
150036000    275.89062    327.75639    270.74393   -27.944682     24.68368    57.012467    40.026403 
150040000    271.14442    316.99328    266.67784   -27.613879    25.983649    50.315434    40.026973 
150044000     275.7348    313.33374    280.44302   -27.400438     25.37514     32.89072    40.027302 
150048000    274.63216     316.2151    271.65324   -26.448462    24.563926    44.561864    40.028273 
150052000    265.44187    310.26186    262.08794    -26.59241     26.02613    48.173922    40.027814 
150056000    267.92444    324.83426     244.5843   -27.478256    26.429365    80.249955    40.029671 
150060000    279.50714    330.74062    278.39626   -28.185262    25.591977    52.344361    40.029676 
150064000    279.21703    353.65535    270.35732   -29.066463    24.956833    83.298031    40.030313 
150068000    277.08754    304.01943    279.18435   -26.180793    25.081094    24.835077    40.030622 
150072000    275.86829    309.65623    269.41564   -26.625486    23.963138    40.240584    40.031466 
150076000    273.68883    319.10145    276.88581   -26.923429    24.070684    42.215639    40.030794 
150080000    280.70731    327.66259    291.37789   -27.574545    23.808485    36.284699    40.030438 
150084000    282.19986    328.31302    269.24914   -28.487469    24.963837    59.063888    40.030392 
150088000    276.63248     310.5862    272.89878   -27.050523    24.616912    37.687412    40.031082 
150092000    289.66092     337.1421    299.00896   -29.710713    23.858457    38.133142    40.030784 
150096000    277.54882     316.0417    278.04919   -28.870458    24.217037    37.992511    40.031529 
150100000    277.34036    317.96526    267.97053   -27.791427    24.580514    49.994727    40.030103 
150104000    280.66303    319.74924    285.65659   -28.727777    23.634964    34.092659     40.03065 
150108000     277.1148    310.94636    287.68594   -28.176721    24.162661    23.260422    40.030529 
150112000    282.15528    317.71514    280.83066    -28.12786    23.307429    36.884484    40.029898 
150116000    275.33542    313.37838    270.99322   -28.969577    24.511064    42.385161    40.030447 
150120000    279.83101    318.35565    287.99412   -27.351878    23.860841    30.361529    40.029893 
150124000    286.30225    357.89096    276.74339   -29.529893    24.911704    81.147576    40.029745 
150128000    275.69131    305.16884    279.78543   -25.809683    25.922004     25.38341    40.030069 
150132000    274.66111    310.27223    281.29698    -26.87522     24.91791    28.975255    40.031234 
150136000    272.05379    323.38375    258.37103   -27.785309    26.690176    65.012714    40.031623 
150140000    275.41709    321.96417    284.27715   -27.067183    26.168334    37.687022    40.031135 
150144000    269.17662    322.89482    266.07055   -26.538142    26.243816    56.824266    40.031573 
150148000    279.20906    338.55058     285.3743   -28.764635    26.023255    53.176283    40.031372 
150152000    277.61276    323.51558    279.95628   -27.585929    24.904235    43.559306    40.030933 
150156000    268.13863    317.42765    275.51459   -26.763402    24.645785    41.913066    40.030991 
150160000    280.87947    330.30362    302.77637   -27.319395    24.119112    27.527248    40.029786 
150164000    275.28467    313.88578     275.7072   -26.346918    25.563338     38.17858    40.029792 
150168000    278.48348    338.73278    278.63786   -27.712829    25.979748    60.094921    40.030186 
150172000    274.69088    318.06927    287.77136   -26.992962    25.603451    30.297912    40.029152 
150176000    264.90072    314.54643    273.09788   -26.565007    24.894596    41.448551    40.028767 
150180000    266.21859    302.58483    294.90965   -26.095495    25.115162     7.675178    40.028972 
150184000    272.60267    304.55154     287.5849   -26.301852    26.164126    16.966635    40.028065 
150188000    275.05425    308.74542    291.36338   -26.131682    24.337142    17.382043    40.029282 
150192000    282.15346    325.79113    291.77442   -26.683301    24.849899    34.016707    40.027846 
150196000    271.22546    314.95321    283.72745   -25.438676    24.553195    31.225756    40.027256 
150200000    269.23519    324.44655    280.13768   -25.936233    24.125157    44.308874    40.027658 
150204000    269.11657    322.93177    283.38312    -26.15145     24.59727    39.548655    40.026696 
150208000    281.85898    335.20238    290.70322   -26.037382    25.784624    44.499159    40.026982 
150212000    259.86524    295.68227    251.91811   -25.332644    26.405745    43.764159    40.026803 
150216000    266.85697    296.18952    283.87824   -25.338604    24.854628     12.31128     40.02621 
150220000    274.04177    343.32805    281.05328   -28.298735    24.996036    62.274773    40.026419 
150224000     281.2515    320.94312    285.16895   -28.042046    25.539284    35.774172    40.027152 
150228000    279.18691    316.61005    294.08817   -27.478937     24.44419    22.521875    40.028367 
150232000    268.89741    309.81135    271.15399   -25.889011    25.411966     38.65736    40.027881 
150236000    269.82142     319.6689    275.26512   -26.585357    26.295022    44.403782    40.028959 
150240000    267.24627    296.35857    275.79696   -26.032086    24.883464    20.561611    40.029868 
150244000    275.25863    332.81995    296.22988   -28.647994    24.709504    36.590071    40.030114 
150248000     272.2486     303.8104    282.81546   -26.958883     25.57107    20.994945    40.029372 
150252000    271.12074    322.14291    278.90243   -28.209962    25.045414     43.24048    40.029161 
150256000    270.57305     307.2424    297.47703   -26.205775    23.581121    9.7653652    40.029627 
150260000    267.42526    295.13294    268.34456   -24.746663     25.68255    26.788385    40.029018 
150264000    283.83951    332.31359     299.7799   -27.597846    23.616046    32.533696    40.028754 
150268000      270.932    306.00797    289.82042   -26.511134    24.441055    16.187549    40.029458 
150272000    270.36858    308.86622     285.3309   -25.010955    24.952462    23.535317    40.028939 
150276000    268.63266    311.72787    263.24366    -25.96068    25.246416    48.484203    40.028098 
150280000     265.4981    320.29156    262.60617   -27.115208    25.328043    57.685383    40.027755 
150284000    280.02385    318.24729    309.13417   -25.558766    23.413919    9.1131231    40.027039 
150288000    274.87677    306.59202    296.13412   -26.149885    24.258301    10.457898    40.027241 
150292000    276.56614    343.31244    257.18776   -27.791689    26.069589    86.124677    40.027417 
150296000    270.67132     321.2112    279.82397   -25.693062    25.489425    41.387229    40.026961 
150300000    271.02063    305.42382    278.20091   -25.147312    26.233957    27.222917     40.02785 
150304000    276.99524    341.31941    271.77407   -27.540359    26.396461    69.545347     40.02687 
150308000    275.77217    337.05205    284.02574   -27.553595    25.515099     53.02631    40.026811 
150312000    268.37667    320.07078    273.60936   -26.975057    26.339128    46.461423    40.026207 
150316000    273.32375    337.24976    285.64624   -27.408568    26.349672    51.603521    40.026116 
150320000    275.57622    315.77674    297.44855   -26.067772    25.529556    18.328191     40.02562 
150324000    275.02737    334.35116    295.32678   -27.932235    25.126801    39.024388    40.025782 
150328000    267.92031    309.58353    270.65794   -26.690131    26.460984    38.925596     40.02448 
150332000    272.86456    330.96553     277.3381   -27.506399    25.465194    53.627431    40.024502 
150336000    272.33981     311.5365     279.3266   -26.025009    26.318533      32.2099    40.024804 
150340000    278.96085    328.38545    289.83984   -26.840168    24.546743    38.545606     40.02499 
150344000    273.92725    324.71313     287.2423   -26.752175    24.336101     37.47083    40.024653 
150348000    277.98148    336.29593    276.58912   -27.458182    24.270152     59.70681    40.025375 
150352000    264.22942    308.57108    258.91336   -27.073073    25.546525    49.657718     40.02508 
150356000    280.44366    344.40661    287.56916   -28.107017    24.729805     56.83745    40.026763 
150360000    277.75146    325.34152     273.9154   -25.870847    25.101863    51.426119    40.027461 
150364000    276.84224     321.9418    289.06152   -25.786436    24.398504    32.880283    40.027723 
150368000    265.22969    311.88775    263.23577   -25.132086    24.693142    48.651973    40.025759 
150372000    275.07042    314.22881    289.66153   -25.612803     24.43948    24.567282    40.027454 
150376000     275.9485    318.25971    299.03532   -26.163791    24.313285    19.224397    40.027271 
150380000    274.42015    304.67929    286.20515   -25.836563    24.378691    18.474145    40.026493 
150384000      275.976    326.62269    275.48624   -26.974787    25.978806    51.136452    40.026725 
150388000    271.74153    305.05921    277.19541   -25.766884    25.442611    27.863794    40.025244 
150392000    265.94513    323.21497     274.3632   -27.174098    26.020688    48.851775     40.02709 
150396000    273.52002    333.22662    281.28549   -27.568584    24.895904    51.941135    40.026669 
150400000    280.80332     337.3262    282.93312    -27.26641    25.539744    54.393078    40.027402 
150404000     269.1807    320.05491    265.07482   -26.610651    26.644989    54.980098    40.027121 
150408000    277.80256    311.12141     275.7705   -27.019414    25.446071    35.350904    40.026685 
150412000    277.23513    330.43614    286.56388   -28.703186    25.873535    43.872258    40.026316 
150416000    278.34861    326.16379    289.47022   -28.036467    24.701334     36.69357    40.027484 
150420000     272.3512     306.1228    295.43435   -26.670477    25.096297    10.688452    40.027222 
150424000    268.17373    293.27165    290.29613   -25.430759    25.086885    2.9755181    40.027168 
150428000    278.83631     339.5205      281.506   -27.393749    24.815976    58.014501    40.027694 
150432000    288.43666    352.68607    303.83977   -27.809916    23.677777    48.846293    40.027006 
150436000    274.51156    331.55284     273.4462   -28.033132    25.661238    58.106642    40.027189 
150440000    283.07236     324.8847    312.05951   -27.366535    24.700768    12.825193    40.027527 
150444000    269.15345     319.1877    269.94792   -27.633702    26.703779    49.239787    40.027235 
150448000    270.79133    313.35036    270.87465   -27.433465    25.250001    42.475705    40.026933 
150452000     278.7356    327.35766    264.88714   -28.246938     25.45775    62.470522    40.026795 
150456000    266.14608    304.81071    281.23073   -26.916084    24.850382    23.579985    40.025229 
150460000    278.30538    313.22686    272.21817   -26.963469    25.084894    41.008691    40.026037 
150464000    276.82345    319.94555    270.55103   -28.849454    25.199469    49.394524    40.026496 
150468000    279.45859    340.33504    277.36604     -28.3004    25.239884    62.968994    40.027036 
150472000    280.67185    341.24297    300.70383    -28.55134    24.370795    40.539136    40.027585 
150476000    271.26651     324.8905    270.04716   -26.120974    25.671736    54.843341    40.028711 
150480000      271.982    317.62971    264.97342   -26.806695    25.229424     52.65629    40.030352 
150484000    275.89979    328.35807    280.07147   -27.769021    25.146183    48.286607    40.029158 
150488000    281.36949    311.82491    311.12512   -28.445658    23.201379   0.69978608    40.029005 
150492000    275.19744    315.50776    283.92498   -27.598636    24.501351    31.582783    40.029313 
150496000    283.53895    317.70077     298.9293   -27.700678    24.687236    18.771475    40.029156 
150500000    274.21926    309.40947    270.17482   -26.639301    26.399833    39.234655    40.029217 
150504000      277.046    315.41153    286.58053   -27.521955     24.97796    28.831003    40.029789 
150508000    277.25404    312.55425    304.43296   -27.055507    24.496028    8.1212931    40.030466 
150512000    260.15823    310.07404    270.39625   -26.658197    26.212545    39.677794    40.031155 
150516000    278.53107    316.05686    275.22865   -27.150221    27.402817    40.828208    40.029668 
150520000    276.19905    305.09027    299.02855   -28.861899    25.243239    6.0617277    40.028981 
150524000      266.753    316.26116    261.58314   -28.088395    26.375985    54.678021    40.029163 
150528000    278.84988    322.21675    275.88268   -28.470602    26.156641    46.334062     40.03052 
150532000    272.15896      336.805    263.20516   -28.891418    26.068801    73.599845    40.030195 
150536000    288.62452    339.03297    310.65527   -29.213803    24.693178    28.377701    40.031874 
150540000    280.03148    316.51501    284.73822   -27.428408    25.970916    31.776788    40.030776 
150544000    272.59623    321.87137    264.27497   -28.145079    26.773493    57.596402    40.031849 
150548000     278.1261    315.85482    281.99691   -28.486551    25.830436    33.857918    40.031625 
150552000    273.36527    294.24114    281.97175   -28.015097    25.337832    12.269385    40.031414 
150556000    276.13583    310.16678    291.14754   -28.119527     25.58692    19.019249    40.032039 
150560000    275.16826    316.80975    308.92297   -28.511198    25.020955    7.8867799    40.032255 
150564000    280.11324    341.88193    281.08799   -29.170977    26.158095    60.793934    40.032015 
150568000    276.50483    319.98035    290.18345   -28.002935    26.309057    29.796902    40.032229 
150572000    272.63349    327.97456     287.2713   -28.865007    24.897341    40.703257    40.032439 
150576000    275.26076    298.22976    273.33825   -26.592247      25.9975    24.891509    40.032706 
150580000    276.65662    329.94919    270.29414   -28.216558     25.98543    59.655047    40.031642 
150584000    278.85408    325.64373    262.20585   -28.552081    26.645147    63.437888     40.03152 
150588000    270.51827    300.21769    279.05237   -28.097743     25.49528    21.165321     40.03161 
150592000     276.3521    320.13858    266.63523   -28.208539    25.888673     53.50335    40.032976 
150596000    280.79741    337.79714    282.42014   -28.892243    25.536595       55.377    40.032982 
150600000    285.63964    324.63378    298.29482   -28.407609      25.0754     26.33896    40.032466 
150604000    276.78065    326.92758    275.55264   -27.770401    25.412176    51.374943    40.033227 
150608000    268.81346    310.91502    273.16947   -27.876822     26.08261    37.745547    40.034179 
150612000    271.30022    299.79466     268.1902   -27.243349    25.988448     31.60446    40.034291 
150616000    278.30128    325.35078     271.9855   -28.651958    26.492138    53.365277     40.03512 
150620000     277.6218    313.87569    281.17445   -28.099778    25.468626    32.701242    40.035596 
150624000    280.74357    340.87507    284.05929    -29.65212    25.310938    56.815779    40.035421 
150628000    279.62852    316.82087    282.10335    -28.52153    25.402168    34.717516    40.035185 
150632000    281.27043    316.74973    268.92763   -28.649729    26.785782    47.822103    40.034472 
150636000    264.63806    303.65356    266.19636   -28.916642    27.114425    37.457198    40.034989 
150640000    278.28938    318.19197    268.75943      -28.922    25.618591    49.432533    40.035311 
150644000    283.14794    324.33143    277.28932   -28.949582    24.234528    47.042117    40.035919 
150648000    278.29174    331.96822      267.124   -29.351495    24.753078    64.844227    40.037129 
150652000    273.52315    314.47248    272.54318   -27.889641    26.097477    41.929306    40.037243 
150656000    279.52033    320.55683    288.56856   -27.955752     25.04116    31.988267     40.03712 
150660000    280.12401    306.89254    301.19894   -27.841177    24.371461    5.6936023    40.036284 
150664000      279.826    325.37468    267.98419   -28.740772    27.157229    57.390491    40.036234 
150668000    279.04097    317.13207    281.02785    -28.72929    26.798756    36.104213    40.035453 
150672000    281.10954    328.23747    287.08924   -29.262826    27.067755    41.148231    40.035732 
150676000    285.22733    311.26065    281.62915   -28.700578    26.293083    29.631501    40.036706 
150680000    271.10836    322.62571     271.6842   -27.736435    26.981181    50.941507    40.036504 
150684000    276.98829     323.8329    282.73314   -27.437377    25.986119    41.099759    40.037014 
150688000    272.27754    308.70075     285.6745   -27.260728    25.840933    23.026251    40.037972 
150692000    274.10067    329.16156    280.76286   -29.176405    25.257407    48.398699    40.037394 
150696000     272.6655    327.69769    280.52687   -28.803194    26.272412     47.17082    40.037275 
150700000    275.83125    322.93904     285.4766   -28.044209    25.948057    37.462447    40.037645 
150704000     274.4257    312.95016    270.33315   -27.604748    26.049335    42.617004    40.036771 
150708000    273.82588    324.04799    288.61936   -28.397626    24.690738    35.428625    40.037333 
150712000     262.9039    300.75855    256.66079   -27.942771    27.129755     44.09776    40.037548 
150716000    273.21974    307.97694    288.01487   -28.189509    26.309146    19.962074    40.038614 
150720000    272.44258    327.69238    268.89502   -28.589046    27.639078    58.797354    40.038637 
150724000    288.71452    358.73843    288.73946   -30.152301    27.121692    69.998969    40.039059 
150728000    279.05911    327.46541    275.31639   -28.476034    28.102343    52.149019     40.03801 
150732000     267.8942    339.52053    273.32408   -29.423473    27.466072    66.196452     40.03768 
150736000    283.15447    320.14348    297.57153    -27.90454    25.816448    22.571959    40.036952 
150740000    273.93211    316.75376    283.20534   -27.670988    25.564361    33.548416    40.036586 
150744000    275.89773    317.12737    306.61259   -28.670045    25.827549    10.514781    40.036492 
150748000    271.95361     319.5879    288.05331   -28.518495     26.43637    31.534587    40.037876 
150752000    277.41696    331.88189    278.02668   -28.148047    26.283769     53.85521     40.03789 
150756000    272.00204    310.11357    281.36766    -27.78782    25.198718    28.745916    40.038158 
150760000    272.48589    334.14165    264.45632   -28.904522    27.407062    69.685333    40.037716 
150764000    271.60313     318.5276    280.51066   -27.483489    25.853916    38.016936    40.038072 
150768000    275.72459    309.29849    303.85814   -27.439888    25.605933     5.440344      40.0381 
150772000    266.47861    285.74747    274.48252   -26.602164    27.038432    11.264947    40.039106 
150776000    272.22814    326.27225     277.8961   -28.784853     27.72729    48.376156     40.03892 
150780000    280.32859     330.3378    288.42457   -30.113924    26.741146    41.913231    40.039904 
150784000    270.86041    313.16306    285.72561   -26.850092    27.480511    27.437451     40.04028 
150788000    277.66674    304.69622    308.29912   -26.745592    25.599918   -3.6028967    40.039805 
150792000    271.49474    319.79208    267.37025   -27.729543    27.187268    52.421827    40.038282 
150796000    270.81335    300.80864    282.93581   -27.799643     26.64141    17.872832    40.036844 
150800000    282.17594    331.45542    311.90994   -30.252566    25.711161    19.545485    40.036614 
150804000    267.60297    307.82028    270.04883   -27.022619    26.833416    37.771443    40.035806 
150808000    269.33549    324.15052    275.35392   -27.152545    26.777979    48.796593    40.035676 
150812000    263.26476    308.31543    252.70325   -25.537916    28.510633    55.612181    40.035813 
150816000    262.32298    291.16899    287.78235   -24.945423    25.732452    3.3866464    40.034387 
150820000    266.60013    301.78078    293.21565   -24.987239    24.850607    8.5651292    40.033116 
150824000    263.20143    308.75866    266.13559   -26.347546    28.028857    42.623076    40.032508 
150828000     275.0072    322.58822    296.25717   -26.858637    25.821716    26.331051    40.032006 
150832000    267.97234    331.33513    278.21804    -28.36783    27.935268     53.11709     40.03187 
150836000    283.01299    339.61353    292.88362   -28.475199    26.922402    46.729901    40.031995 
150840000    285.76074    352.95763    287.89235   -29.663595    26.276817    65.065289     40.03281 
150844000    269.94082    314.83235    273.09202   -28.738576    27.373974    41.740327    40.032768 
150848000    277.29584    326.91915    290.26362   -28.377893    25.338889     36.65553    40.033189 
150852000     276.5289    327.97955    296.51727    -28.64813    25.333344    31.462284    40.032786 
150856000    277.29287    331.63758    280.95006    -28.40573    27.406704    50.687517     40.03314 
150860000    262.66319    305.81038    269.05352   -27.571207    28.446444    36.756861    40.033692 
150864000    277.01192    335.41288    277.15823   -29.197351    27.093204    58.254648    40.034794 
150868000    277.85139    336.90319    289.03122   -30.143003    26.469403    47.871975    40.036399 
150872000    263.23842    334.32936    263.20292   -30.181213    27.616498    71.126441    40.036343 
150876000    274.75111    339.26741    281.96462   -28.657872    26.690904    57.302785    40.036338 
150880000    270.70342    321.88684    277.61966   -28.540218    27.375991    44.267185      40.0359 
150884000    268.33513    307.15749      290.462   -28.622667    26.105511    16.695492     40.03664 
150888000    268.69322     329.1714     266.5555   -27.598756    27.971154    62.615897    40.037527 
150892000     276.7401    337.27809    295.88235   -28.142376    26.513078    41.395739    40.037252 
150896000     276.4663    328.51776    291.94808   -27.421664     26.37627    36.569683    40.036815 
150900000    275.79016    333.53495    273.25632   -28.105358    28.343003    60.278624    40.036914 
150904000    275.86193    333.27045    270.37631   -27.120222    27.425408    62.894147    40.036038 
150908000    277.05773    321.54075    273.48344   -28.938193    27.667098    48.057311    40.035757 
150912000    279.24343    330.85006    293.62446   -27.356069    25.580324    37.225598    40.034704 
150916000    270.36042    322.09557    273.63375   -27.732062    27.773129    48.461828    40.034053 
150920000    267.57112    298.37819    301.04476   -25.486572      25.9312   -2.6665691    40.033056 
150924000    268.44686    321.33345    283.63188   -27.539571    26.715998     37.70157    40.033758 
150928000    281.72657    332.01907    290.03604   -29.171184    26.441973    41.983039    40.033987 
150932000    280.05695     341.4266    292.11393    -29.84114    26.021374    49.312664    40.033308 
150936000    269.52897    301.07581    279.88647   -28.369804    27.083158     21.18934    40.033891 
150940000    269.88513    316.47156    281.19533   -28.387663    28.142658    35.276234    40.034419 
150944000    266.81215    296.47689    272.16784   -27.088441    27.162172    24.309056    40.034158 
150948000    279.83573     352.2024    268.56992   -28.031541    27.467255    83.632472    40.034582 
150952000    269.29719    299.15019    277.00715   -27.371824     27.20433    22.143041    40.035163 
150956000    270.54697    326.08343    271.98679   -28.327915    26.793516    54.096639    40.036444 
150960000    270.26766    312.05448    294.77318   -27.064232    26.054647    17.281306    40.035932 
150964000    275.32365    336.51962    295.38381   -29.875486    26.756916    41.135806    40.035836 
150968000    267.21136    321.46181     270.7202   -28.401954     27.91324    50.741606    40.036517 
150972000    279.31737    333.62556    286.10835   -28.680651     26.95794    47.517207    40.036147 
150976000    262.89292    332.21367    266.01065    -29.28161    27.271473    66.203025    40.036792 
150980000    275.65273    317.94562    287.10842   -27.669088    26.893494    30.837194    40.036762 
150984000    276.54324    318.30153    291.71048   -27.247835    27.735283    26.591043    40.036263 
150988000     273.3934    366.63511    266.71381   -30.311798    27.890584    99.921305    40.036328 
150992000    266.75744    328.58989    277.84242   -27.505661    27.885895    50.747472    40.035929 
150996000    265.33536    324.63673    297.77752   -26.687024    26.387971    26.859214    40.035002 
151000000    269.32042    313.88075    296.12458   -25.844079    27.045081    17.756173    40.033646 
151004000    263.67014    340.21106    258.18013   -27.670473    28.999711    82.030933    40.034566 
151008000    269.64636    334.87419    281.96298   -26.676488    28.280786    52.911208    40.035237 
151012000    268.66632    331.69098    288.34824   -27.717317    27.533367    43.342739    40.036494 
151016000    275.20537    356.14753    282.35364   -28.236263    28.939514    73.793897    40.039179 
151020000    275.32387    337.50322    293.66324   -27.388207    29.075072    43.839978    40.040856 
151024000    274.85128    353.11087    297.09806   -27.774599    28.185696     56.01281    40.041511 
151028000    254.18852    297.43004     284.3594   -25.325345    27.583926    13.070641    40.041116 
151032000    266.32652    346.48577    261.72356   -27.311985    28.568247    84.762217    40.041479 
151036000    265.22629    324.70451     279.2292   -27.227165    28.322765    45.475304    40.041063 
151040000    266.01328    321.04714    293.65565   -27.641826    28.141684    27.391487    40.041457 
151044000    268.97441    314.09474    295.85686   -26.812956    27.846686    18.237883    40.042517 
151048000    250.02903    283.87557    265.10309   -25.042161    29.567455    18.772477    40.043366 
151052000    264.57257    318.52144    268.13865   -26.270224    29.815458    50.382793    40.042743 
151056000    267.71567     326.5419    286.03523   -26.312068    28.618152    40.506674    40.041826 
151060000    262.68694    324.69959    286.52474   -27.132248    27.401102    38.174849    40.041985 
151064000    262.08824    317.07472    282.72571   -26.533399    28.077207    34.349014    40.042549 
151068000    265.25517    297.58192    302.14559   -25.832711    27.106133   -4.5636752    40.041678 
151072000    264.16413     336.6028    282.82001   -27.488863    28.239766    53.782792    40.040818 
151076000    267.14163    325.00096    284.90237   -27.434771    29.252773    40.098597    40.041561 
151080000    267.09533    316.44604    278.46843   -27.366183    29.780892    37.977605    40.040703 
151084000    267.87852    317.18096    280.85787   -25.949728    27.776134    36.323093    40.040633 
151088000    257.22752    304.73473    273.86362   -24.539649    28.068184    30.871107    40.041181 
151092000    268.48016    346.01996    254.74898   -28.203943    29.018239    91.270973    40.041067 
151096000    266.50192    328.81648    265.22322   -27.480877    29.026236    63.593255    40.042119 
151100000    260.29754    323.48835    264.67452   -26.383701    28.538959    58.813838    40.043293 
151104000    263.74656    312.56778    282.90484   -24.787923     26.95892    29.662939    40.043348 
151108000    269.72433    323.69113    292.27992    -24.93127    26.761412    31.411219    40.043163 
151112000    267.43051    332.64849    273.00238   -25.611345    28.379459     59.64611     40.04365 
151116000    273.49419    358.61144    274.91341   -27.494459     28.38544     83.69803    40.044989 
151120000     266.3597    317.17458    279.46411   -25.928082    28.278695    37.710472    40.045153 
151124000    268.61091    332.21842    280.19011   -27.190414    27.524118    52.028313    40.044931 
151128000    268.73727    315.10339    282.61899   -26.485929     27.99405    32.484403    40.044467 
151132000    268.19782    349.57721    275.40534   -28.241265    28.208151    74.171868    40.045058 
151136000    261.80897    331.84533    284.18649   -27.223287    28.568466    47.658841    40.046774 
151140000    269.23699    346.75177    280.49199   -28.708931    28.844665    66.259786    40.047788 
151144000     264.2512     317.2794    279.06136   -27.605154    28.924916    38.218043    40.046756 
151148000    262.52741    315.00281    289.12644   -26.582659    28.431763    25.876368    40.047548 
151152000    271.79855    327.28338     289.1563   -28.409455    27.737128    38.127077    40.048482 
151156000    269.07845    318.93958    285.54841   -28.817259    28.361178    33.391167    40.047328 
151160000    261.92304    308.79234    274.13609   -27.672253    29.416064     34.65625    40.047911 
151164000    265.37155    322.11215    276.15528   -27.179174    29.424198    45.956863    40.047223 
151168000    267.62504     312.2833    277.69288   -27.622326    29.193433    34.590422    40.045842 
151172000    262.10172    309.96461     268.9478   -26.044892    29.399628    41.016809    40.045533 
151176000    267.34573    330.73908    265.72275   -27.650458     29.19373    65.016329    40.045794 
151180000    266.59352    335.30688    269.93193   -28.722787    29.013907    65.374947    40.045649 
151184000    267.26428    311.64911    288.23388   -27.030609    29.249993    23.415229    40.044722 
151188000    262.66471    314.27889    273.54708   -27.653117    28.705082    40.731809    40.045256 
151192000    270.02723    326.94338    281.44844   -26.231283    27.687284    45.494938    40.046305 
151196000    274.35093    313.01442    321.02434   -25.383729    26.182628   -8.0099235    40.046557 
151200000    258.87688    304.14894    268.97563   -26.203017    28.897047    35.173315    40.047507 
151201000    265.61147    317.37232    298.78283   -27.415165    27.654317    18.589495    40.047507 
Loop time of 21204.9 on 4 procs for 16000000 steps with 1498 atoms

Performance: 16.298 ns/day, 1.473 hours/ns, 754.541 timesteps/s
99.7% CPU use with 4 MPI tasks x no OpenMP threads

MPI task timing breakdown:
Section |  min time  |  avg time  |  max time  |%varavg| %total
---------------------------------------------------------------
Pair    | 10588      | 14660      | 18815      |3303.6 | 69.14
Bond    | 65.015     | 102.2      | 137.44     | 347.6 |  0.48
Neigh   | 115.17     | 115.23     | 115.26     |   0.3 |  0.54
Comm    | 274.16     | 4208.9     | 8198.2     |6039.4 | 19.85
Output  | 7.6364     | 7.6631     | 7.7419     |   1.6 |  0.04
Modify  | 1125       | 1618.5     | 2139.8     | 952.5 |  7.63
Other   |            | 492.3      |            |       |  2.32

Nlocal:    374.5 ave 714 max 35 min
Histogram: 2 0 0 0 0 0 0 0 0 2
Nghost:    2381.75 ave 4283 max 496 min
Histogram: 2 0 0 0 0 0 0 0 0 2
Neighs:    13020.8 ave 25776 max 315 min
Histogram: 2 0 0 0 0 0 0 0 0 2

Total # of neighbors = 52083
Ave neighs/atom = 34.7684
Ave special neighs/atom = 0.518024
Neighbor list builds = 28212
Dangerous builds = 0

write_restart FINALCONFIG
WARNING: Using a manybody potential with bonds/angles/dihedrals and special_bond exclusions (../pair.cpp:218)
Neighbor list info ...
  update every 1 steps, delay 0 steps, check yes
  max neighbors/atom: 2000, page size: 100000
  master list distance cutoff = 16
  ghost atom cutoff = 16
  binsize = 8, bins = 3 3 23
  4 neighbor lists, perpetual/occasional/extra = 4 0 0
  (1) pair lj/cut, perpetual, skip from (4)
      attributes: half, newton on
      pair build: skip
      stencil: none
      bin: none
  (2) pair morse, perpetual, skip from (4)
      attributes: half, newton on
      pair build: skip
      stencil: none
      bin: none
  (3) pair eam, perpetual, skip from (4)
      attributes: half, newton on
      pair build: skip
      stencil: none
      bin: none
  (4) neighbor class addition, perpetual
      attributes: half, newton on
      pair build: half/bin/newton
      stencil: half/bin/3d/newton
      bin: standard

#and everyone lived happily ever after, THE END
Total wall time: 6:11:05
