LAMMPS (16 Mar 2018)
#lammps script for united atom polymer simulation (full-scale run)

# 1. INITIALIZATION
#allows pair, bond, bending and dihedral interactions
atom_style molecular

  # periodic (video game) boundaries in all cartesian directions
boundary p p s

  # uses real units (instead of units based on pair potential parameters).  List of units used in manual
units metal

###########
# 2. ATOM DEFINITION
##########

   ##
   # Read in data from starting configuration file
   ##

#read_data lammps-AT-config

 #use to restart
read_restart RESTART
  orthogonal box = (0 0 -29.1214) to (20 20 152.979)
  1 by 1 by 4 MPI processor grid
  1498 atoms
  197 bonds
  96 angles
  95 dihedrals
  2 = max # of 1-2 neighbors
  2 = max # of 1-3 neighbors
  4 = max # of 1-4 neighbors
  6 = max # of special neighbors

   ##
   # Specify the nature of the bond interactions
   ##

bond_style harmonic
bond_coeff 1 19.51 1.54
bond_coeff 2 22.45 1.82
bond_coeff 3 10000.0 2.0
special_bonds lj 0.0 0.0 0.0 angle no dihedral no

angle_style harmonic
angle_coeff 1 2.683 114.00
angle_coeff 2 2.683 114.40

dihedral_style opls
dihedral_coeff * 0.06071 -0.011743 0.1363628 0.0

mass  1   14.00
mass  2   32.06
mass  3  196.97
mass  4  196.97


pair_style hybrid lj/cut 14.0 morse 14.0 eam
pair_coeff 1 1 lj/cut 0.00395 3.95 14.0
pair_coeff 2 2 lj/cut 0.01594 3.62 14.0
pair_coeff 3 3 eam Au_u3.eam
Reading potential file Au_u3.eam with DATE: 2007-06-11
pair_coeff 4 4 eam Au_u3.eam
pair_coeff 1 2 lj/cut 0.0000 3.785 14.0
pair_coeff 1 3 lj/cut 0.00258 3.44 14.0
pair_coeff 1 4 lj/cut 0.00 3.44 14.0
pair_coeff 2 3 morse 0.879 1.47 2.7 14.0
pair_coeff 2 4 morse 0.000 1.47 2.7 14.0
pair_coeff 3 4 lj/cut 0.00 2.934 14.0


group freeze type 4
100 atoms in group freeze
fix startend freeze setforce 0.0 0.0 0.0



################
# 3.  Simulation Settings
###############

neighbor        2.0 bin
neigh_modify    every 1 delay 0 check yes



# Define some variables
variable Lx          equal xhi-xlo   # Ang
variable Ly          equal yhi-ylo   # Ang
variable Lz          equal zhi-zlo   # Ang

variable dz          equal ${Lz}/30  # Ang
variable dz          equal 182.100820164033/30  

variable zzlo        equal zlo  # Ang
variable zzhi        equal zhi  # Ang
variable vol         equal ${Lx}*${Ly}*${Lz}  # Ang^3
variable vol         equal 20*${Ly}*${Lz}  
variable vol         equal 20*20*${Lz}  
variable vol         equal 20*20*182.100820164033  
variable TEMP        equal 300.00 # K
variable TThi        equal 320.00 # K
variable TTlo        equal 280.00 # K
variable dt          equal 0.00025 # ps

timestep     ${dt}
timestep     0.00025

variable zlo1      equal -26.0
variable zlo2      equal -11.0
variable zhi1      equal 135.0
variable zhi2      equal 150.0

# heat layers

region          hot  block  INF INF INF INF ${zlo1} ${zlo2}
region          hot  block  INF INF INF INF -26 ${zlo2}
region          hot  block  INF INF INF INF -26 -11
region          cold block INF INF INF INF ${zhi1} ${zhi2}
region          cold block INF INF INF INF 135 ${zhi2}
region          cold block INF INF INF INF 135 150
compute         Thot all temp/region hot
compute         Tcold all temp/region cold


# Second Equilibration
fix             1 all nve
fix             hot all langevin ${TThi} ${TThi}  0.005 59804  tally yes
fix             hot all langevin 320 ${TThi}  0.005 59804  tally yes
fix             hot all langevin 320 320  0.005 59804  tally yes
fix             cold all langevin ${TTlo} ${TTlo} 0.005 287859 tally yes
fix             cold all langevin 280 ${TTlo} 0.005 287859 tally yes
fix             cold all langevin 280 280 0.005 287859 tally yes
fix_modify      hot temp Thot
fix_modify      cold temp Tcold

variable        tdiff equal c_Thot-c_Tcold
thermo_style    custom step c_Thot c_Tcold f_hot f_cold v_tdiff
thermo            4000
run             800000
WARNING: Using a manybody potential with bonds/angles/dihedrals and special_bond exclusions (../pair.cpp:218)
Unused restart file peratom fix info:
  fix style: STORE, fix ID: layers_COMPUTE_STORE
Neighbor list info ...
  update every 1 steps, delay 0 steps, check yes
  max neighbors/atom: 2000, page size: 100000
  master list distance cutoff = 16
  ghost atom cutoff = 16
  binsize = 8, bins = 3 3 23
  4 neighbor lists, perpetual/occasional/extra = 4 0 0
  (1) pair lj/cut, perpetual, skip from (4)
      attributes: half, newton on
      pair build: skip
      stencil: none
      bin: none
  (2) pair morse, perpetual, skip from (4)
      attributes: half, newton on
      pair build: skip
      stencil: none
      bin: none
  (3) pair eam, perpetual, skip from (4)
      attributes: half, newton on
      pair build: skip
      stencil: none
      bin: none
  (4) neighbor class addition, perpetual
      attributes: half, newton on
      pair build: half/bin/newton
      stencil: half/bin/3d/newton
      bin: standard
Per MPI rank memory allocation (min/avg/max) = 10.93 | 11.62 | 12.31 Mbytes
Step c_Thot c_Tcold f_hot f_cold v_tdiff 
67201000    301.54892    293.05199           -0           -0    8.4969332 
67204000    334.66772    265.24381   -1.1388535    1.2832658    69.423911 
67208000    333.62294    269.22601  -0.32834573   0.88108493    64.396936 
67212000    326.42107    282.32159  -0.53539849  -0.12542054     44.09948 
67216000    320.86401    285.69928  -0.51386083  -0.33191346    35.164731 
67220000    306.74402    290.23041   0.69628991   -1.0264054     16.51361 
67224000    326.68374    286.24778   -1.1419672   -0.4157202    40.435952 
67228000    327.46151    286.83949  -0.55548116  -0.57949003    40.622016 
67232000    332.34916    277.37354    -1.130102  -0.24629295    54.975618 
67236000    344.72025    270.05664   -1.1629698  -0.14390685    74.663608 
67240000    329.69401    269.21609    -1.236756   0.56985509    60.477923 
67244000    326.80194    284.94558   -0.9944843  -0.73905943    41.856363 
67248000    342.11837    284.36173  -0.59189983  -0.63406465    57.756633 
67252000    326.03349    279.81544   -1.7223007   0.14222245    46.218054 
67256000    304.85097    279.64585   0.40979485 -0.082548614    25.205113 
67260000    315.60514    286.52567  -0.14112951   -1.1576792    29.079468 
67264000     325.5248    287.00847  -0.66691524  -0.59039936    38.516328 
67268000    322.15659    283.70565   0.17338925    -1.424456    38.450934 
67272000    313.46871    285.10449  -0.27088104    -1.593042    28.364223 
67276000     319.7846    276.79843   0.29893094  -0.49798065    42.986169 
67280000    297.61173    285.82224  0.015893869   -2.3033408    11.789483 
67284000    345.24835    267.29103   -1.0008656   0.19336898     77.95732 
67288000    353.05177      275.279   -3.1463886  -0.95771858    77.772772 
67292000    321.95006    298.48627   0.12365946   -2.5384395    23.463794 
67296000    322.84011    297.01008  -0.59642539   -1.9222149    25.830037 
67300000    297.19915    293.12104    1.2165653  -0.64710967    4.0781155 
67304000    344.58785    285.15777   -1.8302108   -1.4150536    59.430084 
67308000    340.25178    290.47719   -0.7372705   -1.3074557    49.774587 
67312000    307.68711     254.7733   0.17957306   0.15120982     52.91381 
67316000    315.57739    279.19914  0.019917487   -1.6192965    36.378248 
67320000    321.92012    273.76519    0.3656594   -1.0062202    48.154929 
67324000    331.33408    281.60704  -0.25480659  -0.82336177    49.727035 
67328000    312.11096    293.85976  -0.36091687   -1.3102531    18.251205 
67332000    338.09828    269.70553  -0.60232248  -0.17616563    68.392747 
67336000    317.95714    286.44985    -0.489965   -1.0998286    31.507286 
67340000    321.97905    315.67687    -0.452971   -2.6335637     6.302183 
67344000    324.00943    293.73749   -1.2218439  -0.83148657    30.271939 
67348000    336.31775    270.30319   -1.9082741   0.15226556    66.014564 
67352000     337.0137    294.73491   -1.3142571   -1.4773449    42.278792 
67356000     324.7075    279.49099   -1.6302911  -0.19388523    45.216503 
67360000    317.94693    280.86151  -0.33454357    -1.250356    37.085424 
67364000    330.61227    282.76462  -0.80113843   -1.1861591    47.847649 
67368000    312.36158     298.5808 -0.0068678547   -2.1168871    13.780776 
67372000    325.06521    275.88595   -1.4906138    -2.004653     49.17926 
67376000    312.07151    288.74222 -0.047147967   -1.5166647    23.329294 
67380000    334.17829    279.61695  -0.65829379  0.075239941    54.561345 
67384000    306.31629     260.5632   0.87265902  -0.30893676    45.753089 
67388000    324.07952    272.98684   0.36759441  -0.66651647    51.092682 
67392000    335.09577    263.45251   -1.0611983   -1.3511993     71.64326 
67396000    309.25585    296.59081   0.11176368   -2.9505551    12.665048 
67400000    327.15738    294.66566   -1.0615435   -1.7902321    32.491728 
67404000    302.41096    289.96619    0.3429746  -0.90151243    12.444773 
67408000    330.03362    309.21666   -2.5838484   -2.2048386    20.816962 
67412000    308.70952    282.58295  0.054699604   -1.6186775    26.126572 
67416000    327.00866     288.1612   -1.2184996   -1.6687249    38.847461 
67420000     303.0592    257.78446   -1.3696424   0.38100325    45.274743 
67424000     316.0827    286.69895   -1.7121974  -0.45756811    29.383749 
67428000    338.50124    280.44752   -2.6424748   0.56524878    58.053725 
67432000    351.86941    257.85704   -2.9932725   0.76994691    94.012377 
67436000    301.42993    283.61301  -0.35049182  -0.17046631     17.81692 
67440000    316.82749    319.80611  0.024263005   -2.1808919   -2.9786259 
67444000    320.98934    266.16999  -0.81374087    1.2043534    54.819349 
67448000    313.55054    277.96976   0.42421125   0.41385813    35.580786 
67452000    332.08996     296.3152   -1.6522817  -0.56358826    35.774767 
67456000      311.206    264.79148  -0.54354608   0.97872744    46.414518 
67460000    300.87609    288.29145  -0.63424797  -0.47841725    12.584635 
67464000    334.19147     268.9463   -1.2021385  -0.70990368    65.245174 
67468000    328.84377     297.4059   -1.5369158  -0.44890605    31.437873 
67472000     334.5177    279.93788   -1.2461611   0.19846293    54.579819 
67476000    307.60788    292.50913   -0.7227027   -1.4041325    15.098753 
67480000    310.56261    257.26289 -0.013613271   0.73280254    53.299727 
67484000    316.29902    275.98189  -0.93270127  0.070283212    40.317137 
67488000    341.90453    294.20378   -2.4303431   -0.3963405    47.700756 
67492000     325.6423    311.47987   -1.6505396   -1.2911178    14.162426 
67496000    320.55507     260.0909   -2.2359365    1.2038555    60.464173 
67500000    341.67316    292.93529   -2.8884214  -0.57252269    48.737874 
67504000    298.97542    286.79297   -0.1111679 -0.043629061    12.182451 
67508000    320.27308    266.40467   -1.0244741    1.5546838    53.868406 
67512000    333.00072    269.72163   -1.1338486    0.4978659     63.27909 
67516000    321.67421    286.40514  -0.79436936    0.5625748    35.269065 
67520000    313.53213    267.63387   0.28846728   0.92934993    45.898262 
67524000     311.2745    265.51492 -0.094999136   0.29350794    45.759575 
67528000    344.65669    276.28547   -0.6707632    1.5646162    68.371226 
67532000    331.27742    277.20837  -0.65583773  0.030537053    54.069053 
67536000    328.31143     274.3462   0.70167626   0.31819211    53.965227 
67540000     310.3616    275.94145   0.51611956   0.34190699    34.420158 
67544000    316.02169    274.52272  -0.39963547   0.68005049    41.498967 
67548000    318.26705    277.51603  -0.20379793    1.7783423    40.751019 
67552000    329.83575    276.82089  -0.85968439    1.5664172    53.014861 
67556000    314.09824    286.00334   0.89831184   0.50789556    28.094893 
67560000    315.02112    286.50487   0.25978634    1.0130708    28.516252 
67564000    320.35418    278.83854   0.15558603    1.0306603    41.515641 
67568000    289.11735    281.02918    1.7782651    1.4431051    8.0881708 
67572000    313.60827    260.26906 -0.0088374801    1.9470685    53.339208 
67576000    305.87983      294.751   0.10918743  0.071457898    11.128832 
67580000    318.69101    281.07145    0.1039389   0.19827613    37.619557 
67584000    330.81587    287.28131  0.079090618  -0.25320276    43.534554 
67588000    312.72655    311.25845  -0.16042992  -0.41094682    1.4680984 
67592000    300.18941    272.30308   0.67956325    1.6214829    27.886333 
67596000    338.53869    285.18305  -0.39213883    1.3223819    53.355635 
67600000    325.28232    283.85979   0.13045223    1.4955378    41.422524 
67604000    298.32719    286.05523  -0.78361402    2.0056915    12.271965 
67608000    331.02551    272.46012   -1.4263057    2.0222063    58.565382 
67612000    329.09944    283.57205   -0.4263763  -0.17745639    45.527395 
67616000    319.90164    265.91527    0.2905754    1.8631408    53.986374 
67620000    316.42584    281.95102   -0.8244653   0.52367737    34.474829 
67624000      305.598    277.55258   0.18359547    1.0108609     28.04543 
67628000     315.0643    289.25283   0.96313851   0.94440281    25.811472 
67632000    285.66748    283.36668   0.97295751    1.4270274    2.3007999 
67636000    316.30436    293.56744   0.87109742    1.3354301    22.736923 
67640000    308.90101    260.16627   0.61424959    1.1015265     48.73474 
67644000    308.57152    276.54685   -1.3802115   0.22772232    32.024678 
67648000     316.9248    288.81127 -0.084776684   0.90893218    28.113533 
67652000    336.46886    273.13019  -0.38512847   0.73636735    63.338666 
67656000    313.38639    283.36789  -0.68785208   0.97290519    30.018504 
67660000    331.20444    294.17057  -0.10485438   0.19453912    37.033867 
67664000    320.53363    268.23557   0.34298491   0.80318074    52.298065 
67668000    287.63966    283.88283    1.4847618     1.100742    3.7568289 
67672000    329.18715    296.65175   -1.0846421  -0.28612115    32.535402 
67676000    297.76105    272.56141   0.01452013    2.1600922    25.199637 
67680000    309.92775    287.86044   -0.3017267    1.4192196    22.067306 
67684000     339.2679    277.52903  -0.73629163    1.8774548    61.738875 
67688000     311.8455    287.56208   0.54345931   0.29296161    24.283429 
67692000     319.4372    284.91293   0.51469768    1.4926318    34.524265 
67696000    315.16498     299.7213   0.62647621    1.3252443    15.443679 
67700000    341.94968     282.9694   0.53964464    1.6724074    58.980274 
67704000     325.4413    267.09507   0.87453834   0.95193292    58.346228 
67708000    322.58094    273.25502   -0.1862658    1.6667028    49.325919 
67712000    306.44775     276.3032    0.4546978    1.7567506    30.144548 
67716000     305.6381    287.73725   0.25928779   0.76598858    17.900856 
67720000    329.64604    268.22612   0.08779338    1.4840144    61.419911 
67724000    334.46652    291.33674   0.26759462    1.0409972    43.129787 
67728000    314.58959    283.68897 -0.057379061   0.96021106    30.900622 
67732000    328.14786    275.17579   0.46409711     2.121675    52.972064 
67736000    306.16456    275.51292   0.69876775    1.2203496     30.65164 
67740000    324.55012    284.28121  0.078912227    1.2920391    40.268909 
67744000    345.26142    249.88189 -0.020979892    3.0754064    95.379521 
67748000    332.23499    277.01426   -1.7998048    2.3943629    55.220729 
67752000    334.93447    287.98968   -1.7138024   0.88625709    46.944793 
67756000    326.07635    284.18501   -1.2975007   0.10313233    41.891346 
67760000     317.0643    291.72239  -0.91182718   0.56177973    25.341906 
67764000    322.34881    294.00411  -0.97808039   0.72011921    28.344703 
67768000    306.36478    259.07206  -0.46848954    1.6335202    47.292712 
67772000    318.51635    276.84432   -2.6619993    1.1558234     41.67203 
67776000    343.79681    266.19952   -2.4953885    1.9467075    77.597285 
67780000    306.95055    293.14093   -1.9191174  -0.38389772    13.809626 
67784000     314.8244    293.30037   -2.0937773    1.0331403    21.524025 
67788000    329.29792    273.52246   -3.7605332   0.15818299    55.775458 
67792000     293.1585    307.63883   -1.3165574  -0.56452932   -14.480333 
67796000     330.9825    286.78946   -4.1197493    1.2258062    44.193044 
67800000    316.18153     282.7895   -3.2107813    1.5169966    33.392023 
67804000    319.01585    261.82777   -1.7431406    1.6783195    57.188079 
67808000    336.79654    276.91978   -2.6566461    1.2665604    59.876755 
67812000    306.08825    271.08186   -2.1265136    2.2210594    35.006394 
67816000    328.21813    282.57866   -4.2250523   0.72023352    45.639465 
67820000    318.06643    283.45585   -1.7130275    2.1538008    34.610582 
67824000    331.91158    288.73694   -1.5653467    1.5647731    43.174637 
67828000    300.42163    288.69359   -1.8099121    1.2902344     11.72804 
67832000    304.42273    260.97566   -2.2415847    2.2960532    43.447067 
67836000     342.7846    278.59862   -4.1077349    1.5518235    64.185971 
67840000    339.66833    288.35149   -3.9222991     1.995132    51.316846 
67844000    290.16191     254.3642  -0.58640752    3.1972942    35.797713 
67848000    356.08961    273.88694   -3.7810942     2.136282     82.20267 
67852000    324.11562    299.11498    -1.967954   0.33082961    25.000632 
67856000    323.40404    269.93843   -2.1322244    3.0302071     53.46561 
67860000    323.95541    256.71279   -2.4678633    2.9436641    67.242623 
67864000    322.89058     279.8824   -1.6920714    2.9559262    43.008177 
67868000    324.64941     269.5566   -1.6961044    4.0411191    55.092812 
67872000    344.84805    284.93478   -3.8227831     2.984914    59.913269 
67876000     332.6077    273.48092   -2.0026282    3.2029651    59.126772 
67880000    321.26092    297.67645   -1.3728824    1.4731303    23.584464 
67884000    305.15043    281.42897  -0.44551474    2.5745288     23.72146 
67888000     329.5887    301.33726   -1.8662434    2.1807341    28.251447 
67892000    342.56199    305.52658   -2.0332902    1.1488412    37.035411 
67896000    311.76442    278.69753  -0.50370673    2.0617293     33.06689 
67900000      324.247    286.63275   -1.0577992    2.7758218    37.614249 
67904000     321.4954     268.0575   0.49860721    3.0639256     53.43789 
67908000    305.59073    296.21491   -1.1344217    -0.250601    9.3758129 
67912000    321.97824     261.3782  -0.77692263    2.2390299     60.60004 
67916000    318.00654    287.43294   -2.0008758   0.89863659    30.573594 
67920000    328.83244    262.20989   -2.8313709    1.8554468     66.62255 
67924000      329.994    295.80338   -2.3233855  -0.17005798    34.190619 
67928000    324.54124    268.12953   -2.5146716    1.9794121    56.411706 
67932000    332.76184    295.26327   -2.3242963    2.1134263    37.498569 
67936000    296.84193    305.77778  -0.61057719   0.49027787   -8.9358522 
67940000    313.04633    256.45813   -2.2619637    3.3209747    56.588198 
67944000    311.11482     294.2796   -2.4434704    1.7756719    16.835229 
67948000    309.61532    283.96323   -3.1191033    1.8891782    25.652089 
67952000    323.33149    275.36863   -2.7720116     1.958547    47.962856 
67956000    312.10724    280.57097   -1.4640102    1.4654822    31.536267 
67960000    335.42147    279.78848   -1.9796077    2.0402239     55.63299 
67964000    309.33701    284.71509  -0.59994606     1.756316    24.621916 
67968000    322.94501    273.59672   -1.6819684    3.5421364    49.348296 
67972000    318.03581    289.68344   -1.0288717    2.6358381     28.35237 
67976000    317.44505    291.40662   -1.6829096     2.123016    26.038434 
67980000    312.20307    272.55418   -2.1234673    3.7606363    39.648896 
67984000    325.99333    283.38062   -2.0521695    2.7918075    42.612708 
67988000    327.67449    279.41893   -2.4667924    3.5830051    48.255564 
67992000    315.71027     297.4358   -1.6335198    2.9576371    18.274471 
67996000    336.63607    266.98027   -3.1371151     4.708479    69.655795 
68000000    319.16232    270.97526    -2.846292     5.160949    48.187051 
68001000    352.16666    296.23113   -3.9020272    3.8310905    55.935531 
Loop time of 1106.27 on 4 procs for 800000 steps with 1498 atoms

Performance: 15.620 ns/day, 1.536 hours/ns, 723.151 timesteps/s
99.5% CPU use with 4 MPI tasks x no OpenMP threads

MPI task timing breakdown:
Section |  min time  |  avg time  |  max time  |%varavg| %total
---------------------------------------------------------------
Pair    | 553.65     | 763.97     | 980.91     | 745.7 | 69.06
Bond    | 3.4698     | 5.3478     | 7.1553     |  77.6 |  0.48
Neigh   | 6.1108     | 6.1133     | 6.1149     |   0.1 |  0.55
Comm    | 14.07      | 216.34     | 424.37     |1371.8 | 19.56
Output  | 0.0044068  | 0.013949   | 0.021253   |   5.1 |  0.00
Modify  | 58.749     | 88.021     | 118.87     | 233.2 |  7.96
Other   |            | 26.46      |            |       |  2.39

Nlocal:    374.5 ave 714 max 35 min
Histogram: 2 0 0 0 0 0 0 0 0 2
Nghost:    2374 ave 4254 max 496 min
Histogram: 2 0 0 0 0 0 0 0 0 2
Neighs:    13078.5 ave 25846 max 314 min
Histogram: 2 0 0 0 0 0 0 0 0 2

Total # of neighbors = 52314
Ave neighs/atom = 34.9226
Ave special neighs/atom = 0.518024
Neighbor list builds = 1428
Dangerous builds = 0
unfix 1


# PRODUCTION

fix             1 all nve
fix             hot all langevin ${TThi} ${TThi}  0.005 59804  tally yes
fix             hot all langevin 320 ${TThi}  0.005 59804  tally yes
fix             hot all langevin 320 320  0.005 59804  tally yes
fix             cold all langevin ${TTlo} ${TTlo} 0.005 287859 tally yes
fix             cold all langevin 280 ${TTlo} 0.005 287859 tally yes
fix             cold all langevin 280 280 0.005 287859 tally yes
fix_modify      hot temp Thot
fix_modify      cold temp Tcold

variable        tdiff equal c_Thot-c_Tcold
thermo          4000

dump gigo all atom 4000 dump.cords_xyz.dat
dump_modify gigo scale no
dump vfgigo all custom 4000 dump.velo.dat id vx vy vz fx fy fz

# thermal conductivity calculation
# # reset langevin thermostats to zero energy accumulation
#
compute         ke all ke/atom
variable        temp atom c_ke/1.5/0.00008617333262

fix             ave all ave/time 100 40 4000 v_tdiff ave running
thermo_style    custom step temp c_Thot c_Tcold f_hot f_cold v_tdiff f_ave

#compute         layers all chunk/atom bin/1d z lower 0.05 units reduced
compute         layers all chunk/atom bin/1d z lower ${dz} units box
compute         layers all chunk/atom bin/1d z lower 6.0700273388011 units box
fix             2 all ave/chunk  100 40 4000 layers v_temp file profile.langevin

run             16000000
WARNING: Using a manybody potential with bonds/angles/dihedrals and special_bond exclusions (../pair.cpp:218)
Neighbor list info ...
  update every 1 steps, delay 0 steps, check yes
  max neighbors/atom: 2000, page size: 100000
  master list distance cutoff = 16
  ghost atom cutoff = 16
  binsize = 8, bins = 3 3 23
  4 neighbor lists, perpetual/occasional/extra = 4 0 0
  (1) pair lj/cut, perpetual, skip from (4)
      attributes: half, newton on
      pair build: skip
      stencil: none
      bin: none
  (2) pair morse, perpetual, skip from (4)
      attributes: half, newton on
      pair build: skip
      stencil: none
      bin: none
  (3) pair eam, perpetual, skip from (4)
      attributes: half, newton on
      pair build: skip
      stencil: none
      bin: none
  (4) neighbor class addition, perpetual
      attributes: half, newton on
      pair build: half/bin/newton
      stencil: half/bin/3d/newton
      bin: standard
Per MPI rank memory allocation (min/avg/max) = 12.03 | 12.29 | 12.44 Mbytes
Step Temp c_Thot c_Tcold f_hot f_cold v_tdiff f_ave 
68001000    283.51999    352.16666    296.23113           -0           -0    55.935531            0 
68004000    270.26021    335.84677    258.21161   0.57524017    2.2311351    77.635154            0 
68008000    277.25998    337.94555    266.05557   0.24643076   0.60570156    71.889986    34.616346 
68012000    274.92384    320.05536    284.45351     1.096206   -1.8165777    35.601851    36.359579 
68016000    270.96121    308.86896    270.80362    1.6120385   -1.4559735    38.065337    38.332926 
68020000    280.41861    313.66617    292.15437    1.0825526   -2.0125309    21.511791    38.829878 
68024000    273.11727    327.63445    262.62173   0.26661428   -2.2187454    65.012717    39.808159 
68028000    280.81623    327.00374    289.76897     1.177482   -2.4196096    37.234772    39.553569 
68032000    279.74595    334.36148     286.4142  -0.13159107   -2.0365712    47.947281    39.830627 
68036000    274.27519    343.62302    261.40682    1.0984351 -0.016806853    82.216194    40.187249 
68040000    275.84913    331.47786    264.35991    1.2089312   0.31772235    67.117942    39.725444 
68044000     271.4612    328.36049    275.85454   0.90424141  -0.30303303    52.505947    39.576537 
68048000    281.47059    333.29107    294.57392   0.23337325   -1.6609147    38.717147    39.655434 
68052000    276.54629    331.87334    275.54053  -0.55426511   -1.6405648    56.332815    39.409842 
68056000     268.2652    307.72178     259.2343   0.42853085   0.10258504    48.487485    39.196114 
68060000    276.00569    322.25831    273.96291   0.97915735    -0.656359    48.295399    39.228103 
68064000    274.93702    322.12211    304.10724   0.57134925   -2.2377705    18.014876    38.988045 
68068000    272.52479    312.60079    272.15275    1.5014497  -0.78067741    40.448043    39.131292 
68072000    278.89441    330.91283    281.08097  -0.23744152  -0.82495361    49.831856    39.206957 
68076000     274.2762    327.84124    260.41207    1.9366391  -0.55428163     67.42917    39.160947 
68080000    271.08007    287.05031    291.13266    4.0742573     -2.59567   -4.0823476    39.282635 
68084000    275.53349    304.83957    278.58745    2.5332286   -2.1502066    26.252119    39.154693 
68088000     273.9202     322.5436    279.87498    0.1895328   -2.3335897    42.668623    39.211883 
68092000    274.70342    301.59321    289.97325    2.5041228   -1.0656126    11.619963      38.9985 
68096000     272.1105    323.57427    273.23104    1.2530226   -1.3906798    50.343229    39.053399 
68100000    280.05529    302.82562    313.49482    2.7714822   -3.1153481   -10.669202    38.908648 
68104000    271.59816    331.15411    264.18603    1.2395947  -0.36694185    66.968078    38.934178 
68108000    271.03901    305.53469    292.83521    2.0266276   -1.0948202    12.699486    39.084909 
68112000    271.36839    310.94334      280.314    2.2672674   -0.9841116     30.62934    38.929734 
68116000    275.78374    330.89583    288.82022     1.301774   -1.7504249    42.075617    38.828975 
68120000    270.93559    308.01971    277.94934    2.2482097  -0.55326668    30.070365    38.833164 
68124000    259.51316    298.88023    270.87723    1.8451174  -0.54877591    28.003001    38.969797 
68128000    271.84069    302.16757    282.66682    3.1347433   -1.4739164    19.500748    38.987097 
68132000    276.91251    326.85023    287.21416   0.95440937  -0.99697572    39.636062    39.151583 
68136000    275.46158    319.80098    293.40012      1.66246   -1.8488363    26.400861    39.115054 
68140000    275.39865    312.47428    312.38246    2.7198848   -2.4991764  0.091820683    39.019103 
68144000    275.28273    324.60379    288.85478    1.4093697   -1.2143575    35.749014    39.170705 
68148000    272.66142    334.51184    262.12112    2.2603017   0.74727294    72.390716    39.076701 
68152000    265.00569    310.44681    260.36597    3.1757434   0.21427563    50.080838    39.076733 
68156000    280.49768    316.61041    294.07879   0.62682494   -0.2338039    22.531624    39.277222 
68160000    271.41338    312.51372    279.88496     3.458427  -0.45761637    32.628763    39.271722 
68164000    277.27311     315.0863    289.17394    2.3815377  -0.41502686    25.912363    39.363639 
68168000    270.29224    322.39442    269.94288   0.76107612  0.031620222    52.451538     39.45139 
68172000    273.23935    341.22534    275.57071   0.36482944 0.0017247764    65.654639    39.570553 
68176000    271.21132    308.51303    282.64363    2.7758005  -0.40457056    25.869404    39.556898 
68180000    262.39851    292.55019    272.18869    3.1355187  -0.27467752    20.361503    39.563482 
68184000    266.22636    316.44039    265.84204    2.3776256 -0.084637437    50.598347    39.557284 
68188000    280.66605    344.01301    298.95505    1.2327142  -0.62037128    45.057953    39.632368 
68192000    271.05438    309.31898    267.58499    1.3804257    1.4719754    41.733988    39.594989 
68196000    288.29951    342.95281     299.6425  -0.18696259    -1.563407    43.310318    39.567448 
68200000    273.78576     316.2213    283.21563    1.3028393 -0.055086147    33.005677    39.468535 
68204000    274.56394    311.78684    282.66014    1.8800041  -0.67654665    29.126704    39.440682 
68208000    275.14008    332.32476    278.97751    1.6428923   0.24344048    53.347251    39.431306 
68212000    267.57688    323.22551    284.28906    2.0110671 0.00011398183    38.936449    39.518822 
68216000    266.81146    324.91337    267.29598    2.9150005   0.92254815    57.617387    39.513717 
68220000    265.13217    305.34697    271.70775    3.2264701   0.03662546    33.639224     39.48017 
68224000    283.84058    342.89122    292.01056   0.47031585  0.031006592    50.880665    39.434218 
68228000    273.86309    322.45654    275.36865    2.3451071  -0.03671053    47.087888    39.516382 
68232000    267.73996    319.72022    268.56157    2.3717269    0.8305515     51.15865    39.495748 
68236000    260.79265    315.92609    259.14932    2.2690943    0.9277886    56.776769    39.498939 
68240000    273.07738    316.40427    285.27959    2.3641924  -0.78700677    31.124676     39.43768 
68244000    268.98319    314.87439    272.38383    2.5116823   0.30520343    42.490563    39.395043 
68248000    273.17065    311.55514    287.36677   0.85694261   -1.1120214    24.188376    39.410405 
68252000    268.08061    318.93629    264.57115   0.90499887  -0.50490019    54.365146    39.410222 
68256000    276.68181    314.85716    280.06209  -0.33538325   -1.5943193    34.795074    39.440426 
68260000    280.68034    316.91621    287.81348    1.0072091    -2.194669    29.102724    39.440846 
68264000    273.65346    336.88417     266.8232   0.29173541     -0.61432    70.060971    39.448076 
68268000    280.33225    317.94883     289.5089    1.0407144   -2.4843541    28.439931    39.487454 
68272000    283.79786    325.51625    303.44244   0.52284508    -2.244563    22.073808    39.476088 
68276000    276.48675    309.93701    286.55778    1.7419964   -3.0614332     23.37923    39.519267 
68280000    278.44066    318.25885    291.91085  -0.22076062   -1.8790553    26.347997    39.545578 
68284000    277.47813    326.83927    276.98337   0.41162869   -1.4242442    49.855894    39.584961 
68288000    264.51459    307.10079    263.38077   0.99357628  -0.63257086    43.720015    39.609468 
68292000    282.75295     326.9924    289.55381   0.41967061   -2.2512915    37.438588     39.57134 
68296000    268.22207    281.94632    272.24082    2.3505885   -1.0649958     9.705502    39.516668 
68300000    280.12984    333.01663     277.9315  -0.69010813   -1.2137357    55.085131    39.473742 
68304000    275.56136    314.77648    279.24872 -0.032110052  -0.64261301    35.527763    39.459345 
68308000    271.10727    318.02812    263.82552    1.2134287   0.18339227    54.202598    39.474478 
68312000    278.94986     319.5607    272.09616   0.71674645  -0.31934873    47.464543    39.475439 
68316000    276.40542    337.37307    283.65088  -0.63242185 -0.089355838    53.722185    39.458147 
68320000    274.95375    324.48679     273.9955  -0.31065839   0.37984361     50.49129    39.453652 
68324000      277.193    337.00219    262.01663   -1.8918768  -0.16172205    74.985558    39.467551 
68328000    281.85631    319.43605    284.15492  -0.56418295   -2.0346858     35.28113    39.496416 
68332000    284.93106     337.8332    284.56601   -3.1307079   -1.1900805    53.267188    39.493195 
68336000    277.16799    315.03094    281.66351 -0.086529789   -1.5888184    33.367421    39.530333 
68340000     284.5698    311.71226    290.66361  -0.84083736   -2.1241212     21.04865    39.536639 
68344000    277.72543    322.15877    278.14906   -1.8151175   -1.3054092    44.009716    39.544643 
68348000    281.72551    309.40893    269.95674  -0.91702102    -0.590608    39.452184    39.553777 
68352000    285.15307    327.88472    277.65666   -1.9275896   -1.5518879    50.228063    39.555546 
68356000    284.56797    331.95357    282.93872   -1.8174542   -0.9310586    49.014849    39.581886 
68360000    273.88361    318.05452    283.09109   -1.3424771  -0.84050237    34.963434     39.63726 
68364000    280.80424     328.1215    278.62717   -1.1631445  -0.30790084    49.494336    39.689293 
68368000    280.10778     310.6035    280.08985   -1.2388133 -0.032432636    30.513651    39.670606 
68372000    272.58907    299.08164    287.02416   0.34414263    0.1680714    12.057487    39.652359 
68376000    281.95878    312.09642    300.67956   -1.2168964   -1.6616755    11.416865    39.663838 
68380000      279.457    320.81547    267.01881   -1.1501373 -0.041396902     53.79666     39.71728 
68384000    287.09965     318.7113    297.52065   -0.9757907   -1.3655009    21.190649     39.72491 
68388000    292.96479    343.89854    295.90118   -2.9193129  -0.76851551     47.99736    39.725378 
68392000     281.6601    292.25963    278.60818  -0.79067695  -0.93659934    13.651452    39.707786 
68396000    276.13898    307.55122    273.15808   -2.1016557  -0.44521995    34.393141    39.691324 
68400000    277.03267    300.98006    277.54477   -1.9680315  -0.77367296    23.435297    39.692922 
68404000    285.06738    318.05908    291.35625   -2.2344997   -2.5352105    26.702829     39.71865 
68408000    278.75386    319.39478    267.31053   -3.1973578  -0.67162524    52.084256     39.76681 
68412000    283.15112    324.93124    287.15953   -3.1770055   -2.1139812    37.771716    39.759683 
68416000    282.97438    319.03763    289.28737   -1.3155231  -0.76972257    29.750256    39.742197 
68420000    289.40443     331.0394     287.3069   -3.0153058     -1.66281    43.732498    39.737501 
68424000    284.33123    324.00041    282.83992   -1.3928915   -1.6136004    41.160491    39.733979 
68428000    286.93463     324.1164    301.70308   -1.5617672   -2.5543896    22.413322    39.769656 
68432000    279.97324    318.61602    279.43807   -1.1600984   -1.3041182    39.177949    39.742128 
68436000    279.91816    310.09571    288.61864  -0.81639655  -0.51772933    21.477069    39.722719 
68440000    283.06272    330.41926    294.51295   -1.8108751    -2.411653    35.906315    39.774252 
68444000    274.09726    306.39212    285.52388  -0.68282441   -2.0072265     20.86824    39.781989 
68448000    280.24108    350.84376    273.39948   -2.4906415  -0.15010923    77.444274    39.802348 
68452000    273.12417    306.49696    268.24085   0.55527882  -0.24900835    38.256114    39.769536 
68456000    292.84256    343.72764    286.73558     -1.52276  -0.49815999    56.992062    39.795394 
68460000    278.38198    334.53207    276.60117  -0.72563664  -0.11581533    57.930903    39.812615 
68464000    279.79807    321.41958    278.30101  -0.79709281    0.4931515    43.118571    39.798031 
68468000    276.87032    307.39218    283.42783  -0.31339561    0.6059487    23.964356    39.789269 
68472000    274.67069    310.21023    285.65033   -2.4628605  -0.53041673    24.559908    39.773941 
68476000    276.99926    308.74996    279.64718   -1.2141882  -0.73594973    29.102783     39.77537 
68480000    282.60368    337.17856    269.27229   -2.4433156  -0.12983837    67.906264    39.740817 
68484000     284.0467     340.4395    269.58796   -3.1502067  -0.22733531    70.851537     39.76224 
68488000    286.94921    340.07392    290.54691   -2.5164328   -1.0770074    49.527006    39.750046 
68492000    272.46197     302.7572    261.93833  -0.38960359    1.1101098    40.818872    39.761335 
68496000    294.55403    335.25324    328.71343   -1.9529909    -1.796507    6.5398009    39.735518 
68500000    288.85994    354.36224    273.58707   -2.0686946   0.12088018    80.775165    39.748308 
68504000    277.84832    323.10994    275.19542  -0.36531817   -1.2930946    47.914519    39.732941 
68508000     277.7493    330.06217    280.99049  -0.34489393  -0.76793724    49.071679    39.726687 
68512000    272.26773    305.28404    271.39641  -0.66118606  -0.94908881    33.887623    39.715866 
68516000    275.50569    332.13086    256.65759   -1.2798359  -0.38653617    75.473278    39.757367 
68520000    280.70556    323.76033    271.77458   -1.5400682  -0.28284406    51.985754    39.782889 
68524000    288.75616    343.03961    301.42283   -2.4424103   -2.2933886     41.61678    39.761848 
68528000    268.81338    307.38253    268.38126  -0.30809429  -0.66529523    39.001261    39.755016 
68532000    272.67057     310.6294    269.87602   0.89042218  -0.76078673    40.753379    39.759767 
68536000    283.05647    321.04537    298.32913  -0.93012012   -2.5388723    22.716237    39.755242 
68540000    284.91464    321.15641    299.61514   -1.4024737   -2.3530959    21.541274    39.748244 
68544000    272.20125    311.40941    274.90799   -1.2875964   0.73671717    36.501425    39.750927 
68548000    278.59364    326.70138    289.23523   -1.1324352 -0.047386404    37.466149    39.743825 
68552000    283.14989    330.90613    297.17385    -1.608513  -0.81952969    33.732277    39.782589 
68556000    277.94746    326.53892    286.85828   -1.0382251   0.61844918    39.680633    39.788063 
68560000    283.18872    338.13462    295.74939   -1.7351428   0.77699779     42.38523    39.778247 
68564000     278.8874    324.51026    288.33996  -0.62721497   0.21884677    36.170299    39.732851 
68568000    271.14499    300.80993    276.28085   0.46006064   0.97615255    24.529078    39.757242 
68572000    287.53352    354.24573     271.9194   -2.4628467   0.59026984    82.326335    39.785057 
68576000    272.32411    343.27682    243.74336   -2.9422989     2.674594    99.533459    39.788941 
68580000    287.56566    327.34292    288.36466   -1.1230447   -1.0513666    38.978266    39.807467 
68584000    271.80635     308.7326    268.15339  -0.28717101    1.1880494    40.579209    39.811812 
68588000    276.11339    303.98967    274.15443   -1.5237942       1.9699    29.835241     39.80559 
68592000    277.62575    310.45981    288.63401   -1.1615633     0.621063    21.825801    39.790737 
68596000    276.10977    317.68945    278.95924   -1.4217522  -0.13702982     38.73021    39.784299 
68600000    288.07661    346.78531    278.62923    -2.598046  -0.59298103    68.156075    39.790209 
68604000    281.09125    305.99503    297.22381  -0.76388159   0.54910056    8.7712158    39.776125 
68608000    284.23489    330.97874    299.19346    -1.626596   0.05972338    31.785277    39.762655 
68612000    267.12849     311.0827     267.6381  -0.67564902    2.0675686    43.444597    39.811353 
68616000    282.99578    321.67214    301.11876  -0.72053591  -0.59494865    20.553382    39.824963 
68620000    273.40126    316.06721    290.53821   -1.5820722  -0.42766065    25.529006    39.816477 
68624000    275.61779    314.88743    272.85371  -0.97127508    1.3942632    42.033717    39.771959 
68628000    274.60586    298.78607    289.57914  -0.66614393 -0.012053871    9.2069316    39.794574 
68632000    272.60545    292.89671     272.7027  -0.37112563  -0.57063137    20.194015    39.801836 
68636000    277.09061    321.39076    278.00371   -1.6417175   0.30292131    43.387047    39.789922 
68640000    292.90565    350.69851    281.07209   -1.7584152    1.1121621    69.626416    39.785757 
68644000     276.8568    324.06001    269.43604   -1.7409558    1.9827363    54.623968     39.79652 
68648000    275.46227     318.9824    266.13661   -2.1003539    1.7312636    52.845786    39.813221 
68652000    282.98827    328.23375    291.97871   -2.4768556  -0.16539119    36.255038    39.850512 
68656000    269.79978    298.00385    282.08982  -0.20374254    1.5406903    15.914025    39.861407 
68660000    279.14256    329.60249    258.45724   -1.7801437    2.5278866    71.145255     39.84441 
68664000    275.66839    315.17936    276.56445   -1.6072029   0.98196642    38.614907    39.825617 
68668000    265.84175    307.23337    276.92322  -0.20338763     1.048112     30.31015    39.810724 
68672000    272.03357    335.59839    275.39609    -2.359023    1.5694868    60.202298    39.778188 
68676000    275.03635    326.36229    277.82338   -2.3427211    1.3049019    48.538912    39.806164 
68680000    275.10968    323.46325    295.40191   -1.3531667   0.61367048    28.061338    39.815902 
68684000    272.34951    299.74218    271.85366  -0.55478366    1.7846678    27.888518    39.824335 
68688000    282.52946    310.29178    310.97291  -0.90826577  -0.47221933  -0.68112289    39.820496 
68692000    274.20845    305.32204    289.32537  -0.68983382    0.2394357    15.996663    39.818399 
68696000    264.44252    312.67477    263.72125  -0.58736423    1.9440269    48.953518    39.814933 
68700000    278.87372    358.52932    275.80435   -1.8504537   0.76203929     82.72496    39.871953 
68704000    275.64346    318.37504    283.38791   0.51990839    1.1847324    34.987134    39.858275 
68708000    270.71983     309.4382    281.61755   0.40295253   0.22831968    27.820659    39.825809 
68712000    264.04279    315.60782    253.92176 -0.057584308    1.9217099    61.686057     39.84263 
68716000    268.81625    305.16388    286.68859  -0.28414345    0.1353684    18.475289     39.81954 
68720000    277.75233    328.99158    272.42484  -0.53063699    1.2511482    56.566741    39.838779 
68724000    276.93297     330.4308    292.69075  -0.72704031   0.42762509    37.740046    39.827181 
68728000    275.86032    327.87825    285.33546  -0.60012346    1.7393164    42.542791    39.829991 
68732000    265.43458     315.8268    261.06362  -0.26172934    2.8972153    54.763181    39.812701 
68736000    279.42415      322.921    280.48315  -0.67311878    1.7718867    42.437843    39.828389 
68740000    276.05552    308.26959    279.44247 -0.030203563    2.1983016    28.827128    39.826121 
68744000    267.60958     302.8014    278.52037   0.69801043    1.4494192    24.281029    39.876062 
68748000    278.60268    324.69855    289.00421   -2.7843276    1.1395554    35.694338    39.895528 
68752000    269.91944    313.04123    273.44745   0.21767719    1.5903018    39.593783    39.900144 
68756000    267.22215    309.37089    263.68785   -1.4200521    2.7462729    45.683044     39.91597 
68760000    270.06397    317.36761    271.51623   -1.3101698    2.5430494    45.851376    39.922665 
68764000    277.43015    333.62464    286.28678   -1.4907706    1.5198408    47.337863    39.896674 
68768000    268.41969    302.19344    275.87207 -0.020090036    1.9610194    26.321369    39.908323 
68772000    268.87342     318.7276    283.36754  -0.59746185    1.3833032    35.360064    39.941544 
68776000    278.34718    333.36497    282.69578   -0.6340812    1.2486571     50.66919    39.946881 
68780000    273.11808    319.06352    289.12219   -1.1131996    1.3515544    29.941334    39.967222 
68784000    275.09411    323.31365    300.27439  -0.64023045 -0.030501199     23.03925    39.979568 
68788000    271.00164    319.40637    268.96552  -0.29348734    2.4246794    50.440843     39.95748 
68792000    271.04551    305.45332    272.24745  -0.20312136    2.8018014    33.205875    39.957009 
68796000     281.0038    329.92856    279.81879   -1.3112535    1.7032371    50.109763    39.961358 
68800000    271.74034    317.03061    264.73727   -1.2665542    3.0065559    52.293341    39.978682 
68804000     265.5464    307.35201    278.87954   0.62890202    1.3594283    28.472466     39.98464 
68808000    272.35383    315.81455    282.62411    1.1364703    1.4633312    33.190436      39.9956 
68812000     268.4508    335.54206    265.15158  0.018160795   0.76044321    70.390483    40.004172 
68816000    276.37778    325.43745    290.47756 -0.063137635   0.13300316    34.959886    40.034152 
68820000    279.95823    338.57572     295.4886   0.70201945   0.14376335    43.087117    40.057058 
68824000    278.13753    329.51254    281.54207   0.50453259    1.0255848    47.970471    40.053572 
68828000    282.08689    328.54788    299.35783    1.3733972  0.057240269    29.190048    40.065198 
68832000    280.00827    347.45794    290.01406   -2.0604278 0.00053209842    57.443878    40.058123 
68836000    275.32988    320.93534     293.1882  0.095254249   0.66862485    27.747144    40.056192 
68840000    269.37193    321.09114     288.6126   0.97813201  0.074058261    32.478543    40.043838 
68844000    265.82749    317.25504    246.35524    1.1505168     1.537844    70.899801    40.061608 
68848000    280.87956    312.66123    290.40733  -0.44880811    0.6950677    22.253896     40.05729 
68852000    278.05084    334.82067    293.76512  -0.85124882  0.072241798    41.055546    40.071096 
68856000    279.31212    326.98062    289.40948  -0.80241624   0.33002944    37.571136    40.079696 
68860000    273.38282    322.28169    274.61905  -0.62932656  -0.92703711    47.662643    40.096439 
68864000    271.56194     314.1797    299.43881  -0.77716291  -0.56925633    14.740891    40.092423 
68868000    270.87408     314.7778     265.8879 -0.072954817   0.97396426    48.889906    40.095256 
68872000    270.88358    327.11745     278.7596   -1.1989926   0.18863997    48.357847    40.103359 
68876000    282.89355    338.64672    284.33528   -1.5067866   0.30181769    54.311436    40.102241 
68880000    267.30141     299.4171     281.8121   0.95422906    1.1382978    17.604998    40.095342 
68884000    272.84075    320.17971    270.95435  -0.77433014    2.5409718    49.225363    40.095775 
68888000    276.38445    318.18343    295.20636  -0.76091178   0.56121675     22.97707    40.095323 
68892000    275.21406    323.75094    282.32852 -0.098533965    1.9641224    41.422417    40.119677 
68896000    270.68555    319.57753    293.44918  -0.81953944   0.75353475    26.128351    40.120747 
68900000    264.87846    299.97515    274.76801       0.1911    1.0491608    25.207138    40.137467 
68904000    271.69637    310.95893    283.77794   0.14768883   0.13986315    27.180989    40.129007 
68908000    280.23554    329.69024    287.24162 -0.073895392   0.90580076    42.448619    40.138597 
68912000    278.71364    341.92143    280.38575  -0.26991767   0.98259758    61.535677    40.137803 
68916000    263.12933    312.77823    272.57366    1.8552623    1.6345083    40.204578    40.152412 
68920000    268.00637    334.59062    274.95929  -0.88858957   0.37232707    59.631335    40.144816 
68924000    268.82499    317.64887    263.12564   0.48063931    1.0186036    54.523229    40.143823 
68928000    277.07983    350.30752    280.65553   0.21820722     0.469862    69.651991    40.143674 
68932000     272.3919    303.95483    295.59577    1.6046408   0.30018005    8.3590632    40.141679 
68936000    260.53154    301.86495    249.04149    2.6625593    3.5855888    52.823453    40.155001 
68940000    283.54459    316.84483    322.70737   0.54706263 -0.035255161   -5.8625364    40.160116 
68944000    269.04686    302.52338    282.15626    1.0166086    1.0452233    20.367119     40.16686 
68948000    283.85386    345.81798    295.24428   -1.3558077       1.0041    50.573704     40.18886 
68952000    265.78935     316.3364     271.0696   0.37799082   0.63341609    45.266802     40.18417 
68956000     279.9497    350.72433    287.14049  -0.42740316   0.25204113    63.583849    40.186059 
68960000    279.33814    333.06265    290.11037  -0.27266063  -0.39668871    42.952278    40.193843 
68964000    268.06938    306.15736    278.83957    1.0622488    0.4586187    27.317792    40.176663 
68968000    265.65122    300.77342    272.21759    1.2760855    1.4224996    28.555833     40.18807 
68972000    273.82403    326.49213    271.60247   0.25109774    1.7193119    54.889661    40.175557 
68976000    267.96641    310.40383    267.18876  0.040677241    1.9103634    43.215073    40.154623 
68980000    269.78896    321.00173     260.5017   0.33970078    2.0957123    60.500034    40.141787 
68984000    258.89413    298.81734    262.32201    1.7099844    1.3926304    36.495329    40.127125 
68988000    272.16166    336.90815    265.04061   0.10581206   0.44852958    71.867542    40.147123 
68992000    274.88031    307.24451    282.93157    0.5398221    1.4526755    24.312941    40.143363 
68996000    271.24982    337.54809    272.16253  -0.57870393    1.8630023     65.38556    40.147457 
69000000    269.29013    324.80348    269.28724  -0.69353949    2.5315485    55.516232     40.15426 
69004000    265.36908    324.89765    267.31565   -0.7191507    2.2558399    57.581997    40.163405 
69008000     276.4777    349.97158    277.71014   -2.1118409   0.90156266    72.261436    40.159843 
69012000    265.21446    305.18751    285.93694    0.8527225   0.94584354    19.250567     40.16988 
69016000    275.24343    323.62506    298.41989    0.8968542   0.95742488    25.205166    40.156666 
69020000    270.64784    308.54213    295.55729    0.4080717   0.19318148    12.984844    40.171065 
69024000     268.4193      322.795    260.59384    1.0010066    2.5236185    62.201159    40.158218 
69028000    272.74387    325.11762    269.03471  0.065734284    1.8399911    56.082916    40.156191 
69032000     285.0558    356.48403    284.16894  -0.22850738    1.1064507    72.315084    40.142295 
69036000    280.60463     324.3265    298.53445    1.2690172   -0.4322399    25.792057    40.151107 
69040000    280.77201    321.57276    297.41026   0.85293679   0.40124868    24.162498    40.152047 
69044000    273.37363    321.75407    278.82003  -0.45707438   0.42985621     42.93404    40.139159 
69048000     276.4522    325.95889    298.44309   0.26174857  -0.87149509    27.515797    40.137747 
69052000    278.17232    322.88431    305.73558   0.56414139  -0.83981726    17.148739    40.122747 
69056000    274.18223     329.2447    256.81726 -0.0097763324    1.5308993    72.427436    40.113108 
69060000    282.75168     341.1805    297.46043   0.31566149  -0.54308636    43.720077    40.124522 
69064000    279.89223    327.24021    284.70241   0.47035901   0.33646211    42.537802    40.119835 
69068000     272.2404    327.46542    281.77673   -1.1595547   0.65544067    45.688691    40.115895 
69072000    271.77055    318.69173    267.82777  -0.64448297     2.355866    50.863966    40.118476 
69076000    274.54433    318.87903    266.17355  -0.53253066    2.2019835    52.705482    40.119086 
69080000     267.4995    325.22961    264.79177  0.027582413      0.42903    60.437849    40.130099 
69084000     282.7854    347.65351    284.64729   -1.1733773  -0.40060556     63.00622    40.142497 
69088000    276.35864    311.84465    286.90557   0.14178608  0.098356502     24.93908     40.14906 
69092000     274.5773     340.4606    264.64326   -1.6512466    1.4217162    75.817335     40.14976 
69096000    277.15327    329.81138     270.6596  -0.80919897    1.0060197    59.151781    40.166021 
69100000    281.39741    338.56266    287.85315  -0.69632538   0.38146674     50.70951    40.167332 
69104000    271.38445    333.52452    262.26348  -0.69138279    1.4251271    71.261039    40.174977 
69108000    280.14094    327.33686    289.83188   -0.8676639  -0.63585741    37.504989    40.166645 
69112000    276.64841     314.7755    281.94179  -0.56448781  -0.28181754    32.833706     40.16103 
69116000    274.78192    316.23355    279.51319   -1.6803164  0.033707195    36.720359    40.151589 
69120000    283.30002    345.08718     289.1015    -1.324462 -0.070769214    55.985674    40.146055 
69124000    280.39479    317.81294      285.136  -0.58543323  -0.54177077    32.676935    40.143768 
69128000    276.03041    322.63276    265.67044  -0.53231971   0.66295518    56.962316    40.135896 
69132000    281.53536    320.22405    305.25136   0.10606828  -0.92583768    14.972698    40.142573 
69136000    274.17713    299.85671    287.64455 -0.084271863 -0.038497368     12.21216    40.135458 
69140000    272.79459    309.54109    268.46918   0.52174959  -0.18035291    41.071914    40.134999 
69144000     272.7295    325.27751    266.69365  -0.11451212   0.26773534    58.583857    40.122459 
69148000    265.27175    299.83094    274.44741  -0.30931996  -0.10196705    25.383534    40.128599 
69152000     273.1022    336.76425    264.77135    0.2872195   0.68409154    71.992902    40.133354 
69156000     286.2955    333.75026    292.92192   -1.4990714  -0.42705577    40.828333    40.124418 
69160000    269.34076    322.03283    274.42539   0.70883549  0.093629681    47.607443    40.124789 
69164000    276.82157    326.10149    286.64868  -0.66366381  -0.14069866    39.452816     40.11887 
69168000    272.53506    336.67685    272.28632  -0.58405155   0.21304824    64.390536    40.119813 
69172000    271.57935    316.40599    264.53056   0.86103762   0.95347354     51.87543    40.114865 
69176000    280.71842     323.3495    298.10558   -1.6510777   0.30797211     25.24392    40.105088 
69180000    268.39976    303.29664    281.59423   0.81830589   0.91458213    21.702408    40.101166 
69184000    270.89817    306.75504    297.08727  -0.41713858 -0.044294943    9.6677628    40.100712 
69188000    267.96366    316.06944    279.51106  -0.21484086   0.67692468    36.558384    40.091302 
69192000    267.49453    288.42075    279.66452    1.5272925   0.25172772    8.7562388    40.082105 
69196000    266.36647    315.49699     266.5001    1.4381395    1.2206456    48.996896    40.078606 
69200000    275.02586    319.92377    259.28232   0.75716934    1.5431905    60.641448    40.078538 
69204000    283.54527    318.10937    292.70594   0.29033494   0.20673199    25.403428    40.094704 
69208000    279.39566    322.92635    293.91852  -0.98159992   0.20312062    29.007833    40.081854 
69212000    278.29434    319.92308    284.30823   -1.5529013  0.069152179    35.614852    40.084244 
69216000    265.96779    300.39905     277.2319  0.020778469   0.10667373    23.167154    40.085532 
69220000    268.03057    323.82746    268.96451   -0.6239945   0.75903996    54.862948    40.092322 
69224000     271.9921    303.82753    268.63279    1.5385921   0.94774519    35.194743    40.106513 
69228000    269.08747    333.23057    269.25008  -0.80203261   0.33431596    63.980484     40.11018 
69232000     283.9788    330.84964    287.38435  -0.41169831   0.53344538    43.465295    40.124194 
69236000    264.24812    298.22728    286.04978    1.6858095    1.3097933    12.177499    40.122845 
69240000    271.47103    346.81769    253.00382   -1.4633958    1.7731722    93.813876    40.118104 
69244000    264.68586    307.36715    277.86075   0.57416393    1.2549224    29.506409    40.126289 
69248000    266.69623    306.65439    276.38354   0.22784493    1.5463386    30.270843    40.134646 
69252000     272.4588    344.15422    275.12115  -0.84673617    2.2105762     69.03307    40.141952 
69256000    277.79104     336.7902    293.20084  -0.50663696   0.40754057    43.589364    40.140317 
69260000    268.91471    300.63562    296.09509   0.90203358   0.95474866    4.5405271    40.134236 
69264000    269.46151    326.68413    260.60962   -1.0992685    3.6331627    66.074506    40.137566 
69268000    272.00454     302.8059    295.51331   0.16673773   0.92942291    7.2925914    40.136401 
69272000    279.34017    312.33435    286.59117  -0.46636432    2.0880391    25.743182    40.117112 
69276000    269.50846    318.66164    276.35627  -0.31553585    1.9267763    42.305376    40.114357 
69280000    272.46558    318.07133    293.75797   -0.1798783     1.512316    24.313355     40.12005 
69284000    277.10649    331.34871    273.73548  -0.80978915   0.39667929    57.613224    40.133107 
69288000    277.35362     332.0751    288.22434  -0.84705186    0.5531997     43.85076    40.128426 
69292000    278.46529    324.14085     286.3628  -0.61351214   0.78444263    37.778053    40.144148 
69296000    275.89975    321.29269    280.29846   0.11555008    1.9255717     40.99423    40.149271 
69300000    270.46408    322.60603    268.34981   -0.5260428     1.998489    54.256221    40.140646 
69304000    272.07852    319.62702    282.56385  0.029520065    1.0483251    37.063163    40.134835 
69308000    282.34187    322.48133    297.23181 -0.096359745     1.210653    25.249517    40.124824 
69312000    269.12793    308.59578    287.78639   0.78882127    1.3993077    20.809388    40.119492 
69316000     270.9055    331.65523    273.54665  -0.34796018    2.1423802    58.108577    40.125202 
69320000    274.27724    304.47491    298.81842    1.2393489    2.7211303    5.6564972    40.118508 
69324000    271.12282    327.05444      262.312   0.43967609    2.7012366     64.74244    40.122661 
69328000    263.03231    319.40162    254.77567   0.53914041    3.2133226    64.625955    40.114321 
69332000    268.68658    318.81822     280.4852   0.54209408    2.8187207    38.333024    40.104265 
69336000    274.04817    302.96787    317.80532     1.833439   0.25349901   -14.837451    40.103044 
69340000    268.97356    339.04934    264.92589  -0.83955496    2.6410571    74.123448    40.102002 
69344000    261.86603    307.20362    266.41061  -0.24530474     3.428434     40.79301    40.103668 
69348000    269.21598    318.51889    293.86883   0.33509633    2.1273724    24.650061     40.09278 
69352000    266.37353    313.89387    279.93595   0.54160728    2.9796791    33.957927    40.083362 
69356000    264.24084    311.80062    292.79198   0.52248198    2.7450687    19.008642    40.091498 
69360000     259.0911    309.38778    270.50531   0.75023763    4.0604446    38.882474    40.107339 
69364000    266.47032    332.14424    264.61599   0.31583134    3.5679625    67.528246    40.109815 
69368000     270.0326      317.649    299.67434   0.77466236    1.4102718    17.974655     40.11413 
69372000    268.34795    321.08624    277.09099  0.069230584    2.6086877    43.995245      40.1127 
69376000    266.10582    314.95385    286.36116 -0.036718382    2.5221789    28.592698    40.109689 
69380000    264.74846    329.22388    273.54847  -0.79510723    1.3428407    55.675409    40.121017 
69384000    266.14299    314.90089    258.47402    1.7597903    3.9966612    56.426873    40.129135 
69388000    273.12028    339.67829    267.41895   -1.4374186    3.4624584    72.259342    40.124219 
69392000    266.87303    323.14532    275.20094  -0.16516131    3.6223854    47.944388    40.131851 
69396000    270.70287    332.45598    269.91582   -1.3506888     3.186467    62.540164    40.139741 
69400000    270.41803    315.68363    290.78311  -0.39209341    2.5224946    24.900519    40.148708 
69404000    280.00219     341.3861    299.18213  -0.91460605     2.549706    42.203969    40.146298 
69408000    270.29781    322.82682     285.5246   -1.1147732    3.0298752    37.302219    40.157273 
69412000    265.39114    331.12194    260.11509   -2.0205068    4.3426698    71.006854     40.15433 
69416000    269.54995    345.27224    277.86486   -2.2238042    2.9766923    67.407387    40.163717 
69420000    265.02412    294.19743    265.68485   0.30983634    3.2668696    28.512573    40.173827 
69424000    269.87002    313.00956    273.34703    1.0704401    2.8057345    39.662534    40.182037 
69428000    261.19238    315.46003    278.14516  -0.55418815    3.7949239    37.314869    40.179318 
69432000    266.93265     344.2883    261.17942   -1.5580571    4.1476069    83.108878    40.186751 
69436000    264.03336    313.16225     278.7712   0.37821422    3.6490716    34.391053    40.180323 
69440000    260.47456    310.83774    272.28675   0.72102816    2.8113955    38.550983    40.196386 
69444000    267.18175    318.31447    294.69313    1.8800834    2.7693308    23.621346    40.197271 
69448000    261.25805    316.69409    275.26648    1.3206758     3.424542    41.427609      40.1835 
69452000    263.48438    329.27013    267.75423   0.65817797    3.5507981     61.51589     40.19873 
69456000    265.94941    335.42341    274.01614  -0.30532922    3.4492753    61.407271    40.190331 
69460000    267.30933    318.00324    292.05415  -0.72969353     2.877466    25.949096    40.177674 
69464000    260.88263    314.69731    273.60462 -0.053806613    3.9756469    41.092691    40.172256 
69468000    266.19272    339.59202    270.47126  -0.87314042    4.3249777    69.120767    40.180899 
69472000    264.72995    320.70025    282.24164   -0.9586905    3.7306911    38.458613    40.186792 
69476000    267.24069    309.14222     293.8927  -0.58281748    2.6434645    15.249514    40.195684 
69480000    272.68014    318.35935    290.05062   0.17401715    2.7152456    28.308728    40.193299 
69484000    265.09529    323.61604     266.6104   -1.1788965    2.8749619    57.005637    40.191826 
69488000    278.36297    339.54312    287.85738   -1.9783121    2.8262293    51.685736    40.190903 
69492000    271.31368    311.56029    290.46684   -1.5090671    3.0316009    21.093452    40.190558 
69496000    272.78963    333.29834    285.10673   -2.1848549     2.682677    48.191615    40.192736 
69500000    268.94769    326.21018    273.69716   -1.3729685    4.1152906    52.513022    40.186989 
69504000    259.53846    297.40164    271.55282  -0.99871633    3.4872016    25.848817    40.196928 
69508000    268.47435    321.91126    278.87604     -1.63904    3.1831675    43.035212    40.187584 
69512000    269.33176    318.99278    279.45602   -1.0221526    3.7036154    39.536763    40.192223 
69516000    277.59965    309.15033    300.20077   -1.4843739    2.6521116    8.9495636    40.183506 
69520000    281.09171    350.29122    286.53683   -2.6385202    2.9706831    63.754395    40.197793 
69524000    268.64567    323.56303    275.77412  -0.33381549    3.2610646    47.788913    40.181522 
69528000    269.49977    318.47525    263.56963   -1.3717855     3.260336    54.905615    40.184097 
69532000    272.01924    335.15233    288.80391  -0.39894089    3.2994829    46.348421    40.189776 
69536000    263.96704    316.18919    248.49441  -0.65647577    4.0417746    67.694771    40.197005 
69540000    278.11217    331.21175    295.54479   -1.0002174    1.7622759    35.666964    40.204434 
69544000    266.17227    302.00895    289.84674  -0.71200472    4.0119652    12.162207    40.201953 
69548000    269.11356    319.27588    273.89852  -0.44453542    3.0544072     45.37736     40.20409 
69552000    271.56563    328.58906    288.00037  -0.68588146    3.1906617    40.588694    40.202318 
69556000    274.58541    349.61757    259.66124   -1.6523805    2.7560764    89.956332    40.200331 
69560000    260.96406    302.92917     289.6767    1.6499768    3.0304842    13.252475    40.188045 
69564000    269.73873    319.39785    277.96053   0.34089535    3.1871675    41.437324    40.190645 
69568000    268.23859     331.4455    276.58652  -0.46870898     3.236947    54.858986    40.194384 
69572000    264.88964    337.94141    265.69276   -1.3975859     3.680171     72.24865    40.198967 
69576000    272.91247    327.73144    298.89292  -0.52477731    2.4438088    28.838516    40.194074 
69580000    261.48878    321.47373    255.51624    -0.901504    5.6207056    65.957485    40.193082 
69584000    275.21717    334.52687     289.8635   -1.5081973    3.4933277    44.663364    40.187038 
69588000    268.40703    315.91241    299.34927   -1.1867791    3.0070814    16.563146    40.177074 
69592000    270.90769    328.88635    294.31364   -1.9336406     2.773147    34.572702    40.178101 
69596000    271.71609    333.16866     287.1709   -1.3839726    3.2587546    45.997755    40.182782 
69600000    272.67997    346.74123    274.77222   -1.9237962    3.5346666    71.969011    40.180994 
69604000    269.65112    324.81034    266.36346   -0.7902792    4.2517554     58.44688     40.18231 
69608000    255.08648    318.87694    274.54289  -0.45255047    3.4561215    44.334047    40.174984 
69612000     271.4182    329.29314    275.29015   -1.7092103    4.0360094    54.002988    40.172389 
69616000    275.74762     327.0407    289.40268    -1.568683    3.5990351    37.638027    40.176423 
69620000      272.429    313.56268    261.83456   -0.5632297     4.460291    51.728114    40.178336 
69624000    265.72057    300.00029    276.67204  -0.65463934    4.5571662    23.328246    40.163758 
69628000    265.77375    324.79155     292.9483   -1.6223902    3.8185693    31.843259     40.16932 
69632000    270.30471    315.80201    291.24002  -0.91606377    2.7084353    24.561986    40.167947 
69636000    268.07746     321.3876    264.44651  -0.68460197     3.750582    56.941095    40.156806 
69640000    262.65422    321.07308    274.85434   -2.1865627    3.8016874     46.21874     40.15206 
69644000    268.11678    315.60002    274.75042   -1.4168455    4.2311488    40.849598    40.162762 
69648000    278.56609    341.12794    286.92461   -3.3468404    4.5228919    54.203325    40.175243 
69652000    258.19552    300.21936     262.3607 -0.058764923     6.259625    37.858662    40.182648 
69656000    265.48067    326.05758    262.30894   -2.4562698    5.8877462    63.748642     40.17976 
69660000    278.34236    337.72972    296.26852   -2.6452077      3.48349    41.461192    40.185958 
69664000    272.08566    327.75292    274.34771   -2.8484447    3.9691119    53.405203    40.186281 
69668000    262.97839    325.01074    272.27391   -2.7824005     4.620509    52.736828    40.190552 
69672000    262.60166    290.51477    281.44688    0.2557142    3.9722172    9.0678943    40.187471 
69676000    270.67829    321.61276    282.93599   -1.5483082    4.3611423    38.676765    40.185168 
69680000    272.07611    306.40461     287.5909   -2.1856948    3.0591286    18.813712    40.180687 
69684000    267.50224    315.61787     272.8519    -1.676637    4.5245162    42.765966    40.179419 
69688000    276.30178    351.47067    273.63704   -3.0355917    4.1505732     77.83363    40.182926 
69692000    264.16277    302.73666    271.56671   -1.2675904    3.9239527     31.16995    40.175405 
69696000    268.71372    321.68054    287.06324   -1.7302192    4.4329498      34.6173      40.1749 
69700000    272.78473    308.47491    289.05413   -1.0367612    3.9996694    19.420777    40.176492 
69704000    271.42704    312.27328    287.67165   -1.3752952    3.9041025    24.601625    40.174533 
69708000    276.44503    323.78307    275.72695   -2.7747693    4.2224029    48.056118    40.182461 
69712000    269.75026     317.8347    285.36998   -2.8873515    3.9454078    32.464715    40.190983 
69716000    278.74397    351.40765    271.69425   -3.4436703     4.369048    79.713399    40.197601 
69720000    266.58527    306.72923    261.56928   -1.2275993    3.9013354    45.159948     40.20732 
69724000    273.16816    322.96454    293.54932   -1.1190397    2.9010307    29.415222     40.21887 
69728000    269.38457    317.39325    275.49484  -0.90461796    4.0648393    41.898401    40.226879 
69732000    265.95432    320.93787    281.57902   -1.6776201    4.8791726    39.358851    40.235392 
69736000    272.24985     329.4761    287.00871   -2.9641897    4.1209331     42.46739    40.234442 
69740000    265.59982    319.85997    271.97115   -1.7412635    4.4732156    47.888821    40.238413 
69744000    269.01105    331.60352    277.71327   -2.9283831    4.2055655    53.890257    40.234383 
69748000    259.98347    321.82126    263.48313   -1.7323211    4.2093159    58.338125    40.214863 
69752000    273.26221    308.35804    292.75919   -1.1894449    3.6811962    15.598845    40.203984 
69756000    261.39932    316.17962    271.26202   -2.0457155    4.6725776    44.917601    40.186019 
69760000    268.49112       314.98    266.79864   -1.2946289    4.7008083    48.181357    40.182543 
69764000    263.88624    313.09866    263.12947   -1.0411811    5.7051753    49.969191    40.185107 
69768000    256.76349    299.31101    258.20111    -1.025353    5.5038199    41.109898    40.178712 
69772000    264.01065    310.74461     280.4758   -1.6529493    5.0960192    30.268807    40.182953 
69776000    274.02976    325.52415     284.2209   -1.6514214    4.1076789    41.303242    40.184721 
69780000    268.90231    309.32599    277.19045   -1.8242946    4.2150835    32.135544    40.182622 
69784000    268.18158    310.21664    287.33402   -2.2814135     4.175428    22.882624    40.181366 
69788000    273.61708    325.95783    284.71923   -3.4177702    3.9350078    41.238605    40.190437 
69792000    279.49278    326.55308    286.49828   -2.5438869    4.2285534    40.054801    40.180604 
69796000    273.61983    331.06138    263.99106    -2.823984    4.3121511    67.070321    40.186086 
69800000    267.55786     323.5168    287.85259   -1.8749707    3.6472442     35.66421    40.188593 
69804000    275.65729    328.42268     271.5511   -3.6778148    4.6189224    56.871578     40.18922 
69808000    269.48839    308.67063    274.46028   -3.5140209    5.1909567    34.210346    40.184443 
69812000    273.52723    316.46611    285.93918   -3.0253784    4.3165315    30.526939    40.180962 
69816000    266.46092    296.99729    267.78893   -1.2614226    4.6490067    29.208368    40.173427 
69820000    269.94486    325.25556     263.1369   -3.9760333    4.8909434    62.118658    40.172799 
69824000    271.31579    325.16914    269.20128   -3.3277067    5.0732527    55.967867    40.164396 
69828000    275.11902    328.54857    273.20358    -2.847063    4.2013463    55.344997    40.171387 
69832000    276.53357    327.94537    276.32158   -2.9036372    4.0478133    51.623784    40.180829 
69836000    277.80053    300.48283    297.05224   -2.2009827    3.7808729    3.4305961    40.171879 
69840000    265.13829    313.40277    266.23733   -2.1338543    4.9141359    47.165442    40.171337 
69844000     275.9955    323.52913    293.30429    -3.086382    2.1264492    30.224846    40.173647 
69848000    274.96798    343.18129    283.34316   -3.2604331     3.483593    59.838132    40.175046 
69852000    266.78862     307.0746    287.57766   -2.9301497    2.9731538    19.496942      40.1749 
69856000    268.22461    308.10044    266.38571    -2.882228    4.0435242    41.714737    40.176922 
69860000    282.15049    323.19673    278.45638   -2.5765872    3.2419867    44.740347    40.160384 
69864000    268.10564    301.04108    283.04489   -2.1297639    3.1030488    17.996191    40.156465 
69868000    272.84111    333.73583    275.71652   -3.6298276    3.1739197    58.019305    40.165058 
69872000    280.71987    319.48932    295.40203   -2.0063904    3.4106451    24.087287    40.166032 
69876000    277.55872    331.66992    282.74092   -3.2757393    4.4652789       48.929    40.163764 
69880000    263.06629     320.9402    269.88515   -2.8166633    5.5464403    51.055052    40.166569 
69884000    262.35651    300.44943    275.36098   -1.9770911    6.6455295    25.088449    40.166258 
69888000    272.70305    331.60109    273.76153   -3.1439398    6.1696343    57.839562    40.173679 
69892000    266.12905     313.7658    285.22517   -1.8843081    5.5534552    28.540634    40.182095 
69896000    271.08334    332.03647    272.28531   -3.4597683    5.6999676    59.751159    40.186742 
69900000    266.66816    302.02882     296.6577   -1.0066493    4.2695284    5.3711197    40.182604 
69904000    272.68194     316.9261    292.52523   -2.4172004    3.7527781    24.400878    40.193797 
69908000    279.04096    316.98155     303.7079   -2.7377658    4.4365415    13.273655    40.192559 
69912000     272.4233    336.23896    285.73326   -2.9146133    4.5758979    50.505704    40.200401 
69916000    268.93595    306.14568    289.55577   -1.8292777    3.9027712    16.589906    40.201686 
69920000    273.77146    299.71802    308.27951   -2.3467929    3.4413122    -8.561488    40.200236 
69924000    260.16754    312.68325    245.79199   -3.2895094    5.9730991    66.891253    40.200944 
69928000    270.94133    323.51105    279.48417   -1.3300451    3.4857242    44.026881    40.194595 
69932000    262.65518    297.16663    278.08311  -0.23682187      3.89372    19.083519    40.186733 
69936000     264.1331    338.05704    260.06853   -2.9817736    5.4762421    77.988503    40.189913 
69940000    271.02799    317.71369    278.93329   -2.6605774    3.9952594    38.780404    40.186248 
69944000    263.87432    298.78685     274.5351   -2.1512298    5.0272922    24.251751    40.186709 
69948000    262.37802    272.49931    295.01901  -0.63648905    3.0765677   -22.519699    40.189541 
69952000    272.41255    321.68834     288.6281    -3.646531    3.4926527    33.060235    40.190486 
69956000    273.50693    315.57461    297.70588   -2.3128035    3.1994541    17.868733    40.193526 
69960000    267.50903    312.08491    276.34646  -0.99038259    3.3133669    35.738443    40.201225 
69964000    269.34803    339.13875    281.93326   -2.7989762     3.080908    57.205493     40.20257 
69968000    265.60304    307.92227    286.20099    -1.284988    3.9497019     21.72128     40.19883 
69972000    263.44176    318.08562    268.86361   -1.8687152    4.4672815     49.22201    40.195303 
69976000    265.75926    321.15166       273.76   -2.0681949    4.8838959    47.391657    40.196753 
69980000      268.595    297.18203    283.60302   -1.2384827     3.377848    13.579011    40.199464 
69984000    269.71373    325.25803    269.85631    -2.149659    5.8333224     55.40172     40.19995 
69988000    274.74856    347.15213    277.93485   -3.2197729    4.1861441    69.217281    40.198007 
69992000    268.73095    334.73027    272.72735   -2.5903979     4.765489    62.002922    40.200678 
69996000    271.78244    317.06706    282.27592   -2.5033953    5.1271924    34.791143    40.201999 
70000000    269.98368    324.07919    267.85415   -3.4396844    5.1866972     56.22504    40.199233 
70004000    267.26883    318.19967    272.33384     -1.72318    5.4862925    45.865839    40.188651 
70008000    268.67423    312.24115    290.80286   -2.0385394    4.7602874    21.438282    40.181584 
70012000    267.62353    331.78035    263.13406   -3.1899638    6.0173754    68.646298    40.189251 
70016000    267.95568    315.98027    267.35953   -2.2362291    6.8190081    48.620734    40.194282 
70020000    265.10551     327.3808    259.33485   -3.1645173    6.9079311    68.045959     40.18997 
70024000    262.98768    325.02181    249.12652   -2.8964301    6.6169119    75.895294    40.202092 
70028000     278.6448    339.92775    291.24538   -3.3540523    6.2542862    48.682366    40.205539 
70032000    280.08056    334.44491     282.6681   -3.5402074    5.9656403    51.776814    40.217423 
70036000      276.132    314.53391    300.67621   -2.9895329    5.2419547    13.857703    40.225734 
70040000    264.75789    314.13077    263.94336    -3.801143    6.3706617    50.187414    40.226247 
70044000    274.38648    307.02169    291.50719   -3.2035157    4.3951563    15.514502    40.230925 
70048000    270.80878    313.97149    287.41958   -2.9462729    5.4893413    26.551907    40.229692 
70052000    277.55761    314.53037    285.52243   -4.0656982    4.8234092    29.007945    40.233203 
70056000    269.09321     321.1266    274.49455   -3.1374738    5.2709037    46.632045    40.239775 
70060000    276.01733    309.95334     292.5815   -3.4110321    3.2611437    17.371835    40.233116 
70064000    271.58426    320.51628    290.67498    -3.998146    4.2613185    29.841291    40.226923 
70068000    278.10495    339.60036    282.80739    -4.433148    3.0603262    56.792971    40.222225 
70072000    277.64389    326.71721    292.59272   -2.9955771    3.5552415    34.124497     40.21941 
70076000    275.57217    310.20057    303.13238   -2.1294011    3.8877494    7.0681921    40.217597 
70080000    268.68067    306.86941    277.19519   -3.4103396    5.2909995     29.67422    40.222026 
70084000    273.59728    320.73779    284.25078   -3.7317928    4.7351092    36.487001    40.222979 
70088000    269.50207    319.83695    283.62344   -3.0564919    3.9783806    36.213504    40.225592 
70092000    273.36982    323.47116    282.46044   -3.4910373    3.5916908    41.010721    40.226026 
70096000    269.54643    323.27285    267.89467    -3.555978    4.8803333    55.378177    40.221347 
70100000    267.41247    321.10016    281.42359   -1.7290695    4.8930103    39.676572    40.225774 
70104000    264.92212    302.66972    277.62506   -1.7498222    5.1212971    25.044665     40.23398 
70108000    273.61083    337.32409    286.57869   -3.6190217    3.5417274    50.745407    40.233351 
70112000    280.10797    326.03663     289.9725   -3.6291737    4.3062617    36.064131    40.239027 
70116000    274.71533    336.28807    288.41231   -3.0414913    4.8026288    47.875761      40.2427 
70120000     267.1573    331.10723    260.84778   -3.0367996    6.1771529    70.259451    40.237997 
70124000    279.67291    339.71057    298.41398   -3.5855414    4.0205096     41.29659    40.245046 
70128000    267.51111    313.20733    285.11995   -1.2824417    4.4122239     28.08738    40.244303 
70132000    275.26993    321.33581     293.9212   -2.7091423    4.1504155    27.414608    40.251934 
70136000    260.28145    293.80936     270.4679  -0.54151965    5.0780105    23.341463    40.252914 
70140000    277.14111    327.70427    288.85263   -1.4489478    3.7397076    38.851638     40.24899 
70144000    268.09095    348.60084    261.03932   -3.4224905    6.1822682    87.561511    40.238884 
70148000    260.97145    303.05736    259.50034   -1.9541645     6.328746    43.557026    40.233865 
70152000    264.20425    307.01869    269.15624   -2.1576104    4.4951993    37.862452      40.2336 
70156000    265.99365    319.31449    259.55234   -2.2770239    5.8488976    59.762149    40.233199 
70160000    272.67263    325.83113    274.44866    -3.009562    4.0057353    51.382465    40.230679 
70164000    266.49033    312.22103    275.34054   -1.4296222    4.5631435    36.880486    40.224517 
70168000    269.57509    311.64924    280.73042   -2.6688583    5.6258999    30.918824    40.223765 
70172000    277.90021    324.96482    292.44056   -3.8152625    5.3017305     32.52426    40.231361 
70176000    268.96469    314.30407    284.81005   -3.0960762    4.4464322    29.494016     40.22465 
70180000    272.05038    331.04212    260.97437   -3.5450202    6.3791337    70.067756    40.232179 
70184000    268.00443    307.56733    282.09711   -1.9627725    4.6434915     25.47022    40.227226 
70188000    269.22022    332.22403    277.23493   -3.1830908    5.6200397    54.989105     40.22265 
70192000    272.54645    325.31812     279.0731    -2.630117    5.6206134    46.245015     40.22274 
70196000    275.21196     323.1852    287.43225   -3.2377958    4.9004412     35.75295     40.21666 
70200000    273.00264    318.33985    290.10946   -2.5038446    3.7863883    28.230396    40.222521 
70204000    276.24384    312.13791     308.1342   -2.6051606    3.3947288    4.0037155     40.22561 
70208000    275.07348    333.88625    266.51073   -3.9846963    5.7593042    67.375526    40.238663 
70212000     265.9636    298.19265    272.66272   -1.5160929    5.7277352    25.529927    40.233865 
70216000    279.22984    318.16646    292.86571   -2.0073694    3.9919659    25.300745     40.23369 
70220000     272.2617    339.20775    269.98378   -3.5636147    5.3471291    69.223968    40.231003 
70224000     268.9679    305.27899    276.38286   -2.3876599    6.9596814    28.896132    40.229796 
70228000    274.53618    332.75278    298.01237   -3.7881023    4.7523521    34.740411    40.228217 
70232000    275.96225    330.88634    302.72608   -3.1890072    4.3904356    28.160259    40.231715 
70236000    266.74403    331.04748    274.25152   -2.1592367    6.1272171    56.795962    40.224951 
70240000    269.41154    327.61005     283.1266   -4.4484178    5.7263573    44.483449    40.226746 
70244000    276.84042     332.2944    292.36846   -4.0736711    5.7081682    39.925937    40.230889 
70248000    266.34767    323.36688    281.39901   -3.5344377    4.6952564    41.967876    40.227187 
70252000    268.94062    318.72604    275.11568   -3.5595374    5.0665922     43.61036    40.234377 
70256000    272.66495    338.34028    269.33986   -3.6427942    6.6191792     69.00042    40.237699 
70260000     270.3944    331.46581    272.60656   -4.3576665    5.5450231     58.85925    40.233321 
70264000    281.53908    314.17157    301.42472   -3.0945449    4.9013717    12.746851    40.225182 
70268000    270.00276    319.17383    277.76956   -3.5009417    6.0782743     41.40427    40.226222 
70272000    270.09995    323.75422    276.88506   -3.0057789    5.5247686    46.869158     40.23205 
70276000    278.51986    336.24467    294.73698   -3.3680009    3.7764859    41.507689    40.229839 
70280000    263.62481    312.72119    261.38006   -2.1484135    5.9729127    51.341131    40.235642 
70284000    270.90779    327.35539    282.59509   -4.1315442    4.6628777    44.760302    40.229618 
70288000    268.97328    309.35137     281.4146    -2.478954     4.613311    27.936775    40.222011 
70292000    274.63944       324.67    301.79579   -2.8863565    4.4533108    22.874219    40.216513 
70296000    271.62346    328.78294    291.29312   -6.0249437    5.3729257    37.489828     40.22076 
70300000    272.74518    333.30857    263.02373   -5.5139855    5.8778712    70.284845    40.226091 
70304000    274.85144    323.10611    283.31976    -6.251114    4.7952148    39.786347    40.228481 
70308000    278.78967    331.57411    274.51769   -5.1755974     5.763963    57.056424    40.228987 
70312000     272.0604    327.53321    275.04263   -5.7392496     5.316116    52.490583     40.22578 
70316000     271.9701    300.93825    273.67788   -4.6410948    6.3979477    27.260378     40.23161 
70320000    284.16052    318.04157    298.82515   -5.3769114    4.4430581    19.216429    40.227594 
70324000    270.50103    304.16342    285.03832   -4.7527572    4.3076615    19.125105    40.237518 
70328000    276.74745    320.06753     279.9618   -4.9869762    4.6087503    40.105734    40.235986 
70332000    277.18961    332.09075    278.38106   -6.2686432    4.6565435     53.70969      40.2356 
70336000    269.48374    302.00278    292.54654   -4.2705619    5.2060919    9.4562384    40.232843 
70340000    278.76293    329.91872    285.09157   -4.6583342    5.6215602    44.827146    40.231667 
70344000    269.03525    329.22561    277.07224    -5.396718    5.2984148    52.153373    40.234629 
70348000    281.57303    335.49638    286.27731   -4.6288023    5.1988342    49.219076    40.230679 
70352000    284.47781    341.95285    285.64844    -5.191516    4.6079524    56.304412    40.226559 
70356000    275.29363    312.57871    289.39948   -2.8240325    5.5633504    23.179235    40.225119 
70360000    269.49429    330.66707    266.64619    -2.842153    5.3769777    64.020876    40.227854 
70364000    269.80321    312.36369    276.83449    -2.702855    4.6523641    35.529201    40.223174 
70368000    267.86002    311.05178    286.28483   -3.2415522    4.3840371    24.766947    40.220794 
70372000    276.80852    344.14945    270.63886   -3.8260783    5.5525462    73.510599    40.220439 
70376000    280.66896    327.82845    295.71696   -3.0747651    3.8447686    32.111485    40.229513 
70380000    265.07802    303.59343    266.32464   -2.6955106    5.9349029    37.268792    40.223651 
70384000    273.74403    322.00852    280.90992    -3.868052    5.8826901    41.098602    40.218644 
70388000    285.15943    336.91174    302.78928   -4.5555314    3.9444044    34.122456    40.220767 
70392000    275.83284    331.36984    267.60218   -4.5383464    5.6263491    63.767666    40.222213 
70396000    272.96698    325.48651    282.39965   -3.9866126    5.2892338    43.086858    40.229222 
70400000    277.38675    334.63294    263.98765   -5.1002388    5.3772427    70.645294    40.227023 
70404000    270.91979    331.49907    257.08878   -5.4180329    6.0434065    74.410287     40.24067 
70408000    277.65246    326.06904    278.86369   -5.2971489     5.168368     47.20535    40.240922 
70412000    277.78393    314.45453    272.54561   -5.3175346    5.7990986    41.908921    40.228762 
70416000    276.42725    327.26478    282.93446   -5.4266938    5.2038708    44.330326    40.223931 
70420000    279.74121    316.64923    299.33666    -4.832868    3.4929938    17.312561    40.225576 
70424000    279.57168    342.73021    277.72171   -8.0285772    4.1278032    65.008494     40.22463 
70428000    277.11408    332.88167    279.34426   -5.6798347    5.1193845    53.537416    40.229307 
70432000    270.25584    317.59064    275.58438   -4.8591942    5.1423977    42.006259    40.234134 
70436000    273.99509    315.52053    282.62376    -4.770706    5.4827852    32.896766     40.23308 
70440000    274.05655    326.99175    288.53045   -4.1948399    5.2113434    38.461305    40.237728 
70444000    281.18066     330.6238     285.2522    -5.285456    5.4021308    45.371602    40.232529 
70448000    265.21299    312.88824     285.8771   -5.4343952    5.5406482    27.011131    40.231181 
70452000     278.0886    311.79289     284.3774   -4.6579143    6.1340596    27.415484    40.232028 
70456000    277.14222    317.44675    289.82275   -4.5365709    4.4196085    27.623995    40.228369 
70460000    272.42632    316.46772    274.66424   -6.5294459    6.0142413    41.803474    40.234538 
70464000     279.0069     325.2222    277.47328   -5.1911156    6.7411102    47.748919    40.238186 
70468000    278.89212    336.82672    285.74236   -6.0792851    5.6132059    51.084356    40.246505 
70472000    265.92108    318.55927    249.94466   -5.5205218    7.3382118    68.614606    40.238375 
70476000    272.53747    320.01212    278.36014   -6.3293247    7.3293264    41.651981    40.238271 
70480000    280.74282    340.69209    282.57511    -6.857127    5.4738438    58.116981     40.24865 
70484000    271.81058    332.35689    270.18176   -6.8020791    5.8986123    62.175129    40.248173 
70488000    277.96966    329.54567    290.32141   -5.8533829    5.4841786    39.224255    40.249188 
70492000     280.6531    323.38995    295.30596   -5.9150843    5.2119795    28.083993    40.253122 
70496000    270.45002    311.39652    274.70758   -4.7193238     6.163565     36.68894    40.255729 
70500000    267.19303    314.10994     267.1739   -6.0710312    6.5572464    46.936041    40.255112 
70504000    284.24089    349.94465     273.6138     -8.18568    6.3294017    76.330847    40.251871 
70508000    277.49483    315.37863    284.48631   -6.2329616     5.755625    30.892325    40.256666 
70512000    271.42669    316.13423      292.317   -5.4087597    5.7845323    23.817225    40.255033 
70516000    269.41546    308.27385    284.89127   -3.5190684    6.7693931    23.382572    40.261489 
70520000    278.66891    339.36102     295.8014   -5.7356444    5.9713289     43.55962    40.256549 
70524000    283.27094    327.06964    295.98808   -5.7128281     5.571992    31.081558    40.246735 
70528000    270.36135    311.74508    282.76664   -4.1031751    6.6697932    28.978443    40.243491 
70532000    272.63051    303.23377    281.66404   -4.5637231    6.3162345    21.569734    40.243962 
70536000    284.54527    333.15362    270.36131   -5.5591453    6.5086545    62.792304    40.242557 
70540000    272.74691    326.63941    276.96144   -6.0739315    5.5784766    49.677963    40.241543 
70544000    274.40692    322.39678    275.91259   -5.5391932    5.9575706    46.484191    40.238041 
70548000    274.68453     326.1243    289.71684   -6.1948517    6.0020829    36.407463    40.231479 
70552000     274.8347    334.69726     286.6685   -5.2291757    5.7317379    48.028754    40.228517 
70556000    267.42825    320.31364    256.42306   -4.7671047    6.3370575    63.890588    40.227286 
70560000    265.28111    332.36919    262.93477   -6.0381875    7.4098599    69.434416    40.229734 
70564000    276.25315     329.8981    283.36679   -6.0151664     5.656404    46.531309    40.225695 
70568000    268.63094    305.93936    269.64834   -4.1514519    6.3228494    36.291015    40.227087 
70572000    278.05156    334.86146     284.0273    -4.786432    6.0410548    50.834159    40.230994 
70576000    268.82864    303.90662    273.31386   -4.4352624    5.5857677    30.592761    40.231491 
70580000    273.97981    319.16628    268.08252   -6.5593779     6.480073    51.083761    40.237371 
70584000     271.6779    302.66937    274.11675   -5.1938243    5.9363368    28.552625      40.2397 
70588000    273.71436    346.72398    257.12116   -7.7492323    6.7780376    89.602819    40.239962 
70592000    280.33821    336.04146    283.65973   -7.0214502    6.3456932    52.381724    40.245126 
70596000    276.71351     319.0487    301.76179    -5.911671    4.2199981    17.286907    40.251374 
70600000     274.4449    306.87304    288.07124   -4.4650599    5.6046281    18.801799     40.25679 
70604000    276.80897    330.53659    276.92155   -5.2039096    5.8202766    53.615037    40.248785 
70608000    271.19529    325.68101    277.43022   -6.1307749    5.9984042    48.250788    40.254822 
70612000    276.59318    316.93538     289.1391   -5.4925649    5.9308224    27.796275    40.252795 
70616000    269.55432    340.59313    265.86168   -6.6617007    7.2843145    74.731451    40.253137 
70620000    276.80882    337.80707    284.28094   -5.8149314    6.5155718    53.526123    40.256511 
70624000    271.59199    352.87359    254.68512   -5.9231965    8.1475828    98.188471    40.253931 
70628000    275.44072    342.54939    285.84377    -5.792591    6.7912465    56.705627    40.251644 
70632000    273.54306    345.39339    286.87943   -4.8309867     5.989536    58.513959    40.251641 
70636000    265.24724    301.88271    271.88018    -2.526856    7.1899662    30.002535     40.25604 
70640000    263.46042    303.67336    277.32604   -3.1557895    6.5903591    26.347323    40.252099 
70644000    265.12881    323.02285    266.42441   -4.0516171    7.0708095    56.598437    40.251537 
70648000     267.7853    326.33231    269.73357   -4.1954209    7.7250953    56.598739    40.247488 
70652000    290.35549    373.12271    295.27297   -7.0300691    6.5778597    77.849738    40.250123 
70656000     266.0539    321.13793     280.5771   -4.2222716    7.2248711    40.560829    40.253195 
70660000    265.92333    296.73729    287.13343   -3.5578517    6.2698936    9.6038598    40.251363 
70664000    273.93389    324.51567     289.9876   -4.4150831    6.3017674    34.528076    40.248202 
70668000    260.53349     308.3926    256.46006   -3.4241624    8.8670683    51.932534    40.251303 
70672000    270.36331    328.99013    270.61129   -4.5477883    7.6709138    58.378843    40.250169 
70676000    275.76088    336.16462    284.85877   -5.4255986    6.9513986    51.305851    40.252972 
70680000    273.00562    339.63688    283.59489   -4.8971127    7.0035766    56.041988    40.248202 
70684000    266.15658    308.37313    289.64689   -2.9608792    6.4978546    18.726236    40.238766 
70688000    267.31526    305.09669     276.4482   -3.7709387    7.8783072     28.64849    40.247504 
70692000    272.21762    322.56562    294.10712   -2.7005772    6.2137971      28.4585    40.244526 
70696000    265.03518    321.09469    278.36187   -3.2682592    7.5363607    42.732819    40.249611 
70700000     269.0112    317.03654    292.59468   -2.8987742    6.1752685    24.441857    40.252242 
70704000    270.95372    333.14504     277.4955   -5.0832783    7.4536234    55.649537    40.249435 
70708000    263.67734    314.39969    282.67389   -4.4361822    7.2372111    31.725797    40.246026 
70712000    270.41452    323.25808    280.36743   -4.2524907    7.6232414    42.890655    40.249949 
70716000    274.93157    311.56222     297.8955   -5.4071235    7.2448277    13.666728    40.249706 
70720000    273.56807    339.28327    286.25986   -4.3836966     7.583517    53.023414    40.250239 
70724000    265.67209    326.86712    268.36061   -3.6795331    8.4365466    58.506515    40.244554 
70728000    273.01175    322.99008    287.79794   -5.5662277    7.7228948    35.192144     40.24455 
70732000    272.50413    315.61308    280.02873   -4.9443036    7.0043941    35.584352     40.24367 
70736000    277.43913    329.27987     301.3393   -5.9611155    6.2617898    27.940571    40.245718 
70740000    265.03397    296.78191    288.56016    -4.580537    7.1663141    8.2217483    40.249415 
70744000    272.08291    320.78841    297.82214   -5.3475038    6.9565008     22.96627    40.247146 
70748000    265.90379    344.65625    258.22113   -6.4084867    8.5019919    86.435123    40.244137 
70752000    269.04665     331.3217    293.97702   -5.0290531    6.9787972    37.344683    40.253261 
70756000     264.2229    301.33689    268.61052   -2.9436898    7.8369573    32.726377    40.248451 
70760000    272.08948    344.49101    273.05005    -4.877958    7.5897363    71.440964    40.239209 
70764000      266.905    309.83673    296.18806    -4.190629    7.0964837     13.64867    40.240571 
70768000    279.42669    341.05051    296.90908   -6.5715931    7.0481418     44.14143    40.242285 
70772000    275.90542    316.56493     282.4675   -5.6555791    7.2738574    34.097426     40.24377 
70776000    267.91374    313.86037    278.29832   -5.3904535    8.4149539    35.562056     40.24475 
70780000    269.61506    314.59405     279.6217   -5.2578592    7.3984514    34.972359    40.247075 
70784000     272.9933    331.64338    269.53422   -6.6047159    7.5658094    62.109161    40.249176 
70788000    267.96091    331.75318    269.05902   -6.1672036    7.7398856    62.694155     40.24786 
70792000    272.42294    322.69251    296.03711   -5.3361432    7.0107714    26.655402    40.242251 
70796000    269.65358    300.47024    286.23171    -4.998463    7.7696908    14.238531    40.242647 
70800000    260.86732    321.53718    261.04184   -5.8542686    8.8380291    60.495349    40.239568 
70804000    269.16891     297.8009    294.77851   -5.2551642    6.5215682    3.0223895    40.239977 
70808000    275.73894    339.56293    280.38864   -5.1627498    7.8144977    59.174294    40.244915 
70812000    261.44505    309.03372    272.74952   -3.7405294     8.806851    36.284202    40.246641 
70816000    272.48703    328.19681    285.32145   -4.7276879    7.4450725    42.875356    40.250568 
70820000    264.50086    322.33189    264.80138   -4.3685417    8.5978289    57.530513    40.248623 
70824000    274.08901    321.55084    300.83217   -4.2997155    7.1493607    20.718675    40.246615 
70828000    268.68684     311.7385    277.08843    -3.742617    7.6262471    34.650067    40.248145 
70832000    269.90469    322.85913    289.76871   -4.8599506    7.6731091    33.090425    40.246886 
70836000    262.77702    314.35181    263.04612   -4.8468955    8.5748178    51.305684    40.243063 
70840000    263.56079    314.70749    270.51346   -5.4461362     6.438398    44.194031     40.24148 
70844000     267.6967    295.61001    296.98509   -3.7667551    5.4803093   -1.3750802     40.23556 
70848000    263.09697     305.6675     262.8578   -5.1987292    7.3831966    42.809695    40.236145 
70852000    269.56842    319.89809    272.04382   -5.1148949    7.9716161    47.854266    40.235001 
70856000     263.5733    316.43563    267.27604   -4.2393153    7.8255719    49.159591    40.231861 
70860000    279.32536    330.69235    305.32245   -4.6622668    6.5999981    25.369897    40.224483 
70864000    265.32278    311.54122    276.24553   -3.5930931    6.5540089    35.295687    40.223856 
70868000    262.14413     306.2695    280.08973   -4.0653878    7.3398384    26.179764    40.225708 
70872000    274.82827    317.23019    295.52226   -4.2547434    6.3863583     21.70793     40.22475 
70876000     278.9635    342.45195    278.06914   -6.6742366    7.2875201    64.382812    40.237098 
70880000    271.92991    311.96862    277.69551   -6.3330519    8.0143842    34.273107    40.232519 
70884000    271.31016    313.58093    282.94203   -5.2107506    8.4158044    30.638901    40.230315 
70888000    269.36205    310.13617    277.86353   -5.0998089    7.9539435    32.272644    40.224416 
70892000    269.24375    309.25826    275.72364   -4.8548156    7.9946016    33.534629     40.22113 
70896000    267.18788     303.3587     269.5374    -4.661532    7.8640234    33.821295    40.216877 
70900000    275.56712    314.11934    302.33166   -5.4256089    6.6705804    11.787682    40.216322 
70904000     278.1909    325.10197     291.8502   -5.8555901    6.5849645    33.251773    40.218202 
70908000    275.26477    322.78397    295.73502   -5.2486265     7.977229    27.048949    40.214962 
70912000    263.63444     316.5141    275.52201   -5.4027147    8.9236039    40.992089    40.211558 
70916000    257.08824    316.08751    246.01907   -4.9269187    9.5722437     70.06844    40.210315 
70920000    278.62553    343.44926    285.01069   -6.3294357    7.6231203    58.438567    40.212776 
70924000    271.60394    338.20004    263.12861   -6.0059907    8.9472629     75.07143    40.219833 
70928000    268.77321    320.39398    277.22129   -4.6069345    7.4872976    43.172696     40.21655 
70932000    270.85118    312.35256    268.44355   -4.3712598    6.3732971    43.909014    40.215259 
70936000    277.60974    335.43487    280.11084   -7.5016395    6.8501022    55.324035    40.215267 
70940000    271.47412    312.08128    276.22611   -6.1190608    7.7432986    35.855163    40.215552 
70944000    272.53619    325.13091    282.09979   -6.2326827    7.8198979    43.031121    40.219149 
70948000    271.21172    340.67905    273.67555   -5.2385182    8.0520489    67.003498    40.225936 
70952000    266.13698    331.34683    255.73383   -6.2333487    9.6153054    75.612997    40.225935 
70956000    263.42229    308.20603    274.55726   -5.4652059    8.4215598    33.648771    40.225765 
70960000     267.1383     301.8612    297.79108   -4.3945768    7.2472524    4.0701178    40.228183 
70964000    267.62742    316.00659    286.01555   -6.4432198    7.9712966    29.991045    40.231644 
70968000    270.56846     309.7776    301.31791   -4.6444057    7.4518785    8.4596924    40.234316 
70972000    251.59937    316.51848    267.21476   -3.8525199    9.6377056    49.303725    40.232493 
70976000    277.89342    324.01148    299.28569   -5.8177204    8.0218871    24.725793    40.234357 
70980000    262.77539    320.78761    265.89011   -5.6628626    9.1759414    54.897497    40.234222 
70984000    266.52097    310.08175    289.31369   -4.2278392    8.1962845     20.76806    40.230092 
70988000    273.66188    310.89163    295.50776   -4.7277764    8.1704842    15.383872    40.225116 
70992000    264.09802    330.82921    261.98415   -4.6040562    10.480096    68.845056    40.225057 
70996000    273.81562    322.19163    287.63122   -4.3591937    8.5218602    34.560412    40.228541 
71000000    273.81097    337.96779    290.63931   -6.0193468    7.6239396    47.328476    40.230167 
71004000    262.66104    317.11311    275.32615   -4.4490817    8.1063823    41.786954    40.234127 
71008000    258.42857    305.59172    252.44843   -3.2654085    9.2735357    53.143284    40.236138 
71012000     283.6458    357.02794    286.32531    -7.775644    8.2603809    70.702628    40.237646 
71016000     268.6249    317.00125    282.30488   -4.6800962    8.2520926    34.696365    40.231762 
71020000    265.04257    313.34791    270.19414   -4.9497291     10.14713    43.153765    40.230588 
71024000    269.40518    318.22379    287.19963   -4.6358647    8.4392032    31.024158    40.231527 
71028000    264.70833    313.43837    276.63086   -4.3685101    9.1895197    36.807508    40.224316 
71032000      262.105    316.04585    277.78034   -5.0765776    10.004815    38.265505    40.221705 
71036000    258.56538    295.52815    267.82653   -3.8022889    9.2313542    27.701624    40.216531 
71040000    268.37819    305.02049    290.02793   -4.5209099    7.4134821    14.992563    40.217177 
71044000    271.72308    332.21883    286.50258   -6.0458353    8.6208623    45.716255    40.216891 
71048000    263.94834      328.671    284.07193    -6.610403    8.8079563    44.599069    40.225219 
71052000    269.64272    310.02825     300.0147   -4.9100971    7.9254975    10.013551    40.226676 
71056000    267.16494    311.45413    274.66227   -5.8604153    9.4541822    36.791861    40.229707 
71060000    269.76473    301.95681    289.73929   -5.5292103    7.4926249    12.217524    40.228691 
71064000    262.01175    301.60476    275.46399   -5.3802036    8.4668208    26.140769     40.23097 
71068000    270.70554    327.34633    275.29811   -7.8386188    8.5377995    52.048222    40.229933 
71072000    272.33182    329.96204    287.34159   -7.7257921    6.9744608    42.620454     40.22743 
71076000    261.32504    311.24043     267.5036   -6.6777552    8.5922934     43.73683    40.227832 
71080000    274.84325    316.84541    289.15521   -6.9428619    8.1833799    27.690199    40.227752 
71084000    272.64527    325.25596    279.72172   -8.1489659    8.8050568    45.534244     40.23089 
71088000    265.75316    290.73579    282.39987   -5.6008019    9.0201562    8.3359192    40.234106 
71092000    273.98861    320.55353    286.66026   -5.5428396    8.5592571    33.893264    40.232652 
71096000    272.74684    321.75288    302.07644   -6.6076403    7.3583623    19.676445    40.231453 
71100000    272.11601    322.07729    287.55707   -5.7473558    8.1453457    34.520218    40.237479 
71104000    265.76797    313.58168    272.53715   -6.9822045    8.8501966    41.044538    40.229292 
71108000    274.26434    336.86862    294.89852   -6.6503596    8.1194371    41.970101    40.233178 
71112000    266.74757    333.66033    283.75748   -6.6252316    8.6621439    49.902849    40.228427 
71116000    263.20961    313.20244    275.02789   -5.7276732    9.2238724    38.174558    40.227795 
71120000    273.65964    321.11267    286.77136   -5.8422833    8.7479579    34.341309    40.229595 
71124000    282.16408    330.06683    295.29979   -6.9554838    6.5490824     34.76703    40.228698 
71128000    275.06489    331.89297    288.25114   -6.3017664    8.0831444    43.641833    40.227255 
71132000    267.75064    296.63328    292.53421   -5.2397801    8.4752277    4.0990668    40.226088 
71136000    269.38374    325.77755     271.2505     -6.08234    10.254182     54.52705    40.222361 
71140000    270.42903    310.62768    322.61783    -6.815538    8.0122084   -11.990155    40.225284 
71144000    268.45844    314.77637    270.56194   -7.6010854    10.012997    44.214431    40.229655 
71148000    269.09627    304.32699     282.0102   -6.2511658    9.2615474    22.316791    40.227558 
71152000    269.45167    345.16203    254.06079   -8.4896742    10.238371     91.10124    40.225732 
71156000    272.20755    341.25751    260.40234   -8.5731649    10.276402    80.855178     40.22307 
71160000    275.30777    350.26431    265.75213   -8.1635525    9.6151042    84.512178    40.232162 
71164000    276.59003    359.20007    277.49943   -7.5959357    9.2351211    81.700633    40.236231 
71168000    271.10664    311.13211    282.08679   -6.2504976    9.3710291    29.045323    40.238936 
71172000    275.51791     344.7619    276.20402    -7.137497     9.726093    68.557887    40.246122 
71176000    274.48399    326.31075    282.16536     -7.39141    8.4420682    44.145389    40.248181 
71180000    271.43188    327.01768    275.37645   -6.3552024    8.6063895    51.641233    40.250407 
71184000    272.11415    315.06428    278.74171   -6.3861132    8.6363482    36.322571    40.255707 
71188000    280.86405    337.14297    293.50614   -6.8536071    6.8866938    43.636829    40.257852 
71192000    276.06558    322.31558    285.38116   -7.0808694    8.2855224    36.934423     40.26108 
71196000    270.39679    330.89752    286.78426   -7.2813986    8.0329037    44.113259    40.258639 
71200000    269.94796      292.247    293.75961   -4.7662829    6.8935949   -1.5126062     40.25709 
71204000    260.15132    305.51215    269.02314   -5.2966393    8.3047261    36.489017    40.261321 
71208000    275.44204    327.79859    276.99415    -6.703536    8.1944627    50.804432    40.264351 
71212000    272.98392    317.07183    301.57285   -6.2964231     6.084298    15.498977    40.261138 
71216000     267.8093    300.39412    255.97208   -4.3703626    7.9932162    44.422039    40.256613 
71220000     279.5278    332.69542    282.46999    -6.390356    7.2960013    50.225425    40.254553 
71224000    274.86773    287.75683    294.88791   -4.7458587    7.8205992   -7.1310785    40.251954 
71228000    271.05491    320.69262     263.8463   -7.6349701    9.0895792    56.846318    40.248928 
71232000    271.03252    313.67911    287.04863   -4.8841685    7.8798585    26.630476    40.249358 
71236000    272.28161    331.42394    272.19738   -5.9302776    7.5376561    59.226558     40.24753 
71240000    276.57655    307.69313    291.25216   -5.7577969    8.4267154     16.44097    40.250121 
71244000     275.9811    315.90912    283.19956   -6.6467178    7.9815726    32.709565    40.251486 
71248000    280.32159    338.50022     291.4696   -7.7269618    7.9275542    47.030626    40.253244 
71252000    267.63052    315.93612    269.73129   -6.2418756    8.8291821    46.204831    40.252571 
71256000    266.18396    326.11379    275.20423   -6.2925003    7.9572835    50.909558    40.256528 
71260000    267.97768    339.73446    251.46194   -7.2978431    9.9922368    88.272523    40.262214 
71264000    267.29623    321.54794    270.49452   -4.8117329    8.6444298    51.053423    40.262817 
71268000    279.69972    337.26995    296.73396   -7.4701827    7.2409598    40.535999    40.260722 
71272000    272.14774    326.50355    274.71597   -7.9440134    7.2856289    51.787587    40.265297 
71276000    273.23501    331.71879     277.7478   -7.5203334    8.6128719     53.97099    40.263059 
71280000    273.65987    332.59321    272.29735   -7.1715715    9.2253323    60.295865    40.262959 
71284000    271.29912    312.83872    289.35138   -6.7424327    7.7009156    23.487345    40.266039 
71288000    281.52101    354.19888    295.08412   -8.1937468    7.7328274    59.114757    40.264215 
71292000    269.74216    292.56749    302.09892   -6.7512782    6.7677052   -9.5314249    40.264667 
71296000    274.95532    326.77037    297.81695   -7.6335113    7.5724032    28.953415    40.271579 
71300000    285.89989    338.00047    301.66328   -8.0094453    7.1772158     36.33719    40.274322 
71304000    265.69382     302.3124    283.31839   -6.2351936    8.5251843    18.994004    40.274497 
71308000    275.29105    322.87868     292.3399   -7.1144043    7.9775554    30.538779    40.273339 
71312000    271.88464    299.77369    281.40328   -4.9140804    7.9765909    18.370414    40.276969 
71316000    274.44825    337.29259    274.97095      -7.4352    8.3305394    62.321639    40.277667 
71320000    269.06854    313.42259     278.0766   -5.7434459    8.1525966    35.345987    40.278609 
71324000    277.91592    330.46968    284.00455   -7.2421357    6.8954914     46.46513    40.280361 
71328000    274.18988    314.80065    272.13641   -6.1916764    7.1217859    42.664235    40.280314 
71332000    278.64407    335.96832    270.25432   -6.5006147    7.6099739    65.713999    40.281548 
71336000    271.13143    311.77293    277.23838     -5.69008    7.7627961    34.534557    40.276682 
71340000    277.42234     321.6104    297.32592   -6.7170708    6.0959651    24.284486     40.27916 
71344000    272.12212    321.12085    266.63074   -6.5919809    8.4326761    54.490108    40.282772 
71348000    274.00126    305.00724    273.40631   -7.1847035    7.5862491    31.600926    40.278808 
71352000    267.70078    310.62412    283.46189   -6.2899159    6.6865661    27.162223    40.276573 
71356000    275.55318    313.40515    278.02842   -5.4755757    6.9973217    35.376732    40.278647 
71360000    279.88686     351.3381    272.75293   -7.3332729    8.1085086     78.58517    40.280718 
71364000    281.05941    347.99276    264.42254   -8.1798057    7.5058221    83.570221    40.283524 
71368000    277.39647    303.20392    295.31055   -5.7762098    6.7013872    7.8933689    40.285971 
71372000    266.71386    297.12066    284.57123   -5.7934324    6.8826181    12.549429    40.285083 
71376000    286.28603    327.96412    298.31423   -7.3017878    6.6463667    29.649882    40.279987 
71380000    275.07279    318.78176    263.56499   -7.8482532    7.5565329    55.216774    40.274928 
71384000    274.97401    318.85362    284.35782   -8.0172021    6.7949376    34.495803    40.266023 
71388000    275.76996    327.53105    274.49297   -7.1218945    7.6565401     53.03808     40.26216 
71392000    269.36736    290.32217    292.20627   -5.7879658    7.0208638   -1.8840985    40.257715 
71396000    273.84933    314.26805    285.57549   -7.5012702    7.4705988    28.692558    40.249955 
71400000    273.71086    349.71913    253.78576   -8.3244157    9.4592256    95.933369    40.253127 
71404000    273.63862    303.01145    279.85569   -6.4385109     7.883017    23.155762    40.254538 
71408000    283.56484    297.43501    320.73884    -6.940486    6.2248427   -23.303831    40.253005 
71412000     281.0112    329.85072    290.34834   -7.4254262    6.8083004    39.502384    40.249666 
71416000    287.89231    330.34025    292.38017   -8.7610177     6.721228    37.960078    40.246477 
71420000    271.74865    310.58771     275.8223   -7.0524723    8.4445768    34.765416    40.240877 
71424000    270.10554    312.26062    267.19539   -7.8266594    8.8492358    45.065233    40.239007 
71428000     271.1659    316.71703    284.62123   -7.1645216    6.9672724    32.095797    40.235672 
71432000    266.13332    318.11389    269.73648    -8.704494    8.5454899    48.377403    40.233546 
71436000    275.25115    340.27303    292.62241   -8.7991839    7.9638525    47.650621    40.234946 
71440000    283.43478    340.97899    292.11643   -9.5480068    8.2576455     48.86256    40.238353 
71444000    268.67229    311.43769    284.80059   -7.1257448    7.6774098    26.637099    40.238399 
71448000    274.39925    321.43201    292.20037    -7.229175    7.3093549    29.231644    40.236898 
71452000    271.23251    318.31501    279.19408   -6.7887504    8.3390747    39.120931    40.240588 
71456000    270.76732    330.56525    268.74109   -8.2959752    8.9675772     61.82416    40.249194 
71460000     266.6773    316.75886    263.41855   -7.8121328    8.1979627    53.340306     40.25006 
71464000    274.44444    315.82671    276.62833   -7.8171631     7.542933    39.198387    40.251996 
71468000    266.87925    315.23708    266.85049   -7.2629414    7.3750099    48.386589    40.252538 
71472000    270.47175    309.19803       279.45   -7.9898883    6.8566237    29.748029    40.256141 
71476000    277.78685    327.64466    308.91368   -7.6229775    5.4307709    18.730976     40.25392 
71480000    276.33135    320.69955    282.63895   -7.9985518    8.1529464    38.060595    40.260464 
71484000    283.73722    339.29432    306.61672   -8.9337908     5.407664    32.677598    40.260471 
71488000    273.85897    312.28071    289.91422   -7.6911054    7.5442747    22.366496    40.259396 
71492000     269.5098    297.65052     294.4247   -9.0344976    7.5160748    3.2258237     40.25784 
71496000    278.32636    315.09185    283.65439   -9.1604542    7.9921854    31.437465     40.25437 
71500000    272.08429    315.62637    280.75771   -8.1392868    8.0987916     34.86866    40.251027 
71504000    277.07199    330.19086    285.38809   -8.8304495    7.4778341    44.802765     40.24568 
71508000    281.23627     294.4679    301.09217   -6.8780739    7.4186898   -6.6242637    40.240934 
71512000    270.19432    327.99542    256.98315   -8.6355649    8.2147694     71.01227    40.244062 
71516000    274.79861    315.38889    274.60046   -8.4483472    7.4032879    40.788431    40.239917 
71520000    275.66899    320.07789    263.86867   -9.3053894    8.6445479    56.209219    40.241036 
71524000    279.46212    310.29687    308.45769   -7.6776484    6.7973199    1.8391842    40.239018 
71528000    268.92704     315.2201    263.53733   -8.4936537    9.3012455    51.682766    40.237745 
71532000    281.49193    320.47368    294.14868    -8.903391    7.3685711    26.325002    40.240028 
71536000    278.27067    322.52878    287.32937   -9.0310434    7.5606262     35.19941    40.236549 
71540000    272.87779    337.98148    262.53591   -9.0860492     8.363694    75.445572     40.23602 
71544000    269.26196    317.24732    274.30547   -8.4359836    8.4945418    42.941849    40.235177 
71548000    266.27794    307.28314    272.52351   -6.2521954    8.5865468    34.759637    40.234117 
71552000     269.5529     310.8488    271.80292   -8.1598173     8.554236    39.045871    40.241204 
71556000     273.1852    303.59373    283.99432   -7.6733264    8.1381717    19.599411    40.241876 
71560000    265.65915     304.5002    270.39447    -7.977926    8.7686984    34.105728    40.246708 
71564000      273.732    320.97504    274.19063   -8.7514775    9.5081222    46.784411    40.253037 
71568000    268.96739    318.73065    274.73787   -9.7113474    9.8900909    43.992774    40.249793 
71572000    273.41638    331.62481    267.43699     -9.81482    9.5619033    64.187822    40.255083 
71576000    274.29026    325.08866    294.03224   -9.4214156    8.9014596     31.05642     40.25381 
71580000    269.77605    312.97462    278.89651   -8.6373733    8.2743047    34.078113    40.253036 
71584000    275.77655    321.34381    289.77839   -8.6365618    8.1310353    31.565421    40.250996 
71588000    271.60296    330.75844     271.4007    -9.074579     8.635181    59.357738    40.251045 
71592000     266.0946    300.87663    289.52106   -6.9257607    7.9703229    11.355567    40.244178 
71596000    276.49321    322.29791    289.70752   -8.2860264    7.6422127    32.590385    40.239717 
71600000    271.51052    310.36383    293.50146   -9.3116789     8.046723    16.862368    40.234451 
71604000    279.49006    335.10051    286.14121   -8.9172634    8.6704712    48.959302    40.235539 
71608000    276.00233    334.59168    287.32866   -8.1242108    7.7211654    47.263014     40.23481 
71612000    273.21516    326.93923    271.77696   -8.7622502    9.1036872    55.162274    40.231895 
71616000    274.23774    335.67208     279.5596   -9.4388261    7.8943648    56.112475    40.232398 
71620000    280.00192    317.26039    307.70653   -8.8802475    7.0942863    9.5538592    40.230305 
71624000    276.31168    326.48354     280.8026   -9.2232107    9.0174067    45.680942    40.229505 
71628000    272.74882    310.30962    270.42013   -7.5670082    9.3405799    39.889492     40.22622 
71632000    268.60853    309.41127    265.04727   -9.3694196    9.3451304    44.363999    40.231886 
71636000    269.57113    316.80617    262.23685   -10.368902    10.150944    54.569328    40.235667 
71640000    278.71229    322.06952    283.30848   -9.3958622    8.7037311    38.761033    40.231105 
71644000    278.94639    330.77836    300.98774   -9.4390249    9.1241566    29.790612    40.227334 
71648000    272.71695    316.12666    286.02008   -8.6360508    8.9103519    30.106581    40.230589 
71652000    278.48375     313.5242     284.9787   -9.1501233    7.9700252    28.545505    40.228381 
71656000    276.24621     328.0292    274.34823   -10.977427    9.2930067    53.680975    40.226846 
71660000    269.62952    303.19659    285.85565   -8.1169144    8.6293577     17.34094    40.223991 
71664000    268.15881    318.30167    250.99889   -8.4048126    10.355539    67.302776    40.226612 
71668000    268.10344    310.87251    276.55498   -8.1504963    9.3802995    34.317529    40.221056 
71672000    262.65848    294.18208    256.31007   -7.9968831    11.430993    37.872012    40.223924 
71676000     281.4489    326.81438    299.19616   -10.281614    8.2113954    27.618219    40.227639 
71680000    278.07466    327.11222    280.89359   -9.4942624    9.6192135     46.21863    40.225646 
71684000    273.38862    302.87086    270.33459   -9.0546916    10.550444    32.536272    40.222558 
71688000    272.70685    313.25384    271.93913   -9.9668208    11.006859     41.31471    40.222241 
71692000    266.77498     314.6935    257.88919   -8.1634838    10.678708    56.804313    40.224286 
71696000    274.57382    330.16081    271.96788   -9.2063069    10.165946    58.192934    40.222312 
71700000    281.53466    322.96086    295.20045   -9.9178217    9.1065085    27.760401    40.223981 
71704000    272.34573    301.86853    279.77989     -8.55225    9.4537379    22.088639    40.224202 
71708000    270.24026    298.58974    291.01285   -9.0455933    9.2341357    7.5768808    40.225178 
71712000    271.39473    312.09507    273.13432   -8.9983155    10.275916    38.960756    40.222886 
71716000    275.21182    346.48739     283.9357   -10.992795    9.6152114     62.55169    40.226079 
71720000     282.5577     339.1742    299.43957   -11.028803     9.572799    39.734629    40.228227 
71724000    279.27049    297.62977    313.58002   -6.9910614    9.0253415   -15.950247    40.226568 
71728000    269.41672    319.39784    265.36705   -7.8816158    10.337584    54.030794     40.22439 
71732000    277.98302    328.42407    279.99524   -9.6926121     8.709964    48.428827    40.224259 
71736000    278.53349    317.55662    289.87843   -8.9855088    9.3483696    27.678191     40.22331 
71740000    276.39751    324.88445    281.73498   -9.5118877    9.9823162    43.149475    40.221098 
71744000    275.36154    305.73872    284.15151   -8.1003064    8.9970311    21.587205    40.222256 
71748000    274.53379    315.17133    287.76485   -7.9320252    8.9659663    27.406479    40.224634 
71752000     268.6054    303.84495    289.75892   -8.1256175    9.0592618    14.086026    40.222634 
71756000    273.50253    318.77901    290.99428   -8.8566151    7.8283995    27.784733    40.221488 
71760000    269.31389    302.03299    268.65612   -7.4704043    8.4075439    33.376877    40.221711 
71764000    273.99579    321.79594    293.64026   -8.3964172    7.8080955     28.15568    40.222329 
71768000    274.68886    314.93911    290.00002   -9.1772596    8.8797733    24.939097    40.223091 
71772000    279.66303    311.03119    296.63955   -7.8048469    8.1963538    14.391642    40.225295 
71776000    278.37927    314.58918    304.10522   -9.1261175    8.2000513    10.483959     40.21903 
71780000    269.68972    325.05185    262.32749   -8.7780153    9.6534192    62.724361    40.222625 
71784000      277.522    321.79392    285.22682   -9.5826033    8.7247099    36.567105    40.224625 
71788000    274.11522    332.65179    289.51035   -9.5711408    8.2660129    43.141445    40.227363 
71792000    277.05435    320.76137    283.37753   -9.3668946    8.7530071    37.383849    40.222774 
71796000    269.08517    310.65213    267.97451   -8.1642712    9.1909909    42.677617    40.223391 
71800000    284.94777     336.0512    287.60453    -9.752903    7.9445101    48.446672    40.222972 
71804000    274.40807    319.97717    280.55348   -8.9779885    7.3438322    39.423687    40.222078 
71808000    271.61294    289.43583    281.93971   -7.6769251    7.6860332    7.4961232    40.218424 
71812000    271.21525    328.82218    280.44132   -9.6966736    8.9033629    48.380857     40.22226 
71816000    275.03511    304.70768    266.12867   -9.4479699    7.9998897    38.579012    40.219759 
71820000    285.35637    332.49166    290.87834   -9.9189121    8.4426322    41.613323    40.218972 
71824000    269.45221    316.26631     268.5831   -9.1208812    8.3461791    47.683203    40.214923 
71828000    269.46861    323.91415     285.1894   -8.6730659    9.5256248    38.724752    40.216754 
71832000    267.95118     305.3844    257.04932   -7.9538044     9.967355    48.335077    40.218853 
71836000    271.90542    309.98697    285.96194   -8.2090193    9.4472931    24.025029    40.224073 
71840000    280.91217    336.88966    291.23865   -10.551801    10.186346    45.651013    40.225729 
71844000    265.04624    317.71323     259.5133   -8.8697329    10.375311    58.199925    40.225031 
71848000    278.34996    328.63496     291.2699    -10.61193    9.0316689    37.365056    40.224651 
71852000    272.95845    320.48744    262.61035   -10.730024    10.358216    57.877091    40.228209 
71856000    274.64675    314.73385    295.08019   -11.439606    8.8353096    19.653664    40.230514 
71860000    276.83759    321.00412    284.64638    -8.576336    9.1728939     36.35774    40.232013 
71864000    281.71305    319.36115    299.29881   -10.433163     8.947999    20.062334    40.229718 
71868000    267.17502    303.27987    278.11768   -9.5657987    10.304863    25.162194    40.235478 
71872000    287.20841    354.82843    285.06332   -10.621062    8.7410115    69.765112    40.236664 
71876000     279.5777    313.26278    294.07378   -10.496291    8.0768283    19.188999    40.235785 
71880000    276.62086    331.39056    258.36104   -10.747771    9.7428001    73.029518    40.237513 
71884000    271.65615    303.98131    292.71323   -10.223971    9.8894484    11.268078    40.235364 
71888000    266.28329    328.35373    268.33251   -11.194645    10.967209    60.021219    40.232427 
71892000    269.91856    315.97564    279.80555   -9.0347676    11.713435     36.17009    40.233582 
71896000    269.90746    317.72073    268.71049    -10.76784    11.444934     49.01024    40.235475 
71900000    271.25158    316.94622    292.71713   -9.5124685    10.326481    24.229084    40.232718 
71904000    278.07571    342.08843     287.5141   -11.443803    10.824186     54.57433    40.240051 
71908000    276.04225     325.6458    285.05827   -10.427596    10.314624    40.587531     40.23935 
71912000     273.1005    330.49582    274.81492   -10.458286    10.327063    55.680896     40.24216 
71916000    269.58131    311.44056    271.09418   -9.9189713    10.867282    40.346382    40.243993 
71920000    270.41566    308.72079     280.9473   -10.960378    10.194559    27.773486    40.244384 
71924000    271.53561    335.75781     273.8321   -11.027443    10.662789     61.92571    40.241295 
71928000    260.45125     295.0727    258.04665   -8.8899837    10.696531    37.026047    40.245515 
71932000    267.05245    321.56418    257.20933   -10.635566    11.221416    64.354851    40.248443 
71936000    267.97293    311.65864    282.36575   -10.830264    11.270096    29.292891    40.244796 
71940000    272.18214    315.68067    277.86876   -9.9357088    10.644862    37.811912    40.241852 
71944000    266.98902    316.18999    255.78554   -9.4933697    11.075176    60.404458    40.244436 
71948000    273.78493    326.31117    292.45061   -10.596549    9.6794221    33.860557    40.250095 
71952000    274.74901    338.52511    269.15387   -10.198874    10.836214    69.371235    40.252306 
71956000    276.06661    324.59319    291.48998   -9.6616093    9.8436754    33.103215    40.254526 
71960000    268.65984    300.86256     293.9505   -8.0053854    10.392001    6.9120637    40.252907 
71964000    272.99059    320.86267    279.04999    -9.160805    10.443325    41.812684     40.25431 
71968000     277.7274    317.36887    303.72781   -8.7621889    9.1048733    13.641064    40.259241 
71972000    264.46453    319.56736    271.80914    -8.820377     10.82002    47.758221    40.258477 
71976000    276.52059    323.15602    292.95532   -10.810328    10.677017    30.200695    40.258277 
71980000    269.31163    304.53903    296.28636   -8.5506427    11.086169    8.2526696    40.258342 
71984000    280.30187    335.33692    283.35405   -8.9566177    11.354853    51.982868    40.260048 
71988000     268.1708    333.61371    283.98658   -9.1827671     10.45447    49.627131    40.263178 
71992000    267.71297    321.41345    278.36064   -8.9749582    10.834628    43.052807    40.262188 
71996000    267.07261    320.24691    280.61722   -9.0493342    10.478132    39.629691    40.266141 
72000000    266.41659    307.52497    275.85254   -8.1552528    10.533329    31.672433    40.263906 
72004000    269.15384    317.78058    276.58932   -8.4036581    11.061714    41.191258    40.260934 
72008000    276.39871    340.83051    290.41086   -10.753452    11.070387    50.419647    40.260205 
72012000    263.70188    314.65515    284.16576   -9.5039314    12.017003    30.489392    40.258533 
72016000    269.50819    315.96035    282.70154   -10.116414    11.305295    33.258819    40.256126 
72020000    265.90718    316.69012    283.43594   -9.7694389    11.163684    33.254177    40.255927 
72024000    263.12121    297.92214    284.98275   -8.6144863     12.12447    12.939387    40.257276 
72028000    276.88985    336.46355    290.33325   -11.186634    11.600598    46.130298    40.256892 
72032000    261.88869    318.06946    274.34531   -9.0149676    11.651176    43.724154      40.2544 
72036000    269.49404    324.09484    275.22227    -9.509767    12.530276    48.872572    40.254118 
72040000    266.36346    314.13689    277.56526   -9.5760092    12.594897    36.571624    40.253174 
72044000    268.57831    311.48175    281.12976   -10.187733    11.638625    30.351992    40.252434 
72048000     277.2476    349.61149    279.13431    -12.12974    11.937775     70.47718    40.252888 
72052000     269.3997    322.55499    279.69971   -10.858431    11.812923    42.855287    40.254189 
72056000    266.43458    312.05573    266.79321   -8.8963848    12.876275     45.26252    40.258112 
72060000    264.99601    309.51793    279.74882   -8.4607586    11.399101    29.769115    40.258845 
72064000    277.77726    325.81156    293.72473   -9.3252049     11.70829    32.086826    40.265304 
72068000    269.75648    319.46307    282.36581   -9.9857119    11.981464    37.097255    40.264274 
72072000    273.27145    314.92879    287.78413   -9.4391136     11.92505    27.144667    40.259367 
72076000    269.09359    320.25697    265.54098   -9.8688654    11.755567    54.715992    40.265315 
72080000    270.16128    307.47577     283.0294   -8.6059741    11.627659    24.446374    40.261177 
72084000    272.67572    323.08333    279.41184   -11.187999    11.958171    43.671487    40.260315 
72088000    265.87046    313.57042    275.31523   -10.150734    12.187506    38.255189    40.259202 
72092000     268.8638    332.13708    277.63127   -10.689964    12.558742    54.505815    40.252553 
72096000    259.14205    276.19624    295.34899   -8.0100855    11.608218   -19.152745    40.249867 
72100000    265.77538    314.43548    267.09991   -8.8889333    12.570386    47.335573    40.249743 
72104000    269.12721    312.53593    272.67447   -11.763512    12.700354    39.861454    40.247026 
72108000    267.38674    317.41636    283.57098   -10.628298    12.405141    33.845384    40.244185 
72112000    270.22424    303.84808    307.39959   -8.9492866    11.515243   -3.5515067    40.244238 
72116000    265.23125    308.57423    276.50143   -8.9257496    12.748456    32.072801    40.238864 
72120000    274.81865    351.27819    292.63152   -10.771367    12.206716    58.646673    40.238104 
72124000    273.12646    338.99759    274.02561   -10.971668    12.012362    64.971978    40.240109 
72128000    274.79341    330.50761    289.19053   -9.7055232    11.121486    41.317077    40.242431 
72132000    270.29168    301.08346    291.90435   -10.092899    10.853851    9.1791111    40.243348 
72136000    267.13276    322.72516    264.56398   -10.745525    12.265314    58.161179    40.247542 
72140000    265.14671    302.23222    295.48573   -8.6181383    11.489077     6.746481    40.245851 
72144000    267.50473    299.01996    308.38038   -9.9235528     10.07424   -9.3604165    40.240411 
72148000    275.65508    329.33776    297.93493   -10.562853    10.738417    31.402825    40.237199 
72152000    268.42591    310.23815    281.21828   -8.9363115    12.761968    29.019868    40.241348 
72156000     271.7249    315.11015     290.5698   -9.8295739    11.530023    24.540347    40.242197 
72160000    281.34403    343.07702    299.82144   -10.982193    10.071781    43.255579    40.240617 
72164000     266.6879    302.82548    279.31606    -10.58572    12.078935    23.509424    40.243724 
72168000    275.04436    346.25497    283.94673   -11.918852    11.922961    62.308244    40.246252 
72172000     269.9523    336.15891    276.09866   -10.910662     12.35742    60.060254    40.244136 
72176000    273.51481    327.96681    288.97376    -10.96024    11.610407    38.993045    40.242989 
72180000    272.18567    346.05384    263.13568   -11.062317    12.875809    82.918165    40.243875 
72184000    277.79522    356.72639     277.7279   -11.883088    12.137081    78.998488    40.245049 
72188000    270.49044    316.59153    288.08026   -9.8243068    11.254632    28.511263    40.243997 
72192000    273.91458    323.73549    303.09483   -9.5581762    10.267149    20.640661    40.246812 
72196000    267.15078    315.79578    288.35436   -8.9221428    10.657975     27.44142    40.246465 
72200000    276.53263    333.40528    285.37511   -9.1823007    10.198171    48.030167    40.246477 
72204000    268.41819    316.08474    293.04012   -8.8591969    11.313234    23.044621    40.246127 
72208000    275.11912    340.86621    274.44435   -10.280621    12.963082    66.421859    40.246551 
72212000     268.9158       329.64    295.70383   -10.108016    10.603768    33.936176    40.249001 
72216000    265.39394    322.60012    299.09477   -8.9648572    11.608829    23.505358    40.247568 
72220000    262.39892    312.20385    273.57069   -9.5363004    12.571391    38.633159    40.249299 
72224000    270.70998    333.58882    280.65605   -10.666032    12.907823    52.932768    40.249453 
72228000    285.44943    332.44057    291.62058     -10.1473    11.146729    40.819994    40.248386 
72232000    276.68054     325.3538    281.69571   -9.7901195    11.210299    43.658098    40.249271 
72236000    270.83002    313.69538    282.22745   -10.333982    11.232106    31.467922    40.243802 
72240000    271.22429    327.77593     283.5752   -10.797158     12.22374    44.200731      40.2436 
72244000    272.43909    318.55878    296.02759    -10.82312    11.635603    22.531191     40.24889 
72248000    266.27844    296.77764    280.28543   -9.3489348    12.406437    16.492211    40.246396 
72252000    272.16937     307.5217    290.74134    -8.747829     10.63441    16.780357    40.252489 
72256000    262.84885    294.73863    274.15085   -9.1491015    11.710671    20.587779    40.248596 
72260000    267.03471    301.94275    278.84755   -8.9967555    11.099562    23.095201    40.248845 
72264000    273.63209    301.06286    308.71294    -9.724683    9.4740779   -7.6500741    40.247484 
72268000    265.64725    308.65076     267.9185   -8.0170145    11.406043    40.732254    40.244473 
72272000     274.8944    314.89548    284.32013   -10.104864    10.752894     30.57535    40.248404 
72276000    274.77261    313.77765    276.03414    -9.669685    10.902982    37.743507    40.251625 
72280000    277.72003    330.05289    290.85421   -9.8954699     10.53389    39.198681     40.25248 
72284000    279.88415    328.51222    302.49508   -10.083751     10.54278    26.017136    40.249907 
72288000    266.63894    306.02255     271.1508   -9.5920099    12.231152     34.87175    40.249552 
72292000    267.31862    290.73934    290.87419   -8.7422209    11.125774  -0.13484974    40.253284 
72296000    268.04392     312.5689    271.63058   -10.178955    11.913669    40.938322    40.256196 
72300000    275.70278    344.79912    267.97843   -12.202616    11.338272    76.820686    40.254216 
72304000    265.59784    292.90544    270.86958   -10.267403    11.276076    22.035857    40.254366 
72308000    268.71276      316.622    257.43981   -10.358751    11.854091    59.182194    40.259384 
72312000    286.55702    341.50424    289.04893    -10.69213     10.30723    52.455304    40.258592 
72316000      281.755    337.64896    274.26557   -11.537862    10.343652    63.383387     40.25533 
72320000    275.92136    324.77307    281.51153   -10.447545    11.031825    43.261546    40.257574 
72324000    270.96063     328.2267    267.06079   -11.571709    12.528856    61.165915    40.256729 
72328000    277.06279    332.88582    284.67928   -10.325925    10.400784    48.206541    40.253824 
72332000    277.22604    312.71755    289.07834   -10.155271    10.581623    23.639213     40.24991 
72336000    275.41143    325.93762    294.95255   -10.306952    9.1910825    30.985071    40.249618 
72340000    276.91399    326.37137    280.59462   -10.229344    10.298743    45.776752     40.24938 
72344000    273.42487    335.45808     275.8646   -11.805816    11.239437    59.593475    40.253206 
72348000    271.35089    315.90719    263.16429   -10.533181    11.510224    52.742902    40.252537 
72352000    271.07196    324.04911    269.03995   -9.5410464    9.9298027    55.009159    40.247623 
72356000    276.20011    315.10605    285.03683   -10.707565    9.2601772    30.069222    40.246032 
72360000    276.14289    338.10189    267.43389   -11.621158    10.185726    70.667999    40.248035 
72364000      276.672    314.49233    285.95202   -10.796932    10.048309    28.540307    40.244829 
72368000    272.52245    334.53158    265.37707   -11.484417    10.902665    69.154509    40.242762 
72372000    272.59134    304.63136    266.83634   -8.7601956    11.429908    37.795023    40.244129 
72376000    269.88011    312.80458    272.45828   -9.3894408    10.106982      40.3463    40.248313 
72380000    290.88662    336.07696    299.78045   -10.976434     8.700059    36.296502    40.247112 
72384000    287.88002    345.41328    303.30306   -11.585778    7.5833823    42.110218    40.246414 
72388000    276.25906    321.41874    284.61025   -10.717795    8.8618113    36.808494    40.245406 
72392000     279.2294    341.99995    280.98213   -11.024861    9.3070128    61.017812    40.245944 
72396000    278.45206     311.8228    291.47914   -10.210233    9.4440791     20.34366    40.244124 
72400000    278.58886    322.16318    277.27724   -10.444982    10.533966    44.885945    40.244613 
72404000    274.17829    302.85886    281.35004    -10.62989    10.342139    21.508824    40.240847 
72408000    284.20654    333.36821    303.21078   -10.181117     10.04744    30.157429    40.233932 
72412000    268.65336    313.65987    254.87981   -9.7637981    11.996886    58.780059    40.238644 
72416000    281.86673    347.27792    299.58183   -11.671247    9.5534987    47.696093    40.237306 
72420000    272.92978      313.541    274.86817   -10.624839    11.773789    38.672829    40.238825 
72424000    275.89231    329.23295    270.87388   -10.999981    10.811072    58.359063    40.238731 
72428000    284.22262      337.697     290.2604   -11.676884    8.8862451    47.436592    40.239596 
72432000    286.24961    335.04725    298.51484   -11.852044    7.5835534    36.532404    40.243722 
72436000    283.81244      339.911    289.66241   -12.557465    9.4343744    50.248593    40.244173 
72440000     280.1825    315.02302    297.45543   -10.245591     9.863814    17.567585    40.243356 
72444000    278.58056    320.17231    287.00997   -10.316783    10.728438    33.162332    40.242895 
72448000    272.38278    295.25761    280.55536    -9.995696    10.348393    14.702243     40.24082 
72452000    275.65856    322.18338    279.69162   -11.828407    10.109973    42.491763    40.242316 
72456000    266.36854    303.21073    263.48122   -10.408881    10.630687    39.729507     40.24309 
72460000    278.69914    318.43751    292.37824   -10.643402    9.1404723    26.059276    40.244233 
72464000    271.36642    330.79741    267.19726   -11.004083    10.393596    63.600147    40.241682 
72468000     262.6771    310.66805    258.32682   -10.630632    11.536021    52.341237    40.246749 
72472000    274.41492    307.18318    280.07405   -10.346741    9.8995461    27.109126    40.246853 
72476000    281.80002    321.71974    304.56549   -10.392813    8.1260341    17.154254    40.241782 
72480000    268.71532      295.417    277.29077   -9.0407828    10.077074    18.126229    40.244854 
72484000    275.03366    318.58275    280.28086   -10.212468    9.1015934    38.301888    40.240958 
72488000    275.62521     340.2932    268.25668   -10.792295    9.2575218    72.036526    40.241962 
72492000    267.08934    293.50513    280.61556   -9.7450321    10.816104     12.88957    40.245399 
72496000    285.77441    321.42677    305.01135   -10.457915     8.973254    16.415417    40.243555 
72500000    273.88979    318.51871    277.91024   -9.8065606    9.8008231    40.608471    40.238434 
72504000    274.03814    310.79354    273.39074   -10.118367    10.642298    37.402805    40.241319 
72508000    284.62336    342.34456    288.23932   -10.674509    9.6451241    54.105235     40.24252 
72512000    273.89723    302.73756    296.58578   -8.6200062    9.7441181    6.1517835    40.242659 
72516000     274.3977    312.79474    291.64755   -9.3496815    9.4720718    21.147194    40.239343 
72520000    271.81881    312.88551    295.26203   -8.5226553    9.6621036    17.623475    40.239876 
72524000    273.68991    344.64712    273.97577   -10.891839    9.9034336    70.671359    40.240369 
72528000    284.54721    337.03535     295.1291   -9.8885779    9.4440345    41.906255    40.238239 
72532000     278.5378    311.10315    292.75569   -8.6845931    10.181505    18.347462    40.235502 
72536000    277.36997    330.41267     285.1977   -9.0151467    9.1309164    45.214966    40.234675 
72540000    269.73358    288.27563    282.56924   -8.5963016    9.7339609    5.7063909    40.235615 
72544000    271.17525    309.68117    280.87632     -8.34109    10.316648    28.804845    40.235958 
72548000    273.62864    309.61119    290.87695    -9.103426     10.44251     18.73424     40.23531 
72552000    277.04751    334.90641    265.41698   -10.354196    11.308113    69.489427    40.239091 
72556000    268.52391    303.21959    273.97837   -9.0867236     9.309972    29.241214    40.235429 
72560000     279.5637     330.2268    279.41061   -10.209721    9.2403423    50.816182    40.233893 
72564000    275.81788     334.0261    261.64904    -10.20629    10.402345    72.377058    40.236295 
72568000     276.6773    328.80164    283.09898   -9.8396475    8.2097993    45.702656    40.238706 
72572000    282.34265    317.12722    288.41472    -10.98202    9.3417111    28.712497    40.240056 
72576000    286.57097    315.81358    301.55678   -9.5206857    8.9004788    14.256798    40.240989 
72580000    281.83214    323.54415     295.0834   -11.014486    8.1249842    28.460751    40.240413 
72584000    272.21555    310.96703    262.57252   -9.5951111    9.6189061    48.394509    40.239249 
72588000    277.03749    320.13373    277.74761   -9.5177102    9.0250979    42.386123    40.237775 
72592000    272.71577    314.43721    273.63166   -9.2842706    9.9707532    40.805559    40.234707 
72596000    269.24814    322.59158    267.02151   -9.5446483    10.921748    55.570069     40.23483 
72600000    273.88877    311.99681    264.53231   -10.024514    9.6773304    47.464494    40.236827 
72604000    271.20893     309.8077    270.51594   -10.034718    9.5273062     39.29176    40.234513 
72608000    273.09904    323.06745    296.14294   -11.361801    8.4610063    26.924502    40.233856 
72612000    283.02064    315.71963    287.58475   -11.983114    9.7087209     28.13488    40.230668 
72616000    274.97629    310.52539    282.16777   -11.576675    9.6752119    28.357614    40.228917 
72620000    277.14919    319.08094    275.74475   -10.763238    10.350006     43.33619    40.229698 
72624000    270.61275    307.39214    271.58455   -10.247732    10.662123    35.807595    40.233554 
72628000    281.12657    316.93199    296.88931   -11.302378    9.4705512    20.042676    40.231856 
72632000    282.02685    318.45442    290.45394    -11.17291    8.9992467    28.000481    40.237631 
72636000    275.13106    327.49708    273.11278   -11.771197     10.46501    54.384296    40.236255 
72640000    276.67614    323.74068     279.7786   -10.887047    9.9709339    43.962083    40.234013 
72644000    269.91678    316.33408    264.38115   -9.3739182    10.976226    51.952937     40.23194 
72648000    273.70734    336.26154    281.15948    -10.91301    11.096232    55.102064    40.232647 
72652000    269.45887    298.35105    270.16607    -9.733548    10.989777    28.184978    40.232577 
72656000    280.94189    322.18482     293.5546   -11.333286    9.3199305     28.63022    40.233107 
72660000    271.38689    306.27339    282.47033   -10.949136     10.47034    23.803065    40.233967 
72664000    271.41026    308.89444    263.31414   -10.015385    10.769541    45.580297    40.233974 
72668000    268.94338    323.37513    264.11694   -11.801883    10.627544    59.258185    40.230416 
72672000    270.14908    311.96233    280.39518   -11.015557    10.245463    31.567141    40.231149 
72676000    272.65741    312.05917    273.08866   -10.127898    10.999738     38.97051    40.229316 
72680000    266.72212    309.25261    256.38863   -10.995107    10.780956    52.863977    40.228874 
72684000    269.15819    300.29961     260.1023   -9.7135854    10.846585    40.197308    40.226679 
72688000      280.213    326.84387    287.55889   -11.242978    9.9127261    39.284978    40.228993 
72692000    282.94672    346.99097     295.4966   -12.103051    10.685031    51.494372    40.228214 
72696000    281.16231    315.57954    297.89631   -10.857948    10.506258    17.683228    40.229472 
72700000    274.89808    310.64251    281.43624    -10.30456    11.494773    29.206272    40.230093 
72704000    276.62846    305.91432    283.49207   -10.287263    11.628561    22.422245    40.228227 
72708000    278.55296    314.77188    294.71802   -10.853471    10.908911    20.053861    40.225867 
72712000    275.79249    324.43998    293.70129   -11.512799    10.012562    30.738683    40.220922 
72716000    286.34313    325.30447    290.55764   -12.360781    9.5821884    34.746834    40.222356 
72720000    275.11489    315.73185    278.88292   -13.576554    10.041099    36.848939    40.221708 
72724000    288.54199    355.88381    280.24793   -13.477797    10.667724    75.635883    40.224535 
72728000    288.32617    338.60323    287.67509   -13.164029    9.6883586    50.928136    40.223899 
72732000    279.99846    326.76107    300.31337   -12.058595    10.508019    26.447694    40.223781 
72736000    273.20463    298.13882    285.85503   -10.605788    10.258357    12.283788    40.220632 
72740000    282.44474    322.53296    286.36077   -11.524047    9.1208788    36.172185     40.21785 
72744000    275.42955    313.93281    261.81118   -11.954371     10.75997    52.121633    40.220468 
72748000    286.27816    331.51661    288.15475   -11.794044     10.11537    43.361857    40.219663 
72752000    280.57473    320.32453    293.33341   -11.729162     11.13339    26.991116     40.21649 
72756000    271.79083     328.2879    252.69677   -11.317493    12.111412    75.591135    40.215858 
72760000    277.76163    329.09197    283.57762   -10.747077    12.010434     45.51435    40.214169 
72764000    274.36777    306.09458    284.69548   -10.512504    10.552981    21.399099    40.214707 
72768000      278.149    341.88811    292.06527   -12.022541    9.7298309    49.822844    40.214548 
72772000    281.84896    326.20887    298.05462   -12.414716    9.8806838    28.154252    40.212954 
72776000     276.6839    320.01101     276.9722   -11.949656    11.404797    43.038802    40.209634 
72780000    275.63081    310.86103    304.00452   -12.774293    9.1479683    6.8565142    40.209338 
72784000    259.47318    298.32486    276.17587   -11.591532    11.237673    22.148985    40.205893 
72788000    263.60162    298.41813    262.90028   -10.976066    11.509218    35.517855    40.204303 
72792000    277.96087    329.67624    265.12896   -12.411248    10.523968    64.547287    40.207372 
72796000    272.52234    296.31847    276.96064   -11.285321     11.44479    19.357835     40.20953 
72800000    286.32954    355.28252    277.15532   -13.161331    11.443827    78.127198    40.207756 
72804000    276.35105    332.94561    270.91613   -12.410304    11.113825    62.029485    40.204667 
72808000    274.86416    332.17644    276.07061   -13.966446    11.347802    56.105829    40.204342 
72812000    269.54241    312.23057    270.20465   -12.973574    12.154634    42.025921    40.204612 
72816000    278.74442    317.58308    279.15575   -11.552362    10.806194    38.427327    40.202972 
72820000    277.65074    334.94313    287.96647   -11.834789     11.48215    46.976658    40.204114 
72824000    288.95671    356.52859     296.8812   -13.896615    10.399962    59.647395    40.204335 
72828000    276.97608    328.30884     273.1145   -13.181969    12.000098    55.194343    40.204895 
72832000    277.84389     333.9736    286.53923   -13.383072    11.392598    47.434374    40.200747 
72836000    278.96496    318.44063    283.26302   -12.507554    11.412808    35.177616    40.199739 
72840000    277.34652    320.31637     294.2479   -11.970102    11.294696    26.068475    40.199606 
72844000    283.49397    318.78058    284.74846   -13.886312    11.385221    34.032125    40.197226 
72848000    281.76339      332.497    288.21187   -14.320565    10.277672    44.285129    40.199123 
72852000    271.27517    329.39581     258.1435    -13.29082    12.700605    71.252317    40.200978 
72856000    274.51098    308.81949    295.04533   -10.851041     10.27962    13.774169    40.202295 
72860000    275.42437    328.07216    275.45652   -11.500396    11.374227    52.615631    40.205195 
72864000    284.13724    344.01761    294.33261   -11.739586    11.960665    49.684994    40.203914 
72868000    264.85731    288.37572     278.7056   -10.192009    13.770493     9.670112    40.202539 
72872000    276.47707    351.07997     261.2773   -13.760142    13.837686    89.802665    40.200025 
72876000    282.67357    340.66379    291.03228   -13.820815     12.32672    49.631511    40.203096 
72880000    278.03126    334.48864    289.77347   -13.593352    12.603537    44.715177    40.204272 
72884000    275.72429    334.62648    282.24341   -13.134695    12.772998    52.383068    40.207722 
72888000    268.74488    312.49799    268.39478   -12.737732    13.747458    44.103208    40.210076 
72892000    271.98899    333.65941    285.47055   -13.869607    12.317966    48.188864     40.21271 
72896000    275.66882    327.76622    279.81407   -13.486825    12.464547    47.952151      40.2135 
72900000    270.39868    312.88725    270.82377   -13.321625    13.652863    42.063482    40.213335 
72904000      273.237    322.72594    287.35364   -13.908336     12.26509    35.372305    40.213551 
72908000    280.98777    310.12283    305.65246   -12.572065    10.546147    4.4703722    40.211543 
72912000    274.67498    312.98268     299.7261   -12.186115    12.638504     13.25658    40.205295 
72916000    268.27484    323.29672    266.49809   -14.109911    12.738548    56.798626    40.206102 
72920000    273.18996    325.72656     262.5855   -13.347389    12.461463    63.141058    40.204355 
72924000    280.90657    338.35866    272.09125   -13.398064    12.673044    66.267407    40.205227 
72928000    281.08319    331.15396    280.85021   -13.898569    12.910464    50.303747    40.208424 
72932000    270.38005    314.20258    270.91021   -11.322596    12.937668    43.292375    40.206062 
72936000    275.57985    325.93804    279.26526   -13.180375    12.711354    46.672777    40.202136 
72940000    271.44868    317.48895    258.82544   -12.481679    13.475862     58.66351    40.202626 
72944000    270.14914    317.92203    267.44968   -11.974826    13.993199    50.472342    40.203543 
72948000    272.65355    331.35875    269.35068   -13.040788    12.302259    62.008076    40.204681 
72952000    264.15758    308.36373    262.26804   -11.169338    12.871765    46.095687    40.205127 
72956000    278.27302    319.20569    288.63418   -11.892814    11.335841     30.57151    40.202758 
72960000    265.79907    314.43547    273.45681   -11.315983    12.559973    40.978657    40.203105 
72964000    274.71806    331.04543    272.69557   -13.779335    12.284724    58.349861    40.205046 
72968000    270.51823    309.93285    263.38132   -12.509736    12.865922    46.551523     40.20419 
72972000    275.68572    325.67589    277.15979   -12.148592    12.828879    48.516099    40.205082 
72976000    271.10152    320.11631    285.86171   -11.143882    12.083482    34.254593    40.201489 
72980000    277.73241    325.14173    263.97867    -12.52478    13.847514    61.163059    40.201522 
72984000    270.06624     320.4805     271.5816   -12.121759    14.106272    48.898904    40.201264 
72988000     276.1367    309.44679    302.42906   -10.524459    12.175025    7.0177297    40.201135 
72992000    277.54125    313.93313    285.04269   -12.144352    13.198048     28.89044    40.197405 
72996000    281.32865    317.93421    293.71625    -12.20148    12.523378    24.217961    40.195847 
73000000    275.75734    298.16756    280.78713   -12.544067    12.717009    17.380433    40.195133 
73004000    277.79651    311.66006    291.99968   -13.514457    12.425747    19.660382    40.194023 
73008000     273.2893    329.59714     280.0253   -13.043584    13.800106    49.571841    40.199061 
73012000    281.82429    316.09794    283.30315   -14.271501    13.125619    32.794789    40.199154 
73016000    278.51496    313.47145    296.06807   -12.775227    12.173312    17.403375    40.203788 
73020000    272.12728    319.18499    280.62816   -13.263974    12.471685     38.55683    40.200389 
73024000    268.97429    320.86779    280.11818    -13.80204    13.586361    40.749609    40.197763 
73028000    279.73989    341.56483    276.05165   -14.527289    13.166221     65.51318    40.196678 
73032000    281.50229    358.49673    279.40537   -13.922412    13.872118    79.091365     40.19652 
73036000    272.65355    325.94206    270.12399   -12.783552    13.184843     55.81807    40.196914 
73040000    275.53333    329.83173    274.19944   -13.148245    12.812736    55.632291     40.19477 
73044000    264.81274    301.20123    270.66037   -11.268365    14.184904    30.540864    40.192776 
73048000     270.9432    302.94682    296.68168   -11.780757    11.591213    6.2651453    40.196609 
73052000    279.52166    322.59906    285.23541   -12.898669    12.114529    37.363653    40.197117 
73056000    270.69312    306.82085    278.44829    -11.50354    12.467131    28.372561    40.197569 
73060000    261.44838    300.13341    282.26834   -10.756435    13.379707     17.86507    40.194644 
73064000    276.99878    325.27858    282.98699   -13.021867     13.44972    42.291595     40.19163 
73068000    275.31255    333.50119    283.42061    -13.41102    12.539094    50.080586    40.192422 
73072000    271.86205    315.91609    280.98444   -11.972654    13.947475    34.931646    40.195425 
73076000    266.28062    310.19098    280.45704   -11.612809    12.549869    29.733931    40.190461 
73080000    274.74468    347.59003    278.25864   -13.754355    14.016967    69.331391    40.195018 
73084000     273.2375    318.62675    282.45508   -11.599438    13.126463    36.171669    40.200772 
73088000    266.09757    305.39555    284.83127   -10.646563    13.776716    20.564285    40.198131 
73092000    269.19879    288.72508    287.20003   -9.5109525    13.678883    1.5250497    40.196314 
73096000    265.86651    292.97035    278.57768   -10.045278    12.870081    14.392672    40.196402 
73100000    271.90511      323.395     286.8305    -12.11692    13.261083    36.564492    40.196912 
73104000    264.48646     281.8056    276.05605   -10.380007    12.477143    5.7495523      40.1965 
73108000    261.29631    297.88143    266.77962   -11.707814    15.225041    31.101803    40.192616 
73112000    268.88586    330.56393    276.10171   -13.483362    13.246776    54.462229    40.195432 
73116000    269.43177    309.74136    281.18384   -11.637089     12.77479    28.557519    40.193339 
73120000    268.05458    307.58636    269.30454   -11.778692    13.231645     38.28182    40.192992 
73124000    273.08791    321.69647    267.09428   -13.249355    12.592772    54.602191    40.192116 
73128000    275.24467    304.28042    287.46813   -12.605642    13.104781    16.812283    40.192455 
73132000    278.94074    333.17328    305.75097   -12.698256    11.498216    27.422313    40.191371 
73136000    273.21149    322.43516    280.19039    -12.37497    13.281731    42.244778    40.191467 
73140000    271.52981    312.27213    275.35434    -11.89435    12.775795    36.917786    40.188354 
73144000    271.62662    329.93181    252.49485   -12.849664    15.009261    77.436964    40.185255 
73148000    266.66038    299.80023    282.77557    -12.26724    13.826472    17.024654    40.182532 
73152000    269.28217    319.06508    282.73348   -12.015588    14.153984    36.331604    40.177552 
73156000    271.27462     314.3984    285.60971   -11.052938    13.181272    28.788693    40.175301 
73160000    276.51576    330.63043    288.04004   -11.917522    12.704998    42.590394    40.174217 
73164000    269.13168    310.40916    287.07924   -11.194953    14.107133    23.329923    40.175212 
73168000    278.46462    334.41638    288.11156   -11.368387    13.886604    46.304817    40.176095 
73172000    267.39003    327.87836    261.59705    -12.54066     14.61823    66.281314    40.176631 
73176000     274.4041     330.8366     288.8591   -12.888143    13.665141    41.977507    40.177978 
73180000    267.72387    315.15252    281.33971   -10.938097    15.091092    33.812812    40.182564 
73184000    269.70094    342.70334    277.51224   -12.667801    14.695722    65.191103     40.18445 
73188000    267.41789    310.90849    291.47917   -10.348195    14.391167    19.429324    40.184325 
73192000     280.6472    348.50851    316.77729   -11.689467    12.150314    31.731226    40.188451 
73196000    264.71392    320.33188    279.45999   -11.324733    13.755413    40.871888      40.1873 
73200000    261.62362    319.54691    274.27543   -12.209705    12.952319    45.271479    40.188831 
73204000    266.52956    326.37966    263.44613   -11.842579    13.503731    62.933528    40.189898 
73208000    260.92975    321.05034    275.44607   -11.072792    13.913146    45.604262    40.190545 
73212000    265.93381    314.92356     272.1697   -12.618524    12.756657    42.753865    40.189434 
73216000    266.90885    322.62599    275.82272   -11.367233    13.989586    46.803266    40.185173 
73220000    267.04239    311.34282    280.72783   -11.718285    14.329056    30.614989    40.186552 
73224000    262.46979    311.70025    277.94551   -10.621732    15.019652    33.754742    40.184121 
73228000    264.15288    319.18836    265.68765   -11.559068    14.999222    53.500714    40.181585 
73232000    265.24688     309.9124    280.70866   -10.712956     14.80368    29.203742    40.181473 
73236000    270.08794    317.97292    294.34945   -12.341618    14.653241    23.623477    40.181484 
73240000    270.96239    318.67512    284.62121   -11.281853    13.511687    34.053911    40.175544 
73244000    272.42231    321.68984    285.68585   -11.957816    13.060809    36.003984    40.176613 
73248000    266.12647    317.08709    288.40721   -11.456396    12.962376    28.679881    40.177591 
73252000    262.30395    301.30572    284.01021   -11.334973    12.482415    17.295507     40.17673 
73256000    266.26955    326.27094    274.23346   -11.327354    14.229648    52.037484    40.177677 
73260000     264.3797    300.12984    293.94293   -11.084049    12.693756    6.1869016    40.180675 
73264000    261.54243     318.1488    257.10634   -11.459278    15.674691    61.042463    40.183736 
73268000    269.81599    342.74339    277.95119   -12.450104    13.852995    64.792198    40.185221 
73272000    267.01383    333.81401    268.34612   -11.436023    14.306063    65.467891    40.188359 
73276000    275.73128    349.69818    280.22294   -13.617863    14.008471    69.475244     40.18886 
73280000    260.73512     313.0958    274.19265    -10.78806    14.738328    38.903159    40.188608 
73284000     257.1873    308.39113    253.39404   -11.268514    15.958358    54.997094     40.18826 
73288000    268.06756    323.45388    284.09862   -11.498395    14.783525    39.355256     40.18951 
73292000    271.03116    325.31383    290.64235   -11.312166    13.309858    34.671479    40.189171 
73296000    267.11199    322.25564    271.84254   -12.411076    15.242745    50.413092    40.188799 
73300000     260.9718    320.05732    266.77213   -12.339541    14.598914    53.285192     40.18991 
73304000    268.12459     337.5574    275.18451   -12.478052    15.359362    62.372893    40.191245 
73308000    271.29657    332.22208    280.36631   -12.122212    15.056708    51.855776    40.190773 
73312000     267.4354    330.30084    282.40762   -11.837474    14.225358    47.893216    40.193882 
73316000    266.42833    307.89777    269.82407   -11.519312    14.984407    38.073701    40.190435 
73320000    265.55179     306.3831    293.85895   -11.414078    13.666438    12.524159    40.190434 
73324000    264.41994    313.67513    284.39453   -11.834967    15.255264    29.280602    40.188329 
73328000    268.53071    349.21151    270.52972   -13.266564    15.087309    78.681784    40.188077 
73332000      277.085    347.53224    284.41827   -12.308453    13.775862     63.11397    40.189584 
73336000    272.94794    342.78369    284.89296   -12.295315    13.902734    57.890735    40.186927 
73340000    267.67473    308.78896    273.11342   -11.129851    15.365589    35.675536      40.1903 
73344000    276.85597    350.93788    281.07508   -11.316597    13.696388    69.862795    40.191105 
73348000    271.36187    306.29004    299.04048   -9.3921355    13.067234    7.2495545    40.189408 
73352000    255.40737    319.41152    265.24181   -10.127369    15.251409    54.169708    40.186172 
73356000    267.40647    325.23558    267.06881   -11.168338    14.353834    58.166777     40.18367 
73360000    263.89247    318.18731    273.99787   -11.529675    14.778079    44.189442    40.184365 
73364000    270.96625    332.52707    287.43782   -10.486623     13.28688    45.089242    40.182558 
73368000     263.6744    318.59928    271.03951   -10.635176    13.917206    47.559769    40.182794 
73372000    272.98112    347.36992    294.22633   -11.268064    13.242913    53.143586    40.185638 
73376000     260.4585    327.03777      261.708   -10.062716    15.298474    65.329769    40.185627 
73380000    270.39591    338.15277    284.48282   -10.266771    14.396261    53.669954    40.182276 
73384000    263.14819    328.56512    262.90949   -9.5471081    13.887348    65.655623    40.179652 
73388000    264.19953    321.42564    272.27601   -9.5613779    13.299228    49.149636    40.180323 
73392000    260.65884    315.38997     272.8103   -9.7014481     14.17324    42.579668    40.181319 
73396000    257.83837    301.60827    261.86955     -9.52629    14.933406    39.738717    40.181277 
73400000    263.49498    292.15121     308.8122   -8.2993949    12.423479   -16.660991    40.178689 
73404000    261.32164    299.54411    287.18579   -9.3294438    14.868301    12.358319    40.179296 
73408000    271.45112    303.81712     304.4558     -10.5537    13.294577  -0.63868425    40.176248 
73412000    266.29089    355.42702    278.79329   -11.948293    15.605789     76.63373    40.175557 
73416000    269.50534    354.57929    281.37769   -12.559248    13.929175    73.201598    40.179922 
73420000    268.83782    317.55111     295.7171   -10.614009    12.715572    21.834009    40.176757 
73424000    264.56967    322.89875    283.34263   -10.913009     13.13439    39.556119    40.176046 
73428000     266.3728    312.85147    283.22688   -11.178222    15.014464     29.62459    40.173816 
73432000    269.61413     335.2347    283.19275   -12.586554    14.235971    52.041949     40.17385 
73436000    264.83299     321.5566    276.36917   -11.194338    14.463335    45.187428    40.173468 
73440000    265.37435    335.69937    259.99807   -12.517335    14.121026    75.701306    40.172174 
73444000    269.86314    335.38368    280.32492   -11.925617    14.980139    55.058757    40.172822 
73448000    269.35692     344.8784    282.37936   -12.011893     15.15897    62.499039    40.171789 
73452000    265.54661    316.60318    282.77936   -10.147273    14.076794    33.823823    40.171034 
73456000    263.87205    331.59312    256.44621   -11.271276    15.173896    75.146905    40.168612 
73460000    268.57746    326.32608    300.60629   -10.638744      13.3936    25.719788    40.169615 
73464000    265.67085    314.14343    283.24981   -10.408028    14.098714    30.893626     40.16851 
73468000    272.92106    334.55621    274.47807   -12.436112    14.059006    60.078142    40.171357 
73472000    270.39146    315.25596    278.28171   -11.179203    13.965475    36.974257    40.169272 
73476000     271.5826    307.54896     288.8849   -11.877542    13.287537    18.664058    40.166329 
73480000    272.92443    315.86484    279.70789    -11.29099    12.910033    36.156956    40.169812 
73484000    274.52513     318.5594    284.54926   -12.219527    12.423258    34.010139    40.169077 
73488000    268.48955    311.18325    273.84927   -11.612707     13.98216    37.333973    40.167361 
73492000    271.38147    330.28047    280.52434   -12.722711    13.492299    49.756125    40.166932 
73496000    274.57007     310.4897    280.98578   -12.490725     14.06674    29.503916    40.167768 
73500000    269.55151     304.7793    281.77028   -11.400944    12.950385    23.009014    40.163078 
73504000    269.11111    309.69687    273.50526   -11.641556    14.444945    36.191611    40.164363 
73508000    272.48145    309.98742    304.11305   -12.340386    13.433687    5.8743719    40.164861 
73512000    277.41963    319.08769    297.97868   -11.525894    12.918332    21.109005    40.167314 
73516000     273.5619    330.37955    284.91022   -11.978836    13.437791    45.469331    40.164936 
73520000    275.01053    353.20895    278.64515   -12.863061    13.457606    74.563802    40.169132 
73524000    267.96826    317.15847    282.26716    -11.98555    12.801275    34.891313    40.167542 
73528000    271.90355    308.98596    288.84869   -12.506061    12.451881    20.137278    40.167707 
73532000    276.97275    321.96075    283.51002   -12.650164    12.562149    38.450729    40.166722 
73536000    280.40927    340.78193     292.3966   -12.725817    12.361788    48.385329    40.164219 
73540000    278.05753    318.35759    288.40324   -12.168295    11.280615    29.954346    40.163597 
73544000    275.60498    321.90562    265.27531   -13.461806    12.990753    56.630303    40.160469 
73548000    279.12693    330.47948    296.70304    -12.17006    11.271083    33.776438    40.158574 
73552000    274.74739    315.36445    286.21967   -13.101363    12.704179    29.144782    40.161959 
73556000    268.65662    305.23493    281.14905   -13.016136    12.688869    24.085886    40.160207 
73560000    279.95277    341.50644     283.4235   -14.248792    12.414932    58.082945    40.157748 
73564000    278.08156    319.25018    284.24645   -12.586403    12.053702    35.003728    40.155548 
73568000    284.15685    322.56858     303.8671   -13.010201    11.578026    18.701488    40.156569 
73572000    275.38179    317.73976    278.86444   -11.727891    14.371664    38.875318     40.15753 
73576000    271.07302     321.5127    274.33929   -12.449712    13.616227    47.173404    40.156924 
73580000    273.70508    304.48782    293.87694   -11.448331    12.380886    10.610882     40.15512 
73584000    264.76342    315.56783    281.73934   -11.737804    13.296449    33.828487     40.15547 
73588000    271.61844    327.12112    263.27135   -12.811676    15.059264    63.849769    40.153729 
73592000    268.57239    311.74324    281.58332   -12.746519    14.466887    30.159918    40.152252 
73596000    279.60921    344.49148    275.18666   -13.710403    15.003268    69.304819    40.151526 
73600000     275.2791     317.9605    281.68308   -13.534406    13.404269    36.277423    40.152323 
73604000    262.66887    315.91854    271.19615   -11.465876    13.809041    44.722386    40.150239 
73608000    264.41452    304.28109    257.73341   -12.596109    14.663362    46.547674     40.15131 
73612000    263.91115    300.77276    295.25246   -11.302927    13.842924    5.5202963    40.149014 
73616000    275.91633    320.61967    306.97811    -12.54791    12.723202    13.641554    40.150945 
73620000     276.5447    333.34764    275.43155   -14.354108    12.877457     57.91609    40.152345 
73624000     273.4266    310.52178    289.84093   -13.451706    12.754258    20.680848    40.151098 
73628000    276.08705    334.48403    274.21656   -14.455358    13.933242    60.267473    40.150147 
73632000    272.36178    332.65666    268.51526   -13.393231    14.827922    64.141398     40.15426 
73636000    272.89308    333.21808    278.33001   -13.926025    13.785443    54.888077    40.155151 
73640000    276.71973     324.2111    279.29994   -12.166245    12.896415    44.911164    40.157723 
73644000    273.80795    325.94612    266.85237   -12.859961      12.9059    59.093753    40.160101 
73648000    278.38291    330.41207    285.24274   -12.737068    12.338121    45.169327    40.160313 
73652000    271.17174    309.24592    274.52816   -10.996192    14.028311    34.717759    40.157531 
73656000    275.82731     333.5494     308.4137   -13.800531    12.692079      25.1357    40.155551 
73660000    269.49488    328.82499    275.93573   -12.621213     13.81775    52.889262    40.158585 
73664000    279.00176     311.8685    304.69412   -12.651636    12.213641    7.1743796    40.158914 
73668000    273.17687    327.61061    290.36172   -12.829193     13.49624    37.248885     40.15758 
73672000    271.87727    300.02985    290.72821   -12.637571    14.135667    9.3016429    40.156511 
73676000    270.57955    307.96956    288.49534   -11.796076    12.949964    19.474213    40.152791 
73680000    273.69919    314.96816    292.79592    -11.57918    12.952296    22.172237    40.152972 
73684000    273.10849    319.99259    286.81101   -12.498746    14.589039    33.181582    40.155329 
73688000    260.13774    304.01008     264.8772    -12.39987    15.563199    39.132884    40.154243 
73692000    271.43265    318.15277     283.1989   -12.898835    13.734887    34.953872    40.153548 
73696000    273.76955    320.03858    296.62064   -12.014361    13.248009    23.417935    40.150203 
73700000    279.80333    312.94639    298.21004   -12.433881    13.217038    14.736344    40.151161 
73704000    279.52304    319.23921    298.42624   -11.923934    12.922271    20.812972    40.151526 
73708000    273.24056    307.53719    295.67227   -12.875895    12.701018    11.864925     40.15083 
73712000    281.82613    331.21936    311.98369   -13.023649    12.123827    19.235673    40.150101 
73716000    275.76144    322.51913    282.57689   -13.154854    13.688042    39.942239    40.148985 
73720000    276.21791    330.82726    268.50418   -14.065543    14.962316    62.323085    40.149956 
73724000    272.75875    320.61773    282.81961   -13.877653    13.168005     37.79812    40.152027 
73728000    275.73547    329.43595    278.91663   -14.347732    13.909792    50.519318    40.151838 
73732000    283.19483    317.87428    288.25999   -14.476414    12.537436    29.614285    40.152121 
73736000    274.23754     330.8621    265.86408   -13.143951    13.258706    64.998021    40.152055 
73740000    276.08278    319.45068    287.20477   -13.818795    12.516771    32.245906     40.15144 
73744000    269.15192    305.42939    267.81941   -13.460035    14.394965    37.609979    40.150065 
73748000    289.05208    324.96157    311.54907   -14.047026    11.460174      13.4125    40.150376 
73752000    280.42104    314.50545    302.31563   -13.834565    13.491749    12.189812    40.151821 
73756000     277.3057    319.07498    273.63814    -13.90881    14.361067    45.436835    40.154955 
73760000    276.70281    305.05519    284.44769   -13.191317    12.749316    20.607502    40.160108 
73764000     278.6643    312.10041    270.87913   -14.443996    13.984867    41.221272     40.16052 
73768000    284.88614    331.15583     298.2349   -14.148038    13.465143    32.920932    40.159768 
73772000    277.76616    318.21401    291.12274   -14.507723    13.012232    27.091268    40.158858 
73776000    280.55155      335.183    259.57945   -13.958554    15.039728    75.603545    40.160991 
73780000    280.93635    340.53594    281.93415   -13.424106    13.771993    58.601786    40.157167 
73784000    277.10387    330.12336    275.79439   -13.540025    13.984706    54.328972    40.157173 
73788000    271.19115     323.1496    254.12548   -12.877671    14.870094    69.024122    40.160532 
73792000    276.09062     307.0338    297.70014    -13.53111    12.791254     9.333663    40.158551 
73796000    272.47599    309.27039    274.67703   -12.726529    13.950186    34.593358    40.156662 
73800000     276.0289    329.74384    264.43919   -14.022849    14.203386     65.30465    40.158015 
73804000     275.8633    318.88404    281.13696   -13.388061    14.104951    37.747082    40.156805 
73808000    268.48918    296.78175    271.57883   -11.916156    13.854991    25.202923    40.158566 
73812000    282.16715    342.68784    288.18786   -15.490006    13.211757    54.499983    40.158628 
73816000    271.07848    322.43216    265.56434   -14.154859    14.800612    56.867814    40.157668 
73820000    274.91035    333.91997     263.6251   -15.419999    14.288487    70.294862    40.157556 
73824000    273.73659    300.53062    284.70343   -12.593095    13.112572    15.827193    40.159924 
73828000    271.16917    308.46712    258.88821   -13.354261    13.843482    49.578904     40.15809 
73832000    282.75832    347.55172    278.77337   -15.225557    12.600444    68.778351    40.157639 
73836000     268.9435    299.25686    270.09098   -11.290064    13.499976    29.165875    40.154923 
73840000    271.05946    331.17813    270.69765   -13.824342    13.311451    60.480481    40.152735 
73844000    276.10307    324.40625    273.63604   -14.333751    13.867661    50.770214    40.151674 
73848000    277.79967    316.22469    291.55807   -13.808039    12.911873    24.666619     40.15038 
73852000    279.22641    346.69368    283.08637   -14.739374    12.435413    63.607309    40.150788 
73856000    270.93749    310.54934    295.47905   -13.103914    11.719466    15.070284     40.15037 
73860000    284.10221    303.64606    309.90803   -12.466305     11.54888   -6.2619695    40.152296 
73864000      280.794     332.3112    308.77812   -13.912888    12.337195    23.533079    40.148953 
73868000    280.19148    323.59725    278.52874   -14.276923    14.230139    45.068507    40.150821 
73872000    279.50025    330.15326    291.89735   -15.114727    13.721768    38.255908    40.154128 
73876000     273.7166    311.08187    285.09336   -14.130868    12.471498    25.988508    40.150825 
73880000    282.72504    330.08176    273.85927   -14.715458    14.514286    56.222495    40.152301 
73884000    276.06778    311.53379    296.37631   -13.767296    13.015352     15.15748    40.154488 
73888000    275.28869    305.84239    283.32718   -13.282478     12.78571    22.515212     40.15285 
73892000    273.78724    312.01657    278.97399   -12.074145    13.168475    33.042587    40.151424 
73896000    278.01191    309.34479      290.107    -13.01271    12.444083    19.237793    40.150443 
73900000    285.03171    364.90825     284.9683   -15.348686    13.475349    79.939948    40.148406 
73904000    264.20361    291.56225    268.14036   -12.553555     14.47446    23.421895    40.151631 
73908000    275.01631    332.64442    285.23561   -14.545285    13.849709    47.408812    40.150215 
73912000    274.52733    299.40108    290.32876   -12.122013     13.94406    9.0723172    40.149571 
73916000    273.29075     317.2485    269.42605   -13.388923    15.082973    47.822447    40.148101 
73920000    272.72645     301.2255    291.06116   -12.458595    12.869182    10.164333    40.149047 
73924000    273.32243    329.74396    268.79603   -12.722208     14.48275    60.947932    40.150094 
73928000    278.99193    322.85476    283.79088   -12.774339    14.114073    39.063871    40.150635 
73932000    265.83978    301.59267    273.62578   -11.423445    14.718597    27.966899    40.151241 
73936000    266.51445    310.41458    288.57331   -12.671882    13.845609    21.841267    40.152062 
73940000    266.06879    288.82797    283.70282   -10.873188    13.600449    5.1251529    40.151506 
73944000     276.9738    343.47481    268.20322   -13.909329    15.253905    75.271583    40.152127 
73948000    268.29863     305.4446    291.57069   -12.852863    14.130996    13.873915    40.150099 
73952000    268.62529    315.07605    282.70817   -12.084397    14.151859    32.367881    40.147252 
73956000    276.65924    307.91822    285.35112    -12.26485    12.812239    22.567103    40.146799 
73960000     272.6929     318.2902    278.68391    -12.97402    13.789193    39.606284    40.146228 
73964000    269.53344    317.18315    271.53244   -11.921748    14.996663    45.650712    40.144777 
73968000    279.74892    335.87073    300.76998   -13.455797    12.569875    35.100747    40.143994 
73972000    285.22213    354.29333    281.28533   -15.301172     13.56265    73.007998    40.143159 
73976000    271.59336    308.50639    296.69344   -11.754826    13.258301    11.812951    40.141722 
73980000    269.60246    318.52539    267.16196   -13.061488    14.850407    51.363429    40.141424 
73984000    281.93104    326.64891     294.7723   -13.180887    13.580662    31.876605    40.145285 
73988000    281.11432    330.69697    290.42513   -12.793827    13.860092    40.271846    40.149094 
73992000    264.96089    303.34093    271.60934    -11.09314    14.952355    31.731596    40.146091 
73996000    270.54864    337.58714    264.69813   -14.585684    14.643838    72.889006    40.147971 
74000000    277.68073    316.55044    287.27094   -14.228172    13.043527    29.279496    40.149176 
74004000    265.68247    328.57449    266.34686   -15.530409    14.408677    62.227622    40.150105 
74008000    266.42657    318.77664    263.15734   -14.084267    14.955817    55.619305    40.151761 
74012000    284.45225    342.53047     290.6652   -14.744137    13.317548    51.865272    40.151453 
74016000    263.90013     317.5486    254.49649   -12.459572    14.563263    63.052102    40.154997 
74020000    272.28716    314.15141    284.07764   -14.041101    13.923729    30.073776    40.152161 
74024000    274.90876    334.88149    270.86982   -13.928614    14.666632    64.011665    40.153099 
74028000     275.3526    334.93883    286.69281   -14.230943    14.350083    48.246027    40.151018 
74032000    273.20037    327.37854    293.13095   -14.087326    13.503292    34.247586    40.149464 
74036000    268.52442    325.67011    270.45413   -13.109617    15.028854    55.215976    40.149885 
74040000    267.94171    309.43974    279.56024   -12.958231    14.057543    29.879508    40.149748 
74044000    273.66541    330.44942    273.20769   -14.266453    14.450148    57.241735    40.150458 
74048000    273.55994     323.7759    280.39943   -14.209387    14.158518    43.376466    40.153763 
74052000    268.49752    318.19591    270.66086   -13.077556    13.188478    47.535052    40.156041 
74056000    271.90589    317.79451     279.1451   -12.876402    14.202416    38.649409    40.156831 
74060000    273.60506    317.68158    272.71507   -12.502825    13.989916    44.966513    40.152473 
74064000    273.13206    338.48994    286.27115   -13.711614    12.792349    52.218789    40.152019 
74068000    275.29974    313.20047    290.77967    -11.57287      12.8344    22.420804    40.154638 
74072000    267.93018    324.44386    260.01572   -12.350239    14.566367    64.428144    40.153505 
74076000    271.78966    328.38775    273.44215   -12.603628    13.896445    54.945607    40.153871 
74080000    263.91647    320.02648    270.97567   -13.273711    14.358433    49.050807    40.155368 
74084000    267.77338    328.44346    291.64117    -12.05084    13.597703    36.802291    40.153603 
74088000    274.75659    305.53677    290.21147   -11.404711    13.435163    15.325306    40.152194 
74092000     256.8284    302.38493     272.9893   -11.624641    14.342592    29.395633    40.154554 
74096000    259.23435    291.41009    283.60402   -9.8014581    14.888244     7.806071    40.155477 
74100000    268.06954    306.13443    273.44398   -11.775121    14.551233    32.690452    40.155825 
74104000    276.56956    325.47584    299.32421   -12.282221    14.389216    26.151624    40.153918 
74108000     268.1157    333.75815    279.84378   -12.293838    15.122582    53.914367    40.153844 
74112000    267.78667    333.28243    273.45233   -13.154207    14.397244    59.830099    40.154336 
74116000    266.68919    338.80509     269.1969   -12.741097    15.548203    69.608189    40.154273 
74120000    266.34241      305.838    274.54651    -11.53769    15.221293    31.291489    40.152367 
74124000    273.17032    317.38326     281.7465   -12.427771    14.519446    35.636766    40.152767 
74128000    279.15561    324.02183    297.94404   -13.512301    15.009666    26.077788     40.15388 
74132000    270.06884    332.50762    280.73642   -12.898273    14.732974    51.771205    40.153481 
74136000    268.07206    310.98215    279.97717   -13.095269    14.987985    31.004983    40.153506 
74140000    280.49699    346.73224      288.862   -14.750322    14.654066    57.870235    40.152818 
74144000    273.38737    330.00282    278.15944   -12.220791    13.997339    51.843374    40.151058 
74148000     265.6959    327.11739    283.70591   -13.736058     13.86265    43.411476    40.154223 
74152000    260.64473    295.43587    283.38653   -11.673702    15.885014    12.049336     40.15383 
74156000    268.44302     335.4323    281.82378   -12.376081    15.377521    53.608525    40.153653 
74160000    267.11904    301.52707    300.09073   -10.691951    13.671753     1.436342    40.152396 
74164000    269.63668    326.98062    268.01447   -11.898561    15.412033    58.966152    40.152741 
74168000    275.16905    338.70648    267.63857   -13.297988    15.413093     71.06791    40.155276 
74172000    279.29288    334.60235    284.83408   -12.905622    14.764485    49.768268    40.152922 
74176000    269.68255    309.62079    292.41772   -13.857342    13.240364    17.203075    40.152328 
74180000    279.42843    326.37041    302.79671   -11.377496    13.450871    23.573699    40.151573 
74184000    271.40953    333.67982    275.49279   -12.186625    14.938035    58.187023    40.152815 
74188000     265.9119    308.22513    286.73591    -11.80864    14.301456    21.489228    40.152111 
74192000    260.17158    297.74707    266.25086   -11.080574    15.668929    31.496205    40.150244 
74196000    269.88533    340.05306    268.66152   -13.834961    15.671716     71.39154    40.152001 
74200000    268.01437    318.41435    278.40216   -12.308926    14.486339    40.012182    40.153369 
74204000    275.89605    316.88752    289.50161   -14.274421    13.974312    27.385914    40.155188 
74208000    259.19817    312.28872    258.24123   -12.725915    15.403418    54.047486    40.155606 
74212000    272.65353    299.12456    282.84663   -12.478781    13.940699    16.277928    40.154561 
74216000    261.64804    284.28952    276.20106     -10.9949    15.495912    8.0884519     40.15359 
74220000    284.46974    335.48703     304.5987   -13.451068    14.109127    30.888331    40.149953 
74224000    277.53473     305.8238    317.75615   -11.855134    14.260073   -11.932352    40.149359 
74228000    281.01762    355.44059    285.13016   -14.774593    15.484314    70.310423    40.150825 
74232000    278.96393    338.72817    287.29371   -15.706272    14.659059    51.434458     40.15275 
74236000    277.19971    326.23736    297.55821   -13.410546    13.575166    28.679143    40.154482 
74240000    269.00401    321.19552    269.94828   -13.036773    16.070632    51.247239    40.157408 
74244000     266.4841    303.47761    291.57285   -13.605606    14.233242     11.90476    40.156077 
74248000    280.65734    325.37827    290.07633    -14.02733    14.728587    35.301942    40.155261 
74252000    279.00249    330.31513    289.53262   -13.599077     13.13716    40.782505    40.155211 
74256000     268.5478     329.0718    239.57861   -13.187938    15.895517    89.493188    40.154935 
74260000     274.9008    333.52531    286.92594   -14.324375    13.558375    46.599371    40.154953 
74264000    290.42295    345.40859    292.45587   -14.187705     13.45232    52.952718    40.156331 
74268000    274.31402    310.47101     294.2476   -13.348395    12.511326    16.223408    40.156332 
74272000    273.90827    328.70402    271.31634   -14.576131    13.995882    57.387673     40.15664 
74276000    278.55652    322.50893    289.74812   -16.051613    13.201631    32.760813    40.154961 
74280000    282.69084    343.93558     265.3021   -15.197846    14.465608    78.633488    40.156595 
74284000    269.48653    305.25058    272.45651   -13.105987    13.911648    32.794069    40.153824 
74288000    279.37356     318.6477    297.57831   -13.843925     13.27211    21.069386    40.153004 
74292000    280.21829    326.12018    282.73421   -14.360917     13.38702    43.385964     40.15188 
74296000    270.66992    305.62325    264.00403    -13.52781    14.905592    41.619219    40.152829 
74300000    285.31366    339.13858    283.88426   -16.165822    14.349446    55.254324    40.153767 
74304000    275.14864     299.1536    290.60072   -13.897437    14.222582    8.5528786    40.155512 
74308000    286.51656     340.4203    281.01482   -15.286431    12.946238    59.405476    40.155483 
74312000    279.92819    341.17584    273.27008   -14.884662    14.010586    67.905764    40.155695 
74316000    276.33861    332.13584    271.80754   -15.273481    14.390329    60.328302    40.153143 
74320000    274.51334     305.9309    281.18838   -12.573186    14.011489    24.742527    40.150216 
74324000     280.0162    309.63524     304.1903   -12.016817    12.780894    5.4449315    40.149582 
74328000    273.86019    319.16272    290.70657   -13.854929    13.929059    28.456152    40.146324 
74332000    283.28163    325.25674    300.90161   -12.400234    13.444822    24.355139    40.145244 
74336000     269.8342     321.3682    278.90811   -14.182584    14.820599    42.460091     40.14338 
74340000    270.46994    317.11856    261.06372   -14.324301    16.301148    56.054837    40.142515 
74344000    279.92222    351.47536    275.71678   -15.854685    15.811938     75.75858    40.143556 
74348000    270.11912    315.70457    279.47336   -13.683419    15.506344    36.231211    40.145384 
74352000    290.28424    344.10468    294.71542   -15.168054    13.728526    49.389263    40.145479 
74356000    274.49723    318.26998    275.67319   -14.659131     14.58719    42.596787    40.145156 
74360000     278.5778    316.84701    285.09562   -13.967713    15.336669    31.751389    40.142222 
74364000      261.331    286.04382    274.74126   -13.347172     15.87164    11.302554    40.139567 
74368000    270.71203    303.21845    270.99344   -13.636185    16.101103    32.225014    40.137932 
74372000    263.80438     309.0834    271.79121   -14.015085    15.154269    37.292193    40.137549 
74376000    265.40316    313.11351    277.06189   -14.054832    15.080961    36.051623    40.135916 
74380000    274.66213     314.2649    295.89576   -13.536273    14.226741    18.369145    40.137252 
74384000    274.07283    336.05537    267.56539    -14.23641    15.303354    68.489978     40.13399 
74388000    277.39816    333.58083    294.33594   -14.729918    14.912811    39.244891    40.133342 
74392000    268.51878    305.32201    275.62359    -13.68898    15.907142    29.698414    40.131198 
74396000    272.39183    336.71933    263.24242   -14.561286     16.17095    73.476916    40.132256 
74400000    269.31343    305.31598    280.80633   -13.743071    16.095326    24.509652     40.13057 
74404000    259.64144    313.83218    257.60097    -12.60723    16.468047    56.231214    40.130371 
74408000    280.15493    349.56162    290.21278   -16.189008    14.655107    59.348834    40.129831 
74412000    282.70755    344.20442    277.19371   -15.853255    16.561282    67.010715     40.13165 
74416000    273.05093    319.76896    273.77685   -14.495548    15.839637    45.992109     40.13215 
74420000    266.97093    320.90871    262.55678   -14.389218    16.703378    58.351926    40.134365 
74424000    266.11338    282.12607    275.10801    -13.20315    15.332521    7.0180563    40.134556 
74428000    275.98187    305.69234    298.22029   -14.412547    14.076152    7.4720573    40.134023 
74432000    264.09855    305.24338    268.89676   -13.255903    14.952096    36.346621    40.131543 
74436000    266.01617    308.91381    267.33871   -13.765239    15.281426    41.575099    40.133033 
74440000    276.12613    339.32628    275.56486     -14.7279    14.198864    63.761425    40.130428 
74444000    265.66976    313.99542    283.07959   -14.146596    14.525071    30.915832    40.129458 
74448000    282.51967    324.87159    306.63574   -14.400934    14.408802    18.235849     40.13137 
74452000    278.35823    325.76656    293.40111   -14.496064    15.033648    32.365449    40.129347 
74456000    271.49253     336.4282    274.45556   -14.359258    14.741455    61.972639    40.131096 
74460000    276.19682    313.54081    278.84634   -13.942809    14.785308    34.694469    40.131593 
74464000    274.36736    316.07062     286.8958   -14.967942    14.292637     29.17482    40.130934 
74468000    268.73745    306.46869    282.73201   -13.424433    14.497459    23.736675    40.130272 
74472000    276.01406    315.09442    281.32919   -14.070614     15.04514    33.765223    40.128505 
74476000    279.19176    334.09131    292.79241   -14.298313    14.286433    41.298901    40.124639 
74480000    264.09435    317.57305    268.50359   -14.485201    15.209691    49.069451    40.123087 
74484000    275.39761    327.02476    271.17333   -14.612931    16.902835    55.851434    40.124005 
74488000    269.25537    312.99044    288.68898   -14.515129    15.328553    24.301462    40.125032 
74492000    283.43217    327.24203    290.13268   -13.963299    15.175169    37.109357    40.127327 
74496000    278.66298     332.9315    281.18473   -14.662799    15.685876    51.746773    40.126289 
74500000    278.55935    337.94295    262.69439   -15.418089    16.527003    75.248559    40.128193 
74504000    273.28116    328.13612     274.1803   -14.240932    16.772867    53.955817      40.1305 
74508000    275.37487    304.64187    303.20893   -13.585251     14.93113    1.4329353    40.130537 
74512000    290.48191    317.21736    305.40535    -15.06979    14.905715    11.812016    40.131395 
74516000    265.30242     290.0505    273.25022   -14.062406    16.997544    16.800277    40.129036 
74520000     269.0063    292.35909    294.63617   -14.435601    15.659752   -2.2770842    40.127345 
74524000     284.7629    326.53284    311.02482   -14.718815    14.095042    15.508017    40.127751 
74528000    272.74526      309.839    270.73943    -14.24898    15.889025    39.099577    40.130074 
74532000    281.65505    317.98081    299.79558   -14.472058    14.757282    18.185227    40.132104 
74536000    272.39345    327.97493    276.86271   -15.748198    15.345599    51.112219    40.133604 
74540000    272.63809    333.74841     279.5609   -16.820712    16.240088    54.187507    40.134133 
74544000    280.63183    328.16514    294.67465   -15.125701    14.620238    33.490495    40.131601 
74548000    278.43694    317.41338    297.99714   -15.560043    15.548178    19.416242    40.132577 
74552000    278.04483    330.37609    282.85575   -15.654651    17.084723    47.520339     40.13152 
74556000    274.93129    318.59575    283.18776   -14.059564    17.032021     35.40799     40.13191 
74560000    275.28943    323.65637    270.26851     -14.2542    17.447559    53.387854    40.129951 
74564000    270.29534     307.0824    280.48182   -13.488189    16.625193     26.60058    40.132593 
74568000    271.42545    319.89328    270.88899   -13.916524    16.725354    49.004293    40.127854 
74572000    275.96843    336.55664    285.53009   -16.546998    16.454546    51.026553    40.129249 
74576000    289.24521    344.79193    304.27143   -16.271865    14.202409    40.520496    40.131019 
74580000    278.09713    311.85761    290.27794   -15.557265    15.933619    21.579671    40.126257 
74584000    277.94507    322.38592    284.30684    -15.28174    15.161242    38.079078    40.124402 
74588000    270.25272    315.75096    260.04789   -15.161346     16.47145    55.703068    40.121822 
74592000    281.42212    328.32655    283.28763   -15.301665    15.189863    45.038919     40.12418 
74596000    269.31073    324.53902    262.77192   -15.103852    16.447008    61.767104    40.126432 
74600000    267.50969    321.90277    266.34239    -17.12709     15.78421    55.560388    40.126974 
74604000    279.64336    325.57476    273.99953   -15.710879    16.143341    51.575237    40.126987 
74608000    268.35797    308.13192    260.56536   -14.665871    16.348629    47.566559    40.128998 
74612000    283.71677    346.93247    292.49696   -17.528899    14.230038    54.435513    40.126996 
74616000    277.91968    321.65257     280.9512   -16.231113     15.61725    40.701372    40.126631 
74620000    266.72348    322.95979    259.99912   -16.336695    16.220274    62.960672    40.127378 
74624000    276.84511    318.16521    301.30611   -15.678198    15.193881    16.859099    40.130752 
74628000    277.32129    318.15675    288.64573   -15.118879    14.652427    29.511022    40.132419 
74632000    273.50299    316.68781    274.26365   -15.413821    16.040704     42.42416    40.128138 
74636000    270.34555    299.06708    272.66999   -14.721641    16.210401     26.39709    40.127987 
74640000    278.15233    307.51108    291.63288   -15.526196    15.861986    15.878209    40.125863 
74644000    277.13716     325.8361    288.89022   -16.674809    14.930758    36.945883    40.128341 
74648000     275.5757    313.75143     298.2113   -16.027313    14.752176    15.540126    40.126432 
74652000    274.05311    336.92588     287.2552   -16.280522    16.161052    49.670679    40.125056 
74656000    270.31541    339.66249    265.96556   -16.274451    15.676352    73.696928     40.12762 
74660000    276.92999    332.90684    271.59725   -15.946092      14.6417    61.309582    40.127058 
74664000     273.1228    324.58187    272.30019   -16.091627    15.521281    52.281681    40.126335 
74668000    271.44905    307.28305    276.40788   -14.591943    15.162116    30.875175    40.129557 
74672000    269.05123    308.27442    290.67641   -15.734269    14.525069    17.598008    40.127201 
74676000    268.35686    308.64166    276.10494   -15.991623    14.111926    32.536719    40.126744 
74680000    272.73775    302.85817    278.33676   -15.464759    14.681056    24.521409    40.126747 
74684000    276.85938    297.62122    299.05836   -14.783561    13.618789   -1.4371442    40.130022 
74688000    275.56978    326.11619    275.25432   -14.941821    15.470042    50.861864    40.128381 
74692000    279.47831    327.82516    287.46748   -15.800244    15.128509    40.357673    40.126784 
74696000    275.67059    319.58256    284.98065   -15.691905    14.289193    34.601912     40.12545 
74700000    279.00696    345.24563    277.50495   -16.883748    14.931954    67.740685    40.124496 
74704000     279.2575    323.67984    282.54045   -15.910309    15.282867    41.139393    40.125769 
74708000    278.90763    323.57547    277.06641   -16.512345    15.459144    46.509054    40.125316 
74712000    278.76103    304.51493    281.72425   -16.864573     15.59815    22.790671    40.122749 
74716000    283.18204    326.17704    290.75798   -16.968082    15.323289    35.419053    40.124694 
74720000    274.94208    323.00043    278.99919    -15.31392    16.277694    44.001232    40.125843 
74724000    272.20247     313.6374    290.10744   -15.514469    15.291372    23.529963    40.128335 
74728000    286.24066    332.84566    288.90447   -16.905012     15.67808    43.941187    40.128157 
74732000    274.71294    321.67895     274.2698   -16.480241    15.769505     47.40915    40.127733 
74736000    276.66844    334.56291    272.20028   -15.031878    14.409643    62.362633    40.127501 
74740000    275.37998    333.33661    284.90571   -15.900345    14.477853    48.430898    40.125483 
74744000    281.28518    344.32616    283.32894   -16.459826    14.594661    60.997221    40.120586 
74748000    273.92144    325.29481    272.60826   -17.758335    15.819361    52.686549    40.121436 
74752000    276.59251    333.33472    270.90188   -17.041087    16.750381    62.432838    40.121057 
74756000     278.0404    320.84921    290.71458   -16.167151    16.177429    30.134631    40.118194 
74760000    275.60754    303.33477    298.01851   -17.185679    15.020711    5.3162618    40.113811 
74764000    269.77414    324.14873    276.73011   -15.388271    15.835656    47.418625    40.112494 
74768000    279.17016    321.18574    299.01841   -17.980408    15.950578    22.167334    40.108149 
74772000    271.67139    323.07903    266.60978   -15.751129    16.894797    56.469244    40.109148 
74776000    272.44122    307.42338    265.43442   -15.604911    16.510185     41.98896     40.11037 
74780000    276.55108    334.58489    278.43163   -16.550565    17.030166    56.153254    40.114559 
74784000    269.90321    329.08151    280.07081   -16.315732    16.323678    49.010701     40.11415 
74788000    271.67747    305.70385     265.0265   -14.466211     16.67662    40.677343    40.112596 
74792000    280.84185    340.04806    283.44177   -17.937485    16.375046    56.606289    40.113867 
74796000    283.52787    344.73659     275.8204   -16.946756     16.58362    68.916188    40.118735 
74800000    273.26053    315.72508    272.07937   -14.787574    15.901999    43.645717    40.119032 
74804000    266.11243    315.68857    258.75042     -15.4541    16.512509    56.938152    40.119318 
74808000    282.63024    336.84977    279.22759   -17.012246    15.551897     57.62218    40.118705 
74812000    265.86294    306.05529     277.7479   -16.420567     15.93873    28.307385    40.119616 
74816000    270.95536     319.6485    279.80679    -16.14256    16.235985    39.841711    40.122854 
74820000    282.67683    309.64059    307.58666   -15.523968    15.205279    2.0539275    40.125045 
74824000    281.09479    333.45528    287.06412   -15.779749    14.922413     46.39116    40.125077 
74828000    271.64141    300.10514    286.09436   -16.468724    16.181812    14.010781    40.125393 
74832000     273.1363    323.58597     255.0764   -17.211619    16.573535    68.509568     40.12358 
74836000    274.79737    323.84743    273.97158   -17.328901    15.775902    49.875843     40.12393 
74840000    270.46868    320.85253    274.01476   -17.555921    16.853987    46.837776    40.127743 
74844000    278.16914     319.3941    289.83099   -16.601124    15.141454    29.563115    40.129173 
74848000    274.95557      321.903    263.54512   -16.425511     16.10915    58.357875    40.129043 
74852000    275.54517    305.86721    278.03584   -15.188735    16.355674     27.83137    40.127519 
74856000     275.3289      313.007     287.5373   -16.295485     15.36404    25.469695    40.128586 
74860000    279.49152    319.92431    274.79137   -17.690616     16.37602    45.132942    40.129873 
74864000    267.73213    294.01465    270.17754   -14.873135    16.066756    23.837108    40.129865 
74868000    276.69626    322.10491    288.53378   -16.461779    16.414507    33.571134    40.129847 
74872000    270.79876    323.74358    267.46813    -17.63899     16.21616    56.275458    40.127754 
74876000    270.22372     322.9519    271.48058   -17.374263    16.282063    51.471313    40.130827 
74880000    286.14172     317.8347    301.64695   -17.659499    13.634853    16.187748     40.12929 
74884000    275.07514    316.62564    268.56271   -16.745991    16.805789     48.06293    40.129251 
74888000    273.88045    322.32248    276.72193   -16.932162    15.626938    45.600555    40.128717 
74892000    279.67923    348.88247    260.90582   -18.337493    17.273615    87.976649    40.130766 
74896000    280.95063    329.21687    281.42508   -17.940454    15.562938    47.791783    40.133894 
74900000    272.26184    316.68979    276.13608   -17.028355    16.264568    40.553705    40.133698 
74904000    272.12317    311.36868    297.33284   -17.312328    15.972086    14.035838    40.129392 
74908000    278.70984    313.71651    289.20259   -17.373056    15.398718    24.513923    40.128639 
74912000    274.68278    319.27252    275.98658   -17.084033     15.83672    43.285937    40.130613 
74916000    275.22006    338.93504    278.85616   -17.369264    15.783902    60.078883    40.129386 
74920000    272.52179     317.2718    263.82732   -16.872243    15.886843     53.44448    40.130298 
74924000    274.44507    325.35305    290.73844   -16.611861    14.733928    34.614608    40.128803 
74928000    278.14884    321.19959    283.75663   -16.024349    15.740399    37.442966    40.126598 
74932000    279.85572     323.5872    302.03682   -16.950901     15.79973    21.550385    40.128512 
74936000    288.19031    344.46013    289.83651   -18.416805    15.625826     54.62362    40.129251 
74940000    266.53556    311.62737    257.05405   -15.638858    16.994715    54.573321    40.128857 
74944000    270.27709    298.48412    273.45893   -16.112042    17.091924    25.025183    40.131603 
74948000    270.38456    311.21077    270.99804   -16.383712     16.69745    40.212721    40.132511 
74952000    272.55483    301.39543    287.85202    -15.45181     17.08827    13.543414     40.13186 
74956000    282.22707    322.61118    304.04159   -16.729448    15.107449    18.569592    40.129056 
74960000     278.0297    311.83959    276.03066   -15.770207    16.949011    35.808927    40.129338 
74964000    269.57972    320.21171    266.10452   -16.239381    17.670514    54.107186    40.129026 
74968000    279.25032     313.7526    285.34543   -16.241405    16.992106    28.407162    40.132656 
74972000    271.30044    305.82687    277.07678   -15.729156    16.987274    28.750094     40.13428 
74976000     273.8361    314.70761    270.01332    -16.68814    17.808162    44.694291    40.135566 
74980000    277.87635    329.47038    274.61477   -17.500122    16.982992    54.855607    40.136503 
74984000    279.40797    342.60387    275.51648   -17.405702    16.804535    67.087388    40.137783 
74988000    280.94207    327.30208    298.75484   -17.178602    15.018287    28.547235     40.13753 
74992000    285.15764     327.3607    292.81774   -16.214522    16.086456    34.542966    40.136842 
74996000     271.2562    329.85761     285.3357   -16.322504    15.955511    44.521906    40.135207 
75000000    284.72164    335.33558    292.95745   -15.463449    16.781058    42.378131    40.136275 
75004000    274.27193    328.13629    267.22798   -15.965186    17.245977    60.908313    40.137964 
75008000    273.52158    320.66071     285.8396   -15.639602    16.213881    34.821107    40.137611 
75012000    278.05342    318.65942     280.6789   -16.499532    16.910038    37.980523    40.136682 
75016000     265.0172    311.87137     268.4799   -15.932207    17.541229    43.391474    40.134525 
75020000    272.93823    320.68017    282.00289   -15.941488    16.495827     38.67728    40.132998 
75024000    282.36133     337.2324    286.51554    -17.07102     16.75039    50.716862     40.13477 
75028000    279.05985     312.4555    306.46667   -15.619428    15.242134    5.9888303     40.13348 
75032000    285.40683    329.70671    296.70998   -16.920018    15.703119    32.996731    40.132924 
75036000    272.54352    324.29838     266.1747   -18.441297    16.237871    58.123686    40.135341 
75040000     266.2518    308.29163    283.38414   -17.248997    16.161374    24.907485    40.135969 
75044000    273.00862    308.50793    300.70834   -16.338002    14.905204    7.7995949    40.135071 
75048000    274.44877    304.25683    296.46087   -17.021813    14.787274     7.795966    40.133022 
75052000    274.39818    323.40294     268.7797   -16.235402     17.45148    54.623234      40.1357 
75056000    279.13007    329.28131    291.59405   -16.939988    15.985901     37.68726     40.13717 
75060000    276.20213    330.44641    276.35303   -16.573006    16.527934    54.093376    40.135621 
75064000    272.08653    324.95979    286.71954   -16.426499    16.517882    38.240248    40.135122 
75068000    284.36724    345.01517     292.4939   -17.785699    14.913576    52.521272    40.135583 
75072000    279.31852    331.24699    281.64839   -16.070878    16.000823    49.598601    40.138209 
75076000    275.86953     327.6022    274.13349   -17.092368    16.025946    53.468717    40.136733 
75080000    272.10463    317.99918    273.13748   -15.322334    16.233056    44.861698    40.140198 
75084000    271.50436    308.47589      285.947   -15.760571    16.032683    22.528886    40.140675 
75088000    283.48809    328.76528    296.91403   -16.587711    14.796739    31.851255    40.140376 
75092000    281.83547    341.83371     269.6201   -16.919949    16.252073    72.213609    40.141537 
75096000    285.55799    351.53745    280.67832   -16.540866    15.470287     70.85913    40.142831 
75100000    273.07384    320.44865    274.68735   -16.291124    15.102211    45.761297    40.144525 
75104000    272.85948    311.98506    295.93883   -16.497356    15.140545    16.046232    40.142948 
75108000    280.43332    328.78541     303.6179   -16.631035     14.27739    25.167509    40.139656 
75112000    283.96909    330.63279    290.96818   -17.548134    16.239557    39.664607    40.138841 
75116000    270.08697    312.15728    275.94336   -15.975405    15.468925    36.213925    40.138554 
75120000    273.59299    315.10814    275.63523   -16.447905    16.453645    39.472913    40.138451 
75124000    273.82586    311.27985    292.71326   -13.803573    14.653203    18.566598    40.140428 
75128000    278.91243     321.6266     276.3275   -15.708283    15.721039    45.299094    40.141326 
75132000    270.93941    286.68952    277.06514   -14.146183     16.32234     9.624377    40.141626 
75136000    269.00174     317.3721    284.79464   -15.702258    17.107528    32.577459    40.139917 
75140000    269.21762    309.13431      281.569   -15.164391    15.818816    27.565318    40.140405 
75144000    277.06828    324.39072    297.00951   -16.216411    14.810516    27.381211    40.141006 
75148000    268.76407    320.12695    283.55131   -14.495899    15.790157     36.57564    40.142914 
75152000    273.53853    321.33542    281.61052   -15.769538    16.549576    39.724897       40.143 
75156000    283.81943    346.25655    286.93065   -16.672245     16.25116    59.325907    40.142293 
75160000    264.24829    302.31342    269.92568   -14.470743    17.557233    32.387742    40.145501 
75164000     276.8601    325.69673     282.9978   -15.498468    16.889605     42.69893    40.142345 
75168000    273.33325    316.68154    299.82661   -14.966578    15.305203    16.854933    40.141626 
75172000     269.7681    315.50455    285.04118   -15.126253    16.962284    30.463373    40.140174 
75176000    279.72537    340.77843     277.3033   -15.723776    18.056993    63.475133    40.136471 
75180000    268.92679    333.54577    255.06576   -15.215942    17.821971    78.480012    40.138509 
75184000    266.89493    328.45735    272.75153   -15.074967    16.853661    55.705827    40.138485 
75188000    286.74919    365.02825    272.87206   -15.839716    17.572009    92.156186    40.135931 
75192000    261.97988    317.52166    257.23002   -15.524292    17.270718    60.291642    40.137256 
75196000    274.46811     323.2972    273.14411    -15.52477    16.548577    50.153092    40.138687 
75200000    276.39086    339.72549    262.33851    -16.16581    17.144284    77.386983    40.139499 
75204000    267.71993    302.26303    278.34322   -14.591303    17.050689    23.919816    40.142166 
75208000    266.35885    305.35548    285.30074   -14.250426    17.240877     20.05474    40.141289 
75212000    274.24758    329.69554    277.58486   -16.084599    17.920518     52.11068    40.139956 
75216000     271.0715    315.55724    281.25296   -16.283574    16.208837    34.304274    40.139399 
75220000    264.55902    296.62284    267.94108   -15.880304    16.863258    28.681756    40.139421 
75224000    268.47407     301.5975    263.90959   -14.903803    17.826922    37.687911    40.139934 
75228000    268.60753    309.34106    280.58555   -14.624765    16.510444    28.755511    40.141975 
75232000     259.4872    294.75746    265.93906   -15.018242    17.412886    28.818402     40.14099 
75236000    275.49591    320.61213    293.16768   -16.200363    15.098257    27.444457    40.142902 
75240000    268.69938     310.8542    289.47672   -15.730352     16.62989    21.377484    40.141372 
75244000    274.21189    336.19011    272.84669   -17.191432    17.644797    63.343414    40.143936 
75248000    268.72798    316.98618    272.58317   -16.395689    17.857802    44.403001    40.144439 
75252000    273.95467    298.72084    306.29706   -14.670324    15.956902   -7.5762157     40.14003 
75256000    281.65171      319.833    300.42672    -15.62814    16.626315    19.406271    40.138979 
75260000    269.24939    309.66411    293.23468   -15.461918    16.799275    16.429422    40.138902 
75264000    269.28581    334.79981    274.55156   -16.722374    18.108512    60.248254    40.139811 
75268000     272.4377    323.05055    269.49721   -16.918855     18.56305    53.553336    40.139728 
75272000    273.40741    322.22566    282.33133   -14.500889    18.272954    39.894329    40.137335 
75276000    270.83918    328.33688    271.88701   -15.183356    17.537105    56.449869    40.136318 
75280000    273.79655    304.19428    301.29785   -14.625753    16.413484    2.8964271    40.136115 
75284000    282.57286    344.94544    283.74408   -17.656916    17.187202    61.201368    40.139138 
75288000    261.61713    305.81569    264.21261   -14.922282    18.137021    41.603076    40.137148 
75292000    263.39935     313.2286    260.68908   -16.159605    17.442872    52.539518    40.138419 
75296000    274.25007    341.65137    276.77575   -17.048407     17.15547    64.875614    40.140944 
75300000    282.48033    343.18988    278.81679   -18.424239    18.053362    64.373086    40.143917 
75304000    269.61548    304.28353    283.65797   -15.899454    17.557947    20.625561    40.144646 
75308000    261.98763    294.37852    275.25681   -17.018908    17.573447    19.121704    40.142162 
75312000    268.80506    315.67738    283.09953   -17.111192    16.297627    32.577854    40.142456 
75316000     284.2512    328.58354    300.40148   -15.845277     17.84852    28.182052    40.141282 
75320000    275.87485    336.90956    278.22113   -17.395179    17.625644    58.688427    40.140872 
75324000    278.18262    343.90103    266.64541   -16.673164    18.580235    77.255628    40.140299 
75328000    274.91356      324.955    296.31557   -18.116791    16.889456    28.639427    40.140903 
75332000    270.36719    305.68459    293.81308   -16.607217    17.024988    11.871506    40.142544 
75336000    269.19548    320.32864    282.04344   -16.228523    18.079934    38.285196    40.145602 
75340000    272.81191    320.15506    293.70714   -15.680885    17.669921    26.447921    40.142726 
75344000    272.01197    324.96159    285.47773   -16.981125     17.27918    39.483856    40.140728 
75348000    271.39971    343.28534    280.89591   -17.701985    18.351639    62.389435    40.143556 
75352000      265.471    293.89165    276.95423   -15.254393     18.84995    16.937415    40.144166 
75356000    268.46888    323.81426    268.35991     -17.2568    18.008807     55.45435     40.14396 
75360000    273.98322    310.73334    283.66148   -15.676122    17.536704    27.071856    40.141648 
75364000    269.84391    326.49928    262.09119   -15.900142    18.654692    64.408086    40.143759 
75368000    278.06044      327.399    284.21451   -17.382685      17.1517    43.184497    40.146855 
75372000    269.26876    309.23358    289.36375   -16.641109    16.029063    19.869833    40.146208 
75376000    265.33963    319.22818    268.06429   -15.987633    18.230922     51.16389     40.14728 
75380000    269.78368    319.53813    274.51115    -16.69366    17.709998    45.026973    40.147785 
75384000    274.85721     320.9575     296.1018   -16.540486    16.159541    24.855704    40.146954 
75388000     266.0994     316.1707     272.6754   -16.618097      18.4539    43.495297    40.145705 
75392000    273.25765    328.22964    272.41866   -17.460157    17.587674    55.810976    40.146004 
75396000    276.68491    311.02807    284.28211   -16.719113    17.724192    26.745958    40.144964 
75400000    264.40268    312.14584    269.07609   -15.666388    18.722294    43.069752    40.143768 
75404000     266.7475    313.31469    274.13492   -15.116288    18.695283    39.179773    40.144839 
75408000    274.95084    311.70016    302.97359   -14.909121    16.342817     8.726572    40.145329 
75412000    271.00217    327.84767    274.54354   -18.077923    18.717022    53.304125    40.147063 
75416000    270.11158    314.77213    273.75327   -16.742916    17.929207    41.018866    40.146479 
75420000    280.31753     354.8843    289.71294   -18.411774    16.738663    65.171355    40.146826 
75424000    271.50554    332.20917    272.97188   -17.337671    17.923372    59.237294     40.14681 
75428000    267.01338    301.07813    280.06881   -15.961724    18.421406    21.009325    40.145747 
75432000    274.16915    332.19311    281.88671   -17.245509    17.730746    50.306402    40.145492 
75436000    267.88521    297.74168    272.50575   -16.057382    18.931064    25.235924    40.144903 
75440000    265.71413    309.40282    272.33306   -15.109437    17.701464     37.06976    40.145951 
75444000    258.97177    306.30543    263.20242   -16.211897    18.702089    43.103009    40.146386 
75448000     270.4523    289.51341    289.48607   -14.664255    17.165695  0.027333756    40.147094 
75452000    269.13964    329.65401    253.32363   -17.060907    18.840913    76.330378    40.144395 
75456000    276.27603      344.934    282.90652   -17.917034    17.499986    62.027471    40.144985 
75460000    276.99333    340.28257    293.59442   -16.666072    17.437843    46.688155    40.146872 
75464000     274.4584      317.907      294.313   -15.951269    17.492909    23.593997    40.145908 
75468000    267.30431    320.81045    283.34082   -16.827243    17.735688    37.469631    40.145888 
75472000    270.02416     324.1162    274.00991   -16.874279    19.198238    50.106283    40.148235 
75476000    266.51984    319.44636    271.02659   -16.963912    19.471068    48.419773    40.148188 
75480000     271.9073    330.00795    284.58505   -16.508648    17.175781    45.422906    40.149122 
75484000    281.47292    341.91625    300.57933   -17.688709    16.182622    41.336924    40.149751 
75488000    258.05685    315.19966    263.10279   -16.071075    18.526872    52.096865    40.148907 
75492000    265.66013     328.1916     264.8896   -15.401964    17.973904    63.302003     40.14605 
75496000    267.53884    311.18938    291.60868   -14.935585    17.463715    19.580691    40.144848 
75500000    262.25529    320.18212      257.325   -15.564744    19.240988    62.857121    40.145899 
75504000    265.24522    302.21108    288.55175   -15.267337    17.409476    13.659332    40.147955 
75508000    264.31335    301.74455    254.24412   -14.573276    18.959777    47.500422    40.148728 
75512000    273.36019    333.98732    285.78392   -16.117654     17.50828    48.203408    40.147975 
75516000    276.15922    319.82299    275.93187   -16.538966    18.396824     43.89112    40.146217 
75520000    265.81716    320.91548    265.51766   -16.528302     18.75627     55.39782    40.147587 
75524000    268.26468     310.2509    297.61317   -15.562764    16.793452     12.63773    40.145191 
75528000    264.95864    312.16647    261.62248   -16.326686    19.250627    50.543994    40.142957 
75532000    275.70757     310.4776    288.75394   -16.261793    17.162578    21.723659     40.14042 
75536000    277.84787    330.89481    287.13184   -18.008597    17.397052    43.762967    40.141714 
75540000      271.511    314.49254    272.63029   -17.070707    17.718643    41.862252    40.139561 
75544000    265.33968     314.2027    265.31882   -16.424384    18.839489    48.883881    40.140145 
75548000    269.04914    294.49066    287.31139   -15.286301    17.712497    7.1792725    40.136842 
75552000     277.3513    334.22646    269.35133   -17.524847    18.059595    64.875128    40.139158 
75556000    272.50443     301.6264    289.85074   -15.188075    17.708169    11.775663    40.137178 
75560000    284.11944    358.28178    285.38582   -17.402307    17.808491    72.895954     40.13516 
75564000    269.29435     316.3355    285.86291    -16.55186    18.772361     30.47259    40.134666 
75568000    277.82633    342.67486    288.63425   -17.820971    18.853857    54.040616    40.134296 
75572000    270.04091    309.85317     284.0847   -16.280042    17.217301    25.768476    40.134981 
75576000    272.03513    305.35637    293.17576   -18.131631    18.699991    12.180613    40.135241 
75580000    272.47593    323.14091    268.64938   -17.660195    18.278053    54.491523    40.134348 
75584000    268.85032    308.82552    283.87491    -17.89016    17.898972    24.950605      40.1348 
75588000    280.94133     339.6321    297.78578    -17.63325    17.521846    41.846323    40.134678 
75592000    272.29143    303.94123    297.37203    -17.17844    17.273428    6.5692035     40.13611 
75596000    264.89667    313.61598    273.21205   -16.126136    19.109278    40.403928    40.137388 
75600000    277.61603    328.99915    289.52291   -18.232185    16.959509    39.476241    40.138106 
75604000    279.22432    330.69011    291.61836   -18.913669    17.782779    39.071749    40.139727 
75608000    272.05886    309.87516      291.016   -17.143784    18.069257    18.859161    40.137818 
75612000    269.80013    317.48401    285.71495   -17.341966    17.504418    31.769067    40.139107 
75616000    263.80109    294.80952    261.18044   -16.724676    19.635875    33.629079    40.141327 
75620000    271.81751    325.56581    278.40158   -18.009579     18.43829    47.164226    40.141055 
75624000    271.77483    321.52006    275.82664   -17.933677    18.350556    45.693415    40.141149 
75628000    280.92039    347.46195    286.28326   -18.854757    18.184704    61.178693    40.144201 
75632000    273.48336    325.43272    268.63566   -17.668821     18.36921    56.797059      40.1421 
75636000    280.04267     342.3775     277.8971   -17.873949    17.940366    64.480397    40.142472 
75640000    272.49092    323.79576    265.68359    -17.84027    18.703675    58.112177    40.142004 
75644000     257.1965    283.44638    267.43477   -16.278282    19.312228    16.011612    40.141542 
75648000    279.04883    330.16725    306.55472   -19.562961    16.186344    23.612536    40.141305 
75652000    267.74202     316.3868    272.20085   -18.763495    19.533819    44.185956    40.142881 
75656000    274.85828    303.69542    287.19647   -17.505995    18.991476    16.498946    40.141507 
75660000    275.54486    319.95675    289.18178   -17.487253    18.892652     30.77497    40.141079 
75664000    270.64437    325.17237    279.30151   -18.215953     18.92125     45.87086    40.138641 
75668000     271.6097    317.99731    295.04593   -18.277691    18.193004    22.951379    40.138706 
75672000     276.8972    324.58169    289.70629    -19.31946    18.663995    34.875404    40.141196 
75676000    279.78929    296.73647    300.84065   -17.312492    17.645856   -4.1041858      40.1401 
75680000    276.27049    329.99429    288.25222   -19.219494    19.043423    41.742071    40.139163 
75684000    269.11867    341.53953    259.10357   -18.954709     20.13082    82.435961    40.141469 
75688000    280.57852    331.83874    291.64508   -17.916606    18.670614    40.193658    40.141584 
75692000    276.15758    312.37466    293.63652   -17.204238    17.961087    18.738139    40.140534 
75696000     285.5291    340.24743    300.84467   -18.410741    17.729405    39.402757     40.14213 
75700000    276.51057    344.48324    274.63717   -18.712358    17.988131    69.846079    40.141826 
75704000    268.78974    313.12413    277.20693   -16.926558    18.901596    35.917198    40.141098 
75708000    279.36174     327.3453    298.92083   -18.384935    18.366919    28.424469     40.13939 
75712000    273.24973    341.91608    281.02961   -18.270337    18.983046    60.886467    40.138948 
75716000    274.11374    325.25055    271.74759   -17.086425    17.634621    53.502956    40.139642 
75720000    269.82811    309.17128    274.64927   -17.508985     18.68747    34.522009    40.137247 
75724000    261.91529    308.46523    276.66987   -15.535828    19.309995    31.795357    40.140998 
75728000    274.88416    328.58999    294.70968   -17.261081    18.130501    33.880309    40.139537 
75732000    268.55215    333.33375    278.70837   -17.058543    20.125662    54.625381    40.143374 
75736000    269.01563    312.73685    306.16586   -16.677257    18.278036    6.5709871    40.142441 
75740000    271.04197    333.01139    265.61619   -18.573173    20.448709    67.395195    40.143757 
75744000    270.80855    325.45231       288.62    -18.14322    19.183552    36.832313    40.145217 
75748000    263.19054    315.36697    267.30789   -16.836748    19.707499    48.059077    40.143776 
75752000    261.89667    309.96476    254.28232   -16.256401    19.893851    55.682443     40.14317 
75756000    267.98882    302.47084     293.7646   -17.695357    17.884233    8.7062353    40.144004 
75760000    276.72551    327.46402    281.67514   -18.433506    18.366708    45.788877    40.145877 
75764000    272.72828    343.61228    259.89917   -18.663344    19.985691    83.713103    40.146109 
75768000    272.25516    343.56408    270.60081   -17.392857    19.830707    72.963275    40.147185 
75772000     281.8982    335.20959     286.1802    -18.42566    19.714096    49.029388    40.146011 
75776000    263.25234    314.78361     278.5478   -18.031506    19.901148    36.235807    40.145703 
75780000    268.89724    312.78403    280.99499   -17.731591     20.53553    31.789034    40.143705 
75784000    286.25202    371.12437    272.83108   -20.667613    21.043382    98.293295    40.142999 
75788000    271.92549    318.67955    299.86961   -18.858683    18.742359    18.809934    40.145388 
75792000    266.64676    320.86903    267.76641   -18.260744    19.906486    53.102627    40.144875 
75796000    272.83033    340.14488     268.0192   -19.258905     20.03217    72.125675    40.145216 
75800000    274.04309    301.86127    290.07698   -17.186058    19.473199    11.784296     40.14648 
75804000    269.65173    336.51562    281.77227   -18.219753    19.644081    54.743347    40.149563 
75808000    263.23059    295.27197    269.53059   -16.951721    20.065316    25.741383    40.150105 
75812000    278.51182    338.02201    287.17197   -19.578073    19.863284    50.850043    40.150892 
75816000    269.68005    328.40854    270.54684   -18.925337    19.614104    57.861697    40.153332 
75820000    271.77884    318.28072    268.35705   -18.866167    19.011945    49.923675     40.15201 
75824000    277.74528    316.75039    301.19791   -18.662619     18.25771    15.552484    40.150341 
75828000    264.70793    316.82893    280.25009   -17.384048    18.254508    36.578839    40.149031 
75832000    273.26847    325.17838    280.28739   -18.912228    18.514169    44.890995    40.148942 
75836000     271.9227    297.55131    284.95076   -18.876861    18.277261    12.600544    40.148744 
75840000    268.35842    300.41386    270.80284   -18.949418    19.184045    29.611021    40.147418 
75844000    286.44992    329.03609    310.47194   -19.606187    16.643474    18.564145    40.148074 
75848000     269.8345     327.3098    291.55132   -19.403073    19.477759    35.758476    40.147567 
75852000    281.49807     336.6322    285.98992   -20.535205    18.285875    50.642283    40.146166 
75856000     278.7131    322.25601    284.77577   -19.275261     18.20937     37.48024    40.144252 
75860000    278.51157    332.68905    296.86751   -20.017183    18.582173    35.821539    40.142231 
75864000    275.81602    313.34302     293.5318   -19.255734    18.680795    19.811213    40.140491 
75868000    275.89104    308.81558    282.25963   -18.100141    19.021405    26.555943    40.141343 
75872000    264.08966    299.01797      275.346   -17.823853    20.296383    23.671964    40.139239 
75876000    270.11997    316.27476    275.53121    -18.74027    19.581793    40.743545    40.139969 
75880000    277.62205    333.25994    292.29172   -19.316578     17.99172    40.968222    40.141189 
75884000    285.77697    365.40093    288.95755   -20.702846     18.40521    76.443375    40.140598 
75888000    271.35262    300.98241    282.80521   -16.810234    19.384958    18.177196    40.140964 
75892000    272.96187    332.95585    268.52701   -19.119616    19.931873    64.428837    40.143111 
75896000    282.58382    345.98972    292.16505   -20.319174    18.458816    53.824673    40.144301 
75900000    275.03665    341.91467    261.02339   -19.492212    20.490723     80.89128    40.145671 
75904000    271.97613    327.19973    282.08879   -18.438377     19.13874    45.110934    40.145457 
75908000    269.45899     299.2392    267.80606    -17.93881    19.093793    31.433134    40.143629 
75912000    272.93456    312.39253    276.64965   -19.812633    19.665119    35.742876    40.144946 
75916000    264.86542    302.62134    274.23865    -18.24474    18.927849    28.382697    40.143315 
75920000    280.28176    322.49352    285.54723   -18.541814    17.911331    36.946283    40.145919 
75924000    288.04861    348.21316    305.40829   -19.946952    17.778098    42.804868    40.146195 
75928000    278.26948    321.95801    287.24487   -18.653396    18.445089    34.713136    40.144619 
75932000     281.5389     338.2757    275.86411   -19.206671    18.014231    62.411585      40.1462 
75936000    271.48021    306.54038    287.22205   -17.623617    18.275162    19.318325     40.14529 
75940000    275.28737     312.2126    289.38142   -18.473708    18.813816     22.83118    40.143788 
75944000    279.39919    338.27571    273.69851   -18.561411    20.030567    64.577202    40.145513 
75948000    276.34509    331.11179    281.98934   -18.823358    18.662677    49.122451    40.144151 
75952000    270.14211    324.24606    283.45039   -19.329276    18.618882    40.795671    40.146298 
75956000    266.47502    308.74918    265.63577   -16.808917    18.912252    43.113409       40.145 
75960000    275.85465    319.38855     278.9902   -18.948035     17.42793    40.398351    40.142538 
75964000     276.3196    332.29122    292.52839   -18.373253    18.246031    39.762824    40.142505 
75968000    273.45099    321.62251    273.20982   -18.932412    19.559087    48.412689    40.143983 
75972000     283.8372    328.58567    291.65942   -20.465654    18.275909    36.926247    40.143971 
75976000    277.06984    339.99659    260.13541   -19.535282    20.371515     79.86118    40.144671 
75980000    282.03264    328.84337    293.25063   -19.471926     18.04702    35.592737    40.144935 
75984000    275.44356    322.80868    288.24225    -19.47792    17.884455    34.566432      40.1476 
75988000    279.04615    334.88432    280.26468   -20.613994    17.815007    54.619634    40.148042 
75992000    272.57927    307.32623    281.03459   -18.516562    18.549408    26.291639    40.148031 
75996000    262.41166    306.01315     273.7482   -19.190187    18.945542    32.264952    40.147316 
76000000    268.48679    309.09967    279.02924   -18.011627    18.042033    30.070428    40.147569 
76004000     271.0218    312.23634    273.89998   -17.963983    19.801087    38.336365    40.147887 
76008000      269.072    320.65665    273.13267   -18.343032    20.299088    47.523978    40.145507 
76012000    274.85903     315.8243    289.25087   -17.382394     20.21661    26.573437    40.144496 
76016000    273.47663    341.45259     283.9553   -18.545952    19.642643    57.497288    40.145294 
76020000     261.0793    315.30638    264.33379   -16.840243    19.841153    50.972593    40.144172 
76024000    265.77378    328.95397    263.56393   -17.650312    20.482616    65.390042    40.143902 
76028000    264.95449    312.09078     279.1188   -17.361259    19.655793    32.971977    40.145489 
76032000     277.0943    323.25263    281.95414   -17.979911    19.583414    41.298492    40.145133 
76036000    269.96359    318.39049    295.16166   -16.942282    19.955057    23.228833    40.141364 
76040000    273.22125    331.17077    277.18489   -18.262733    19.943857    53.985877    40.139695 
76044000    269.61069    335.69129    260.08272   -18.932912    19.110273    75.608564    40.141754 
76048000    275.56558    325.57843     272.0992   -17.828647    19.115227    53.479224    40.142499 
76052000    266.73728     312.9682    271.95885   -16.762161    19.324967    41.009351    40.142635 
76056000    274.50183    316.97531    282.75791   -16.267768     19.68974    34.217401    40.142866 
76060000    275.09501     326.9017    288.58533   -16.374074    18.632155    38.316372    40.143855 
76064000    276.92888    330.00023    293.63983   -17.617509    18.810951    36.360406    40.143965 
76068000    273.44952    319.04562    278.91261   -16.636479    19.292767    40.133008    40.143741 
76072000    270.35651    311.81886    287.51301    -16.83971    19.249535    24.305846    40.141783 
76076000    268.85665    312.80074    283.07019   -16.408727    19.096069    29.730555    40.143082 
76080000    269.57355    302.14188    293.96916   -16.090458    19.408154    8.1727153    40.142419 
76084000    272.42775    328.08841     266.9177   -17.084615    19.240978    61.170703    40.140116 
76088000    274.23552    329.26869    288.15795   -16.730865    17.475368    41.110746    40.138022 
76092000    280.41394    335.71184    299.89388   -18.671759    18.113758    35.817959    40.138315 
76096000    262.45244     311.2837    265.26043   -15.147154    19.218299    46.023268    40.137993 
76100000    265.50344    307.08634    280.86743   -15.758572    18.343548    26.218913    40.139459 
76104000    278.09253    349.07315    282.31124   -18.350089    17.048674    66.761913    40.141024 
76108000    271.16497    311.78544    280.48206   -18.805048    18.077477    31.303378    40.140767 
76112000    276.36695    303.60406    294.63696   -17.111733    18.263002     8.967103    40.142347 
76116000    273.50644    304.16446    293.64148   -16.484904    17.175531    10.522982    40.143822 
76120000    266.38677    305.95924    275.93178   -17.209849    18.206592    30.027463    40.141756 
76124000    274.65276    322.65772    293.37382    -18.39775    18.192409    29.283899    40.141473 
76128000    271.75641     299.5434    296.23839   -16.566169    16.559253    3.3050023     40.14211 
76132000    277.01535    328.89428     272.5588   -18.553097    18.576935    56.335474    40.145983 
76136000    271.65676    322.01077    263.25054   -19.017795    20.002659    58.760231    40.146206 
76140000    279.81107    351.39277    272.64815   -19.900164    18.865579    78.744627    40.144784 
76144000    272.80502    315.44224    279.11327   -17.671615    18.774178    36.328971    40.145521 
76148000    267.50044    302.69512    284.88602   -18.238845    18.222098    17.809104    40.143585 
76152000    274.79373    328.04695    280.88412    -17.35168    18.948783    47.162826    40.143412 
76156000    260.62811    299.22978    273.92781   -16.857221    18.322397    25.301969    40.142173 
76160000    264.25075    325.18493    268.75181   -16.749936    18.476497    56.433117    40.140514 
76164000    279.37679    334.47437    283.45356   -18.665771    19.121114    51.020804     40.14098 
76168000     271.0515    322.62903    274.26589    -17.38903    19.780415    48.363134    40.140929 
76172000    273.79284    324.71775     287.8652   -18.107606    19.655422    36.852546    40.140718 
76176000    284.57543    353.69804     303.4035   -18.161435    16.560755    50.294542    40.142839 
76180000    278.72238    338.77831    278.92722   -19.718707    18.661376    59.851093    40.144157 
76184000    277.26327    327.45784    278.72672   -18.133807    17.008485    48.731114    40.144257 
76188000    277.45188    312.89178    274.59223   -16.416916    16.811017    38.299559    40.144382 
76192000     279.7046    339.35866    289.43912   -19.234657    16.542535    49.919546    40.143599 
76196000    278.29799    321.91226     281.4024   -17.368121    17.858071    40.509865    40.141963 
76200000    281.37221    313.40698    308.29635   -18.166074    16.135968    5.1106312    40.140616 
76204000    276.50842    347.19683    267.07649   -19.126564    19.098491    80.120348    40.142602 
76208000    274.85774    314.91628    268.78887   -17.586175    19.185114    46.127409    40.144435 
76212000    286.43175    324.82929    298.10228   -18.444961     18.63332    26.727015    40.142105 
76216000    275.90697    314.08309      276.101   -18.620904    18.132961    37.982084    40.144358 
76220000    273.76736    311.56843    282.88332   -18.036825    18.113901    28.685105    40.145666 
76224000    275.47142    315.63416    269.91417   -17.097103    18.158995    45.719987    40.145074 
76228000    269.98952    314.52621    275.93788   -16.482685    18.170978    38.588335    40.145672 
76232000    272.49456    321.32897    287.80918   -18.673245    18.716749    33.519789     40.14333 
76236000    261.79132     299.0772    275.56747   -16.215927    18.526638    23.509729    40.144529 
76240000    268.54234    330.74959    278.04201   -18.531872     17.80881     52.70758    40.145929 
76244000    273.58339    339.87702    278.47909   -18.404135      18.3224    61.397928    40.148682 
76248000    276.04463     331.3907    299.89607   -17.261848    17.559202    31.494632    40.149198 
76252000    277.56834     330.3569    276.89325   -16.817852    17.947003    53.463652    40.150406 
76256000    265.67791    313.93571    272.53919    -16.36615    19.610573    41.396516    40.151282 
76260000    261.26205    311.58932    252.58417   -15.949523    21.231627    59.005147    40.152119 
76264000    273.06098    336.21255    281.59125   -18.216777    19.741897    54.621299    40.153334 
76268000    264.93386     330.9932    271.36718   -18.377819    19.528618    59.626023    40.149955 
76272000    261.71625    293.84304    269.49887   -16.102921    18.920795    24.344163    40.150276 
76276000    272.86295    331.64314    291.69137    -18.10833    17.883415    39.951768    40.148939 
76280000    275.41472    336.84608    299.94457   -19.153123    18.794871     36.90151    40.150335 
76284000    265.46998    309.12961    276.68971   -17.403826     19.65353    32.439892    40.150338 
76288000    272.67067    309.77978    291.94858   -17.217577     19.98494    17.831197    40.150525 
76292000    266.82552    311.34021    287.28765   -17.026228     19.49292    24.052561     40.14776 
76296000    272.00557    333.82062    276.64876   -17.762915    19.927866    57.171865    40.149072 
76300000    272.10965    325.21802    284.23822   -17.331198    19.173523    40.979801    40.149748 
76304000    273.61351    327.52381     281.5232   -17.093846    19.480309    46.000609    40.150234 
76308000    273.22534    339.60983    287.25618   -18.139426    19.066891    52.353651    40.150109 
76312000    274.46386     327.9108    272.41668   -16.774335    17.453054    55.494112    40.149742 
76316000    281.32232    306.61514    304.70308    -15.53576    17.439827     1.912068     40.14754 
76320000    265.72436    313.45965     266.2992    -17.20219    19.323153    47.160446    40.145066 
76324000    271.10473    316.32145    291.72826   -17.180468    18.541894     24.59319    40.145656 
76328000     272.6993    339.78182    266.89777   -18.974619      18.4829    72.884048    40.146322 
76332000    268.83307    326.52014    272.53226   -17.144787    18.840564    53.987887    40.145018 
76336000     277.0183    320.73628    298.46869   -17.251174    17.560121     22.26759    40.145025 
76340000    277.81028     328.5629    288.15773   -17.410887    18.622621     40.40517    40.145401 
76344000    265.53528    307.03741    285.80922   -15.418612    18.541347    21.228189    40.145553 
76348000    268.24261    304.98302    285.63565   -16.491596    17.800102    19.347363    40.147201 
76352000    276.04874    342.69523    267.22386   -17.471616     18.94856    75.471369    40.146597 
76356000    268.38765     340.3469    262.40337   -17.904825    20.567694    77.943529    40.148123 
76360000    262.50881    318.59234    255.76486   -18.258669    20.658853    62.827476    40.148827 
76364000     271.4896    319.69859     288.7795   -18.230914    19.261343     30.91909    40.149341 
76368000    269.32857    328.32753    276.19522     -18.5148    19.681861    52.132307    40.148699 
76372000    270.96942     350.3898    269.71231   -18.649535    19.826955    80.677491    40.148453 
76376000    269.63984    313.42554    268.49211   -16.889649     21.19557    44.933433    40.149997 
76380000    271.57594    320.39728    278.30395    -18.00351    19.739721    42.093323    40.150357 
76384000    273.09042    330.88199    271.94175   -19.793384    20.119416    58.940248     40.15035 
76388000    270.67099    329.18506    288.15776   -18.691922    19.437213    41.027296    40.150317 
76392000     269.3691    325.77843    263.02954   -17.454459    20.791381    62.748895    40.151039 
76396000    278.56205    341.86399    282.82267   -18.623536    19.460194    59.041316    40.152462 
76400000    273.45922    320.80539    287.32127    -16.84766    19.439876    33.484114    40.150968 
76404000    269.91515    324.90433    285.65323   -18.339732     19.59001    39.251103    40.151104 
76408000    272.81355    337.91198    279.53156   -19.492006    19.050007    58.380423    40.151506 
76412000    273.05531    308.16131    293.71616    -18.62009    18.811892    14.445152    40.150576 
76416000    276.08986    332.01519    291.22107   -18.314422    17.555289    40.794125    40.151069 
76420000    274.14598    325.39639    285.50301   -19.766466    19.058142    39.893378    40.151367 
76424000    270.18392    296.56837    293.65228    -18.32591    18.850938     2.916097    40.151964 
76428000    273.76051     309.1605    273.10757   -18.029629    19.280037    36.052932    40.150948 
76432000    274.45878     346.9871    274.56937   -19.055954    18.343658     72.41773    40.151685 
76436000    268.91405    314.72155     266.7117    -17.36408    20.602664    48.009855    40.149978 
76440000    277.56047    317.69909    284.28395   -18.916513    19.232643    33.415145    40.150871 
76444000    274.35227    322.09498     292.8576   -17.883498    18.949681    29.237382    40.150606 
76448000    268.92039    315.73628    284.17906   -19.417515     18.35159     31.55722    40.148166 
76452000     271.5778    310.77388    278.63685   -18.187071    18.729462    32.137028    40.148413 
76456000    278.02015    320.86037    291.07716   -17.826338    18.335312     29.78321    40.147047 
76460000     270.5841    346.79546    268.76978   -19.597106    19.274169    78.025684    40.145186 
76464000     278.1167     310.1946    273.94453   -18.073607    19.142392    36.250075    40.143679 
76468000    271.53944    302.62257    290.55421   -17.052253    18.396897    12.068355    40.144285 
76472000    271.45474    303.21529    288.29991   -17.470694      17.5358    14.915374    40.144495 
76476000    277.19137    315.04734    293.74223   -18.336386    17.375446    21.305106    40.145855 
76480000    267.15296    301.55837    270.02671    -17.54598    18.167728    31.531663    40.145314 
76484000    269.20221    325.13887     269.4411   -19.020089     19.29482    55.697765    40.146292 
76488000    277.45024    320.68122     288.8116   -17.570823    18.295101    31.869618    40.143876 
76492000    275.89918    326.69514    281.22965   -19.098643     18.88877    45.465485    40.143897 
76496000    279.24519    304.89235    293.00104    -17.55494    18.887385    11.891311    40.143233 
76500000    269.83392    315.92957    281.99614    -17.77431     19.51386    33.933432    40.143849 
76504000    274.71882    327.90104    275.51438   -19.156636    20.752763    52.386659    40.143431 
76508000     283.3122    357.07679     276.5524   -18.764889    20.482265    80.524385    40.144324 
76512000    275.53994    326.48234    276.84869   -18.223197    19.678854    49.633653    40.146471 
76516000    269.25351    306.48306    276.84901    -17.53651    19.323712    29.634046     40.14741 
76520000     274.5837    330.89462    294.31398   -18.145488    18.069961    36.580637    40.149583 
76524000    274.41953    313.84854    283.65697   -18.689307     18.51776    30.191576    40.149839 
76528000    269.68195    311.25953    289.47907   -17.886775    18.635288    21.780465    40.151077 
76532000    272.01091    316.87558    282.12626   -18.546116    19.636815    34.749325    40.151606 
76536000    268.84808    296.59162    273.36658   -16.616007    18.876275    23.225034    40.150056 
76540000    273.36971    321.52996    281.66745   -17.938698     18.50413     39.86251     40.14975 
76544000    267.49259    311.17473    285.74281   -17.090446    18.098241    25.431921    40.148994 
76548000    266.05872    325.34023    274.19966    -17.11115    19.450959    51.140569    40.149097 
76552000    268.84701      322.987    270.10074   -16.665005    20.631447     52.88626    40.148102 
76556000    264.68776    300.41907    290.27159    -16.11412    19.460522    10.147486    40.150379 
76560000    263.77333    303.66797    275.10184   -15.862365    20.194692    28.566131    40.150949 
76564000    276.27242    332.31955    291.82201     -17.5797    20.067527    40.497536    40.150485 
76568000      271.643    320.97744    290.94823   -16.481894      19.2135    30.029213    40.149786 
76572000    272.87834     327.5627    288.05827   -17.947728      19.0769     39.50443    40.146766 
76576000    271.72498     341.8421    259.57837   -16.393123    20.420059    82.263736    40.147278 
76580000    264.92093    324.11405    267.98641   -15.698786    19.927184    56.127637    40.145159 
76584000    267.25443     317.4191    281.14891   -16.331867    20.046821     36.27019    40.143131 
76588000    265.99382    328.14314    271.08305   -17.718781    19.333384    57.060089    40.143708 
76592000    270.92878    319.08314    275.37645   -18.437534    19.494468    43.706694    40.144252 
76596000    273.29007    333.54311    279.34663   -18.331628     19.75222    54.196478    40.145342 
76600000    268.87599    315.63726     288.7456   -16.819806    19.809817    26.891662    40.144256 
76604000    272.21876    322.22755    269.28874   -17.573465    20.980675    52.938814    40.144261 
76608000    267.58736    314.52284    279.99414   -18.950048    19.312921    34.528702    40.144901 
76612000    259.63635    303.41651     268.2888   -18.207195    19.306855    35.127707    40.143033 
76616000    273.49678    333.69999    284.43229   -18.404573    18.853214    49.267697    40.144562 
76620000    266.97447    313.71523    283.13173   -17.547084    19.010331    30.583502    40.143063 
76624000    275.21137    320.74468    282.04058    -18.42797    18.451289    38.704098    40.139671 
76628000     275.3696     336.2919    280.02199   -17.925763    18.782887    56.269913    40.140858 
76632000    271.89908    321.62464    298.37309   -17.875947    18.855816    23.251559    40.140585 
76636000    268.91979    326.53718     261.6356   -18.247542    19.797373    64.901575    40.143204 
76640000    272.49414    313.10557    299.02412   -17.475765    18.383323     14.08145    40.140035 
76644000    269.94812    309.81956    274.28412   -17.487527    18.789487    35.535436    40.140525 
76648000    274.48391    330.63115    261.25241   -18.665183    20.037231    69.378736    40.141499 
76652000    273.77341    321.36889    266.37274   -17.677589    19.776281    54.996148     40.14019 
76656000    278.54738    342.25987    284.54033   -18.750646    19.113672    57.719534    40.140467 
76660000    270.60752    313.75507    279.20725   -17.304661     18.87119    34.547818     40.13907 
76664000    270.62532    305.64794    272.63439   -17.714462    19.766304    33.013552    40.138231 
76668000    263.46434    285.31896    263.94644   -17.702437    19.877432    21.372518    40.140789 
76672000    280.47626     321.8453    274.88916   -21.134271    19.457642     46.95614    40.140039 
76676000    273.81282    320.00364    267.16605   -19.226228    19.861994    52.837592    40.139783 
76680000    270.81175    319.67089    269.19471   -20.365139    20.181408    50.476181    40.139843 
76684000    282.39298    344.51498      292.928   -20.878328    18.635957    51.586974    40.137421 
76688000    272.85733    331.33123    267.02577   -20.274605    20.563599    64.305458    40.137341 
76692000    290.64058     334.6446    308.25349   -19.028666    19.432129    26.391107    40.137197 
76696000    284.61144    354.59655    274.27288   -20.958978    18.642535    80.323664    40.138384 
76700000    276.88764    305.83049    312.06778   -19.039951    17.473312   -6.2372886    40.137816 
76704000    281.78108    343.65013    286.60534   -20.635508    18.875439    57.044792    40.136999 
76708000     267.1272    297.55504    275.00919     -19.0476    20.045602    22.545858     40.13678 
76712000    265.80706    308.63747    281.48454   -19.387035    19.511186    27.152926    40.137405 
76716000    282.50636    350.94369     273.3162   -18.678238    20.473553    77.627495    40.139002 
76720000    266.74403    296.77951    288.70959   -17.572201    19.438295    8.0699177    40.141561 
76724000     278.7984    329.66126    293.04872   -21.127348    18.589277    36.612537      40.1419 
76728000    268.01302     334.1373    255.52601   -20.312725    20.427222    78.611295    40.139787 
76732000    274.35816    332.27667    288.75064   -19.747012     19.53386    43.526032    40.141753 
76736000    273.69255    335.64784    281.69532   -20.240662    20.222931    53.952527    40.141526 
76740000    278.41521    353.87267    293.25838    -21.14446    19.153474    60.614297    40.142846 
76744000    279.40581    319.60218    279.76541   -19.933717    19.609014    39.836771    40.140662 
76748000    276.17738    328.36002    288.82888   -19.720024    20.219144    39.531147    40.140212 
76752000    280.83844    333.47198    289.76742   -19.329957    19.949667    43.704554    40.140122 
76756000    280.68775    339.98915    284.79759   -19.334612    19.683557    55.191567     40.14113 
76760000    270.25148    301.92951    271.59064   -16.356415    21.140098    30.338874    40.141817 
76764000    278.77288    355.44667    276.69251   -20.181708    19.672847    78.754166    40.140099 
76768000    277.87566    315.82809    293.35923   -17.936628    18.667239    22.468859     40.13875 
76772000    273.45268    314.41666     302.6845   -17.050561    18.373042     11.73216    40.137762 
76776000    278.14521    339.34359    286.09801   -19.065395     19.29107    53.245577    40.135276 
76780000    272.30219     328.2251    290.12011   -18.049509    19.995594     38.10499    40.136287 
76784000    271.23384    320.16018    278.06615   -18.620626     21.26265     42.09403    40.134167 
76788000    267.77333     315.6947    281.95591   -17.591831    20.618838    33.738797    40.131928 
76792000    269.76326    313.07659    280.87889   -18.077147    21.289307    32.197693    40.132029 
76796000    278.37808    335.44682    308.20592   -18.674128    19.069991    27.240891    40.132643 
76800000    269.80162    328.10937    282.40145   -18.840592    20.166132    45.707921    40.132768 
76804000    271.86041    308.44442    306.79999   -17.268518    19.643804    1.6444225    40.131723 
76808000    266.91213    320.94568    281.55415   -17.370146    20.732893    39.391531    40.133548 
76812000    270.17902    324.22617     288.4442   -18.357458    20.332386    35.781967     40.13179 
76816000    274.68826    343.42634    283.06793   -20.326021    20.907532    60.358408    40.132537 
76820000    260.64302    321.17063     270.1157    -18.76398    20.970449    51.054929    40.133219 
76824000    265.13823     329.8725    261.21631   -19.522803    21.291174    68.656193    40.134045 
76828000    274.27968    336.98569    281.14695    -19.12885    21.207888    55.838734    40.135392 
76832000    282.42421    327.89303     304.7519    -18.26914    19.446784    23.141132    40.135851 
76836000    275.39267    347.69189    278.87213   -19.397846     21.97885    68.819762    40.134788 
76840000    260.45101     301.7073    269.81315   -18.322457    22.019801    31.894149    40.135229 
76844000    281.53895    347.35207    283.91272   -20.188107    20.243712    63.439354    40.135029 
76848000    275.95601    334.67195    283.03586   -19.743214    20.750711    51.636094    40.134751 
76852000    274.30964    334.15749    283.17364   -19.155532    19.730283    50.983848    40.134187 
76856000    272.71377    332.15386     295.7786   -19.751543    19.359177    36.375255    40.136192 
76860000    262.73338     309.3249     273.4547   -19.100864    20.586496    35.870203    40.136818 
76864000    272.70138    335.98445    282.01434   -21.076981    20.265336    53.970107    40.137667 
76868000    282.46517    327.97983    300.86151   -19.452571    20.341775    27.118322     40.13589 
76872000    280.33795      333.673    289.23607    -19.61312    21.161931    44.436923    40.137253 
76876000    277.52176    325.47768    287.36745   -19.597486      20.8368     38.11023    40.137938 
76880000    273.15515    323.89529     279.5796   -20.285136      21.2419    44.315684    40.136449 
76884000    280.26339    341.62859    298.31064   -21.798504    20.361303    43.317952    40.135066 
76888000    261.10017    301.75419      260.901   -19.197155    21.432541    40.853194    40.134704 
76892000    268.49708    328.83188    273.96362   -21.275517    21.184821    54.868264    40.135901 
76896000    266.77169     325.1894    259.13555   -19.868959    22.161072    66.053854    40.136826 
76900000    266.81706    321.09087     273.4548   -19.479246    20.611961    47.636071    40.138059 
76904000    262.35855    312.28174    271.86977   -19.397306    22.030346    40.411964    40.138984 
76908000    275.04499    329.97018    292.61685   -19.587252    20.666268    37.353326    40.140019 
76912000    271.44757    331.58954    280.28798   -19.969808    20.556558    51.301568    40.139868 
76916000    273.38346    316.55313    288.73407   -18.420645    19.881017    27.819054    40.138395 
76920000    277.20801    343.93496    285.41506   -19.153439    19.862499    58.519905    40.138639 
76924000    274.27338    330.34599    288.09614   -18.660622    21.177089    42.249845    40.140868 
76928000    263.46932    312.93638    279.79169   -17.440473    21.681534    33.144692    40.139415 
76932000    263.54342    321.18045    262.76276    -18.26564    22.290811    58.417683    40.139227 
76936000    268.53978    310.94334    275.26791   -18.811213    21.187865    35.675433    40.139023 
76940000    269.05558    311.67485    285.47354    -18.71354    20.933681    26.201311    40.138929 
76944000    271.29993    312.43688    283.43579   -20.201193    20.823977    29.001085    40.137095 
76948000    261.17286    314.40774    275.73921   -19.050653    20.762733    38.668532    40.137547 
76952000    268.80695    297.18968    300.97206   -18.172255    19.387186   -3.7823795    40.136741 
76956000    265.54464    298.69134    287.71143   -18.038823    20.526669    10.979911    40.135147 
76960000    270.20092     319.9983    269.38363   -18.912452    21.875001    50.614669    40.135657 
76964000    274.59632    329.73718    295.96504   -18.638568     20.39238    33.772136    40.135796 
76968000    261.54748    334.83594    267.91343   -19.039122    21.576518    66.922512    40.136796 
76972000    277.14132    338.76068    304.43383    -20.10158    19.337167    34.326846    40.135625 
76976000    274.46828    308.70196    296.18083   -18.002903    19.926357     12.52113    40.137006 
76980000    268.98215    310.68998    269.27879   -17.966263     20.57134    41.411195    40.135421 
76984000    269.55738    338.54021    266.26543    -18.84793     20.64221    72.274777     40.13543 
76988000     271.0015    322.55609    270.41488    -17.35673     20.67512    52.141209    40.135564 
76992000    269.05023    311.72132    277.85227   -17.637941     19.96148    33.869047    40.135904 
76996000    262.25404    313.53073    276.18289   -17.055811    20.583953    37.347839    40.135982 
77000000    285.25025    361.14564    280.59609    -19.00542    19.571871     80.54955    40.135027 
77004000    263.13682    307.09795    279.34032   -17.648037     19.43394    27.757626    40.136005 
77008000    269.19412    306.53566    274.30514   -17.941622    20.257878    32.230522    40.136265 
77012000     278.4603    327.08063    295.58132   -18.512246    19.228626     31.49931    40.135485 
77016000    276.49806     318.7072    277.49061   -18.898857    20.003224     41.21659    40.134157 
77020000    274.06534    326.04638    289.92785   -18.507676     19.70964    36.118533    40.135973 
77024000    278.09562    330.59004    286.78022   -18.596202    20.770204    43.809816    40.135257 
77028000    268.02436    316.82776    266.02322   -18.126141    21.196689    50.804547    40.134185 
77032000    265.49704    308.33676    273.03771   -18.176841    21.235571    35.299057     40.13607 
77036000    273.65634    336.25593    287.95643   -18.694721    20.013738    48.299495    40.132691 
77040000    271.74957    316.81326    265.33643   -19.330436    21.261607    51.476829    40.132192 
77044000    281.42872    322.65376    283.69705   -18.434296    19.651409    38.956705    40.130932 
77048000    279.02085    332.79885    298.51212   -19.884667    18.396818    34.286731    40.130105 
77052000     267.9584    316.01359    261.82131   -18.956075    20.378429    54.192278    40.129873 
77056000    286.55599    357.15582    285.26615   -21.709782    19.629778    71.889665     40.13005 
77060000    281.57108    323.30279    299.73058   -19.738944    17.981842    23.572218    40.129651 
77064000    278.69465    322.50387    283.46275   -19.959733    19.787733    39.041118    40.128526 
77068000    278.67051    339.41715     272.7455   -21.276953    19.300329    66.671651    40.128716 
77072000    277.99068    335.32215    271.13372   -18.807224    19.466499    64.188427    40.128221 
77076000    271.18083    301.09405    275.88289   -18.571199    20.104411    25.211159    40.126527 
77080000    282.68889    332.24553    293.98196   -20.537908    18.510764     38.26357     40.12904 
77084000    279.83611    333.73136    286.20903   -20.910256    19.263632    47.522334    40.129562 
77088000    271.32395    309.76482    267.15207   -19.577759    20.101968    42.612743    40.129397 
77092000    281.08283    323.76288    294.32136   -19.226689    19.275079    29.441524    40.128716 
77096000    276.63644    305.30557    274.48152   -19.079418    19.377187    30.824056    40.128631 
77100000    281.12083    319.39191    262.96507   -20.375098     20.24837     56.42684    40.129443 
77104000    275.17208    322.51758    283.67366   -20.450104    20.119128    38.843923    40.129754 
77108000    278.26578    297.58071    306.80289   -19.916162    19.232113   -9.2221792    40.131164 
77112000    285.83814    322.97345    292.88968   -19.133071    19.355601    30.083775    40.130748 
77116000    272.95187    315.88168    274.90611   -19.003534     20.30316    40.975574    40.130708 
77120000    268.34343    328.15867    288.15207   -19.955079    20.787109    40.006604    40.130889 
77124000    282.07025    331.13062    300.01111   -19.641666     18.60293    31.119506    40.132722 
77128000    280.16347    321.81944    284.64109   -19.730997    19.539964     37.17835    40.132225 
77132000    278.23718    325.50104    284.40487   -20.195721    20.134121    41.096169    40.130669 
77136000    275.52629    317.48428    266.07819   -19.323869    21.292772    51.406089    40.131127 
77140000    275.12526    327.21829    270.48253   -20.179746    21.178148    56.735757    40.131431 
77144000    271.62482    309.75218    281.54021   -19.122667     19.24566     28.21197     40.13165 
77148000    283.64392    337.85948    268.90866   -19.803359     20.71876    68.950818    40.131602 
77152000    279.25362    306.12428    281.83472   -20.520129    19.061131    24.289553    40.133701 
77156000    283.18433    335.98564    283.96823   -21.136674    19.046519    52.017414    40.134859 
77160000     283.1122    334.85751    299.15707   -21.178551     18.71675     35.70044    40.135925 
77164000    284.50903    336.29985    310.09775   -20.340023    18.472446    26.202107    40.137573 
77168000    279.35919    321.95608     292.1349   -20.331038     19.76358     29.82118    40.137292 
77172000    274.64752    318.52609    277.47016   -20.885596    18.187012    41.055932    40.139203 
77176000    277.96215    328.09644       272.83   -20.714467    18.800034    55.266441    40.139877 
77180000    277.17061    310.98391    299.21469    -20.34181    17.171082    11.769226    40.139781 
77184000    285.23777    341.43457    280.15708   -20.716167    19.105499    61.277487    40.139361 
77188000    278.01601    305.23169    293.89089   -19.462071    17.533828    11.340804    40.140563 
77192000    276.60139    323.27645    295.43821   -19.522318    18.294494    27.838237     40.14044 
77196000    274.81358    309.85279    282.83423   -20.878055    18.773166    27.018556     40.14066 
77200000    279.45376    316.83939     259.2311   -20.491953    19.772977     57.60829    40.141994 
77204000     281.1021    317.05057    285.90972   -20.051819    18.870021    31.140847     40.14089 
77208000    287.82918    311.76883    317.25099   -20.265065    17.600216   -5.4821537    40.140744 
77212000     281.2363    323.87458     297.4442   -19.325852    17.530729    26.430379    40.138929 
77216000    290.86495    331.51393    296.28119    -18.70186    18.885116    35.232743    40.137692 
77220000    281.63973    311.80528    279.00247   -19.220618    18.038917    32.802811    40.135113 
77224000    275.49915      321.081    270.13914   -19.860002    18.742141    50.941868    40.135968 
77228000    282.59531     335.6339      273.383   -20.197588    19.926025    62.250897     40.13602 
77232000    281.45182    339.74246    269.83187   -20.171581    19.286796    69.910593    40.134756 
77236000    283.89113    350.50942    290.34232    -21.06309    19.206129    60.167097    40.135313 
77240000    277.35539    322.16142    283.75592   -18.789301    20.047688    38.405509    40.135641 
77244000    272.29933    326.38551    255.13135   -19.647294    20.790042    71.254162    40.135197 
77248000    274.49117    310.46898    270.43588   -18.485127    20.130071    40.033095    40.136277 
77252000    278.00763    336.30283    279.67186   -19.169127    19.029605    56.630976    40.136226 
77256000     275.1191    311.49562    285.04857   -17.393199     18.63387     26.44705    40.136133 
77260000    274.37941    318.19325    274.26716   -19.046403    19.678753    43.926096    40.137338 
77264000    280.54664    317.02441    301.08288   -19.206955    17.750411    15.941528    40.136483 
77268000    282.03528    337.17498    267.98053   -20.621044    18.935709     69.19445    40.136925 
77272000    280.80299    312.79184     300.8611   -18.150872     18.03323    11.930748    40.137199 
77276000    279.60596     320.2648    280.82563    -18.23797    18.542024     39.43917    40.136909 
77280000    276.84938    330.43713     283.8077   -18.786558    18.684451    46.629424    40.137765 
77284000    269.94942    306.73764    269.48883   -18.841246    19.747209    37.248811    40.136409 
77288000    268.07209     317.0509    268.51411   -18.479666    18.360021    48.536789    40.136767 
77292000    277.57321    332.07457    279.98341   -19.154262    18.374004     52.09116    40.135966 
77296000    279.92893    351.34892    283.04546    -21.21235    17.400453     68.30346    40.138224 
77300000     278.6687     318.4344    282.11335   -19.959886    18.002087    36.321051     40.13852 
77304000    274.26165    321.17771    268.43142   -18.410937    20.125153    52.746289    40.138129 
77308000    270.68342    296.46962    298.45177    -17.67712    18.611571   -1.9821465    40.138866 
77312000    274.73184    326.66441    275.34649   -18.031811    19.633863    51.317925    40.138894 
77316000    288.20201    344.20456    288.93504   -20.111584    18.349095    55.269521    40.138151 
77320000    279.27407    334.34407    275.84895   -19.714882    18.460715    58.495113     40.13896 
77324000    271.96974    307.21203    260.01602    -18.39191    19.703336    47.196009    40.139643 
77328000     269.2554    317.72286    264.77407   -17.497916     19.37911     52.94879    40.140083 
77332000    278.05692    337.23691    277.71711   -19.183926    18.760749    59.519799    40.139003 
77336000    276.06741    328.78373    272.50356   -19.603428    18.993759    56.280165    40.138681 
77340000     282.4969    337.77879    306.66937   -19.892414    19.005211    31.109417    40.139704 
77344000    274.79956    323.73355    277.99049   -18.960517    21.199615    45.743059    40.138372 
77348000    279.20719    324.88524    282.60279   -18.554951    18.978437    42.282455    40.140865 
77352000    269.28739    307.67957    287.35702   -17.681994    18.787021    20.322554    40.142633 
77356000    278.64651    345.08572    252.55861   -20.086896    19.931535    92.527114    40.139802 
77360000    278.41694    330.33293    286.59896   -19.375035    18.804432    43.733963    40.138308 
77364000    274.96198    313.49104    278.76425   -18.891341    19.091381    34.726796    40.137615 
77368000    279.25217    333.42062    285.19592   -18.903521    18.840678    48.224698     40.13734 
77372000    281.07413    348.93294    282.35472   -20.801652    18.943091    66.578217    40.136715 
77376000    284.59765    347.61393    276.24003   -20.689125    19.310763    71.373901    40.136368 
77380000     267.7827    306.27096    272.06063   -18.430928    18.874225    34.210327    40.136827 
77384000      273.821    332.78428    276.39947   -21.061374    19.198778    56.384814    40.136372 
77388000     269.1723    310.24856    264.16493   -18.709594    19.691728     46.08363    40.136983 
77392000    277.94343    325.02531    284.20527   -19.233642    19.074294    40.820039    40.136148 
77396000     270.7862      325.617    275.96438    -18.65187    18.999496    49.652617    40.136337 
77400000    264.73148    304.26522    275.98408   -18.749777    19.427222    28.281142    40.136323 
77404000    279.10849    344.80421    267.04184   -19.456185    19.728418    77.762366    40.138589 
77408000     278.6431    321.94841    297.87669   -18.725024    17.299984    24.071718    40.137167 
77412000    272.98228    308.15256    273.46315   -18.729009    18.985223     34.68941    40.137465 
77416000    268.78163     301.9058    287.52267   -18.191708    18.331127    14.383131    40.138776 
77420000    280.66443    324.32189    289.42597   -19.567198    18.198381    34.895926    40.139204 
77424000    272.22983    308.89986    272.24343   -18.635544    18.795749    36.656434     40.14162 
77428000    267.96596    318.35502    258.66458   -18.722655    19.188142    59.690444    40.143764 
77432000    276.35711    315.49016     291.2239   -19.298087     19.39001    24.266262    40.144546 
77436000    276.05574    322.32886    285.52537   -19.076459      19.0027    36.803493    40.143868 
77440000    267.29597    312.96545    256.52175   -17.151836    19.990267    56.443701     40.14318 
77444000    274.30102    323.14606    287.17998   -18.537368    19.454928    35.966079    40.142563 
77448000    280.79628    334.78852    283.45033   -19.769934     19.34405    51.338198    40.139726 
77452000    279.43151    327.93879    274.29987   -19.258691    19.285112    53.638917    40.138957 
77456000    279.83259    320.31228    279.60839   -18.049474    19.777448    40.703889    40.138979 
77460000    281.41799     342.0057    279.65705   -18.966818    19.586392    62.348648    40.141849 
77464000    273.63789    318.16101    270.44887   -19.354606     19.31036    47.712138     40.13916 
77468000    272.45257    330.65898    266.53147   -19.639849    19.494676    64.127511     40.13911 
77472000    272.03405    329.13684    259.42559   -19.966295    20.064805    69.711255    40.140291 
77476000     278.4798    313.53146    291.33353   -17.474523     18.41638    22.197923    40.139998 
77480000    267.38928    318.52974    277.45162   -17.852307    19.435393    41.078126    40.139914 
77484000    273.35503    322.36575    273.90584   -19.805368    20.435068    48.459914    40.140092 
77488000    275.56113    333.05824    286.71834   -19.988676    20.678263    46.339901    40.140317 
77492000    270.11827    336.97764    257.34413   -20.771349    21.469746     79.63351    40.141445 
77496000    278.92245    325.46194    288.68402   -20.233402    19.953387     36.77792    40.141083 
77500000    271.01996     315.3625    282.27976   -21.125993    19.146848    33.082743    40.139517 
77504000    274.34562    307.11338    291.06581   -19.249848    19.367895    16.047565    40.139504 
77508000    270.38972    319.91971    273.10961   -20.306404    19.812935      46.8101    40.139252 
77512000     273.3316    320.20822    266.45418   -19.041283    20.582729    53.754041    40.139302 
77516000    266.23515    310.82985    274.01946   -20.792254    20.250202    36.810394    40.138931 
77520000    278.47357     327.4548    290.26117   -20.781028    19.400264    37.193626    40.137122 
77524000     275.1058    333.99627    276.78339   -20.806395    20.184436    57.212888    40.136437 
77528000     286.0478    364.29174    282.56075   -22.564535    21.225195    81.730992    40.138473 
77532000    273.12111    311.81068    290.19587   -19.330415    20.690663    21.614806    40.138724 
77536000    275.32445    335.71798    265.09345   -21.401102    21.442521    70.624525    40.138783 
77540000    274.50522    311.87231    280.25027    -20.13218    20.906609    31.622039     40.13899 
77544000    277.00466    297.97767    280.46641   -19.317694    19.570461    17.511266    40.139429 
77548000    281.77879    337.15757    299.70954   -21.288933    19.403946    37.448036    40.137489 
77552000    278.96551    327.01789    268.45104   -20.195864    21.436192    58.566858    40.138089 
77556000    268.50151    306.59917    282.12503   -19.596216     20.13774    24.474141    40.137895 
77560000    271.40878    315.50457    283.07152   -20.180088    19.787504    32.433049    40.139078 
77564000    278.34957    343.46305    279.12773   -21.324264    21.214054    64.335318    40.137667 
77568000    268.14271    324.28773    265.53296   -19.817148     21.83637    58.754777    40.137779 
77572000    273.12021     312.8495     294.2488   -20.710542    20.301596    18.600694    40.135504 
77576000    280.85066    353.93162    267.38232   -19.899952    21.511719    86.549303     40.13655 
77580000    274.31773    332.68559    280.42867   -20.563936    21.593178    52.256916    40.135962 
77584000    269.37908    317.52396     254.4511    -20.38071    22.582682    63.072861    40.133647 
77588000    264.00717    310.13476    263.24778   -20.138905    22.376711     46.88698    40.134765 
77592000    277.51477    324.87354    297.84911   -20.249015    20.259717     27.02443      40.1338 
77596000    273.14447    335.95513    273.14742   -21.510856     22.03846    62.807714    40.134043 
77600000    278.31261    342.73621    292.03283   -20.390072    21.837132    50.703384    40.135103 
77604000    274.31767    311.88052    287.10859   -19.691139    22.085347    24.771935    40.134436 
77608000    273.42418    343.45942    275.18196   -20.552671    21.959551    68.277466    40.133461 
77612000    261.15184    315.28235    269.55473   -19.411454    23.011721    45.727613    40.134288 
77616000    275.37519    314.71876    300.69857   -20.488226    21.393034     14.02019    40.132438 
77620000    260.59089    306.51454    268.01284    -18.92387     21.74057    38.501702    40.132714 
77624000    268.61348    322.69389    273.53585   -19.387689    21.030037    49.158047    40.132403 
77628000    269.88655    295.49697    278.60021   -19.250507    20.526459    16.896759    40.131247 
77632000    274.59651    304.96575    279.68076   -19.639417    21.081216    25.284984    40.130903 
77636000    273.75122    329.96854    274.16776    -20.30796    20.873972    55.800785    40.132548 
77640000    272.44724    320.92894    273.11616   -19.590675     19.76651     47.81278    40.133151 
77644000    269.01336    306.77312    274.14741   -19.729323     20.36841    32.625702     40.13359 
77648000    277.81066    303.55344    297.99508   -20.860469    19.678808    5.5583643    40.133612 
77652000      277.146    327.92028    280.67681   -20.952886    21.533371    47.243464    40.133098 
77656000    278.07026    341.59387    269.47117    -21.36845    21.321174    72.122694    40.135693 
77660000    278.54903    343.46347    271.86221   -22.898522    19.860015     71.60126    40.138993 
77664000    270.61174    320.17162    272.57849   -20.309952    19.710549    47.593125    40.140311 
77668000    278.15932    338.55584    280.88672   -20.346989    20.267686    57.669114    40.140064 
77672000    277.77285    328.47918    292.74174   -20.376732    20.203507    35.737438     40.14117 
77676000    277.12834    311.83083    267.45852   -19.769764    20.793653    44.372306    40.141812 
77680000    272.17618    306.97266     285.4724    -18.89065    19.421919     21.50026     40.14135 
77684000     279.9803    339.97058     276.3623   -21.187213    18.900322    63.608275     40.14301 
77688000     274.1919    289.26761    285.92447    -17.85315     19.33586    3.3431392     40.14203 
77692000     278.9026    328.17747     273.7975   -20.707478    18.572841    54.379965    40.141414 
77696000    288.13252    359.88897     276.1561   -21.459386    19.729106    83.732869    40.139342 
77700000    275.23612    314.40261    294.42617   -19.507449    19.208334    19.976446    40.138348 
77704000    281.85448    323.39928    307.94564   -19.843591    17.749586     15.45364    40.138582 
77708000    272.90647    328.95962    259.91583   -20.623719    21.473213    69.043786    40.139131 
77712000    273.81703    317.22517    272.42375   -18.780051    19.918675    44.801424    40.138747 
77716000    282.71836    311.13637    294.64727   -19.770797    19.504918    16.489104    40.139863 
77720000    288.22777    339.74751    296.17128   -20.969023    18.422834    43.576222    40.139523 
77724000     271.2571    310.23199    280.67675   -19.872163    20.421426    29.555243    40.139211 
77728000    270.26716    314.07391    286.80911   -19.296974    19.158776    27.264802    40.138966 
77732000    272.94785    317.59116    271.75214   -18.686168     21.65348     45.83902    40.138084 
77736000     271.6835    315.56509    276.00847   -19.580634    20.930163    39.556615     40.13837 
77740000    275.54399     317.5835    288.40426   -19.788621    18.827796    29.179242    40.136907 
77744000    268.70152      303.611    303.57805   -19.683286     19.15925  0.032953786      40.1365 
77748000    268.92131    306.81402     264.4782   -20.125698    19.529839    42.335821    40.137353 
77752000    262.68655    301.23789    281.38455   -19.433087    19.683757    19.853333    40.136314 
77756000    285.01538    319.06194    292.69502    -19.78867    19.091591    26.366922    40.133795 
77760000    274.40527     321.8637     299.6939   -19.970682    18.865844    22.169804    40.135658 
77764000    270.28506    308.14909     287.8536   -17.964981     19.32525    20.295489    40.135123 
77768000    278.78762     330.2548    272.85953   -19.535199    21.457085    57.395262    40.136108 
77772000    278.46375    357.84023    273.45461   -20.770148     20.53997    84.385617    40.135345 
77776000    284.19129    332.48565    291.31755   -21.084708    20.029796    41.168097    40.136943 
77780000    269.99682    307.16884    285.20015   -18.436849     20.93002    21.968693    40.135313 
77784000     274.5604    311.43753    284.04397   -18.805739    20.444168    27.393564    40.135638 
77788000    276.21335     319.6894     293.8073   -19.630703    20.273624    25.882093    40.136413 
77792000     273.7568    302.02521    284.93158    -17.97165    20.335381    17.093634    40.135968 
77796000    265.58979    297.46228     292.9451   -17.444635     20.05916    4.5171815    40.135431 
77800000    273.62601     312.9578    306.07125   -17.831036    19.225885     6.886545    40.134816 
77804000    272.58656      333.281    263.58776   -19.263667    21.308369    69.693245    40.134357 
77808000    269.42821    332.28241    273.62506   -20.398031    21.778214    58.657349    40.133749 
77812000    272.70044     313.7051    292.85091   -19.983482     19.92715    20.854185    40.135414 
77816000    272.30403    316.68971    266.17896   -19.030726    21.450264    50.510752    40.136401 
77820000    274.53736    344.70053    286.20532   -19.616375    20.908982    58.495213    40.138218 
77824000    269.50083    333.66662    259.75343   -19.934917    21.464966    73.913184    40.138761 
77828000    264.33575    300.06717    277.65337   -16.974999    20.764424    22.413807     40.13948 
77832000     267.1566    306.42483    289.04732    -18.20629    21.158313    17.377507    40.138897 
77836000    278.00182    330.59744    272.80958   -19.236997    21.631069    57.787864    40.137105 
77840000    271.68087    311.18745    287.08747   -18.661929    20.873255     24.09998    40.136947 
77844000    281.63711    339.18543     289.1544   -19.027711    20.436151    50.031037    40.137391 
77848000    282.27214    345.99561    264.19444   -20.731306    22.196041    81.801175     40.13961 
77852000    271.17576    332.71482    255.01712   -18.960697     22.20246    77.697703    40.141392 
77856000    277.41434    342.11493    286.61027    -20.53286    21.323184    55.504654    40.142031 
77860000    266.76203    310.85093    272.38397   -20.507687    21.970871     38.46696    40.141557 
77864000    279.51947     343.6296    274.81916   -22.125114    21.381905    68.810441    40.140898 
77868000    274.81004    340.50233    280.26213   -22.694919    22.861153    60.240203     40.14199 
77872000    282.73664    362.03973     281.0988   -22.961279    21.762676    80.940933     40.14267 
77876000    273.24338    312.25542    295.86657   -19.751987    21.025398    16.388845    40.143301 
77880000    285.12204     353.2366    285.85425   -22.300809    20.542474    67.382348    40.145212 
77884000    269.95959    318.88837    273.56268   -19.993694    21.800788    45.325689    40.146015 
77888000    268.90011    300.94143    285.25781   -19.033216    20.605367     15.68362     40.14466 
77892000    269.41069    315.75384    265.91823   -20.002444    22.215322    49.835612     40.14543 
77896000    276.72592    323.32084     282.3879   -21.187099    20.901333    40.932937    40.143439 
77900000    277.27529    320.12778    288.48311   -20.790797    20.106453    31.644675    40.143844 
77904000    284.40273    318.37858    295.95129   -20.619825    20.596922    22.427288    40.143184 
77908000    272.84496    312.45061    279.28496   -20.058657     21.86875    33.165651    40.142405 
77912000     283.3938    346.08049       278.65    -22.42049    21.794819    67.430492      40.1448 
77916000    268.35154     303.8762    265.07175   -20.818798    22.068337    38.804448    40.146953 
77920000    276.86632    336.07564    288.94951   -22.605587    22.959133    47.126126    40.146143 
77924000    277.12443    320.08199    295.36426    -19.95502    21.773211    24.717734    40.146796 
77928000    279.70044    328.57669    295.13355   -21.058302     22.25433    33.443141    40.147322 
77932000    274.98682    313.88087    296.36073   -20.763871    21.867157     17.52014    40.148221 
77936000    272.39281    330.07076     283.5754   -21.931582    21.234644    46.495362    40.148959 
77940000    274.77324    320.57613    290.75866   -21.697606    21.558267    29.817467     40.15058 
77944000    272.54865    318.68324    274.81515   -21.106124    22.768031    43.868081    40.151732 
77948000    263.23552    299.82428    271.30739    -19.53575    22.923109    28.516891    40.152358 
77952000    264.69322    306.93687    262.22499   -19.333979    24.091681     44.71188    40.152378 
77956000    278.78559    326.94056    290.58147   -20.508469    21.086468    36.359088    40.150288 
77960000    267.89949    298.22618    296.70873   -19.575898    21.316068    1.5174504    40.151137 
77964000    275.63407    322.93672    290.10956   -19.809181    21.097489    32.827161    40.151965 
77968000     274.2255    330.68135    267.64124   -20.739963    21.981367    63.040117    40.150768 
77972000    264.32718    311.65297    271.05614   -19.643432    21.808477    40.596833    40.150588 
77976000    272.93296    308.45525    281.88372   -19.221831    21.859065     26.57153     40.15107 
77980000    263.27434    311.83911     271.2134   -20.372078    22.211639    40.625705    40.150588 
77984000    263.40725    301.38501    268.68522    -19.19357    21.107167    32.699787    40.149433 
77988000    271.96717    303.06688    284.87765   -18.806039    20.825037     18.18923    40.150176 
77992000    282.83729    333.62666     296.1113   -21.942102     21.26683     37.51536    40.149172 
77996000    272.95429     322.4998    280.63671   -21.446322    22.484249    41.863092    40.150951 
78000000    272.24698    318.02372    276.25988   -22.160839    21.927046    41.763838    40.150858 
78004000    270.11011    314.69172    285.58404   -20.728417    21.353723    29.107685    40.150307 
78008000    279.60616    342.86114    270.09082   -22.624029    21.909877    72.770312    40.151526 
78012000    274.56447    321.28909      277.347    -21.67566    21.186838    43.942097    40.153209 
78016000    274.20349    329.43217    262.06358    -21.39291    23.086801    67.368593    40.151951 
78020000     275.3577    315.37476    292.03066    -21.82444    20.638513    23.344099    40.151189 
78024000    278.95996    321.53456    297.22811   -21.637621    20.356448    24.306455    40.149832 
78028000    264.05535    289.66801    279.48864   -19.700948    19.710307    10.179371    40.147717 
78032000    270.47408    338.13764    265.06335   -21.528807    21.737032    73.074293    40.147394 
78036000    273.10455    322.87496    283.39441   -20.331105    21.297414    39.480556    40.148606 
78040000    279.69442    341.58251    276.50001   -21.593418    21.933789      65.0825    40.148082 
78044000    274.76255    309.61557    283.52398   -20.617194    21.013277     26.09159    40.149094 
78048000    271.46425    304.68737    284.67032   -20.897467    22.011757    20.017044    40.149554 
78052000    279.75058    339.35296    294.48157   -21.855678    21.034977    44.871388    40.148182 
78056000    278.10513    322.06726    290.80213   -21.991116    20.595864    31.265128    40.149754 
78060000    280.48998    337.44471    274.68843   -21.185034     21.90552    62.756279    40.147478 
78064000    278.56422     341.3788    287.44773   -22.492371    21.467244    53.931073    40.147064 
78068000    274.77759    335.50941    262.26461   -22.670251     23.50933      73.2448    40.147549 
78072000    280.51724    312.60312    294.23377   -21.118799    22.061658    18.369349    40.148924 
78076000     268.2953     306.4608     253.7021   -21.569566    23.094202    52.758707    40.149371 
78080000    280.75253    331.16121     285.9383   -22.036226    22.179057    45.222903    40.151497 
78084000    267.85141    292.99566    263.91749    -20.64949    23.473922    29.078172    40.152856 
78088000    267.78405    314.36891     273.7043   -21.758913    21.505068    40.664617    40.153651 
78092000     269.3537     302.8784    278.51739   -21.330548    22.004703     24.36101    40.153811 
78096000    273.62877    317.58641    270.62684   -21.639304    21.451413    46.959563      40.1538 
78100000     277.6902    315.08652    264.45117   -21.930185    22.067052    50.635353    40.155089 
78104000    276.51439    331.10147    263.10459   -24.283153    22.047745    67.996886    40.153735 
78108000    280.50687    317.86177    289.83914   -21.847944    22.007556    28.022629    40.153641 
78112000    269.37849    310.62142     260.6288   -22.448727    22.910472    49.992618    40.155691 
78116000    280.20104    317.30919    285.09133   -22.307328     21.02187    32.217855    40.155941 
78120000    276.50614    313.24707    261.56942   -22.237102    22.091695     51.67765    40.156414 
78124000    286.31186     333.9042    281.47255   -22.515222    20.659359    52.431646    40.154543 
78128000    282.30033    326.61414    262.62178   -23.550971    21.951555    63.992364    40.154832 
78132000    267.99855    302.69627    268.93183   -22.466811    21.409124    33.764443    40.156027 
78136000    280.35777    343.17327    266.47458   -23.960893    21.379036    76.698685    40.156061 
78140000    280.23994    323.22808    293.84216   -23.359836    19.151259    29.385923    40.155572 
78144000     288.4924    331.07715    290.02795   -23.007109    20.214187      41.0492    40.154908 
78148000    272.29609    307.42536    270.97069    -22.57037    21.950277     36.45467    40.155225 
78152000    279.75253    331.90066    283.89124   -23.426878    21.253394    48.009422    40.154276 
78156000    277.78159    329.91796    274.72468   -21.943871    22.013881    55.193285    40.155495 
78160000    272.39074    296.20521    278.93141   -21.255488    21.572344      17.2738    40.153838 
78164000    282.59805    336.02753    302.55722   -22.806263    20.778069    33.470308    40.153842 
78168000     267.5975    325.01669    267.65435   -22.116575    21.614219    57.362333    40.153259 
78172000    275.93022    315.57977    284.45346   -21.599112    21.379124    31.126303    40.152674 
78176000    273.55346    344.39931    277.71084   -22.359567    20.991865    66.688471    40.152382 
78180000    271.48707    324.89496    269.25789    -21.78319    22.208738    55.637069    40.152853 
78184000     276.5363    317.32514    284.17903   -20.532655    19.893075    33.146115    40.153006 
78188000    277.52642    339.18715    285.83801   -22.796178    20.478739    53.349138    40.152592 
78192000    278.38802    327.99768    274.99611   -22.496149    21.963927    53.001577    40.151271 
78196000    280.70304    326.59377    286.41282   -21.989886    21.243516    40.180953     40.15016 
78200000    273.91044    320.29089    284.73303   -22.691055    21.497082    35.557863    40.151798 
78204000    273.16382    324.51343    284.45506   -21.770166    21.856852    40.058375    40.151828 
78208000    269.37268    331.84986    261.45598     -22.1563    23.249111    70.393878    40.153696 
78212000    276.54204     317.0979    289.65562    -22.31235    21.842004    27.442281    40.155049 
78216000    286.83213    329.17753    300.60887   -22.647755    20.916015    28.568656    40.155757 
78220000    283.30924    336.79111    291.50212   -22.764629    21.865584    45.288985    40.157423 
78224000    268.63573    314.49747     260.1827   -21.553834    23.277156    54.314768    40.156103 
78228000    270.09686    315.60581    251.47701   -22.768055    23.704237    64.128801    40.158172 
78232000    276.09404    325.61358    276.47283   -22.928297     21.55972    49.140743    40.157914 
78236000    282.68331    319.28519    294.04847    -22.76892    21.517018    25.236721    40.158355 
78240000    272.10831    323.61738    281.17164   -21.367895    22.639804    42.445744    40.157947 
78244000    269.73174    302.65298    275.94696   -20.572014    23.103055    26.706018    40.156927 
78248000    278.86665    331.08561    286.76733   -22.862652    21.213821    44.318281    40.157304 
78252000    274.78133    340.56044    272.35716   -23.237655     22.06624    68.203278    40.156195 
78256000    283.96951    334.27404     295.3162   -22.910128    21.271968    38.957845    40.157034 
78260000    265.22854    313.74996    261.42921    -21.53449    21.439657     52.32075    40.158387 
78264000    268.32663    316.36426    254.27321   -21.043939    23.077148    62.091052    40.159384 
78268000    274.90261    302.46452    293.90481   -22.098708    21.256535     8.559712    40.160303 
78272000    271.47463     296.9735    282.99256   -20.836124    22.197058    13.980934    40.158737 
78276000     274.2307    319.62055    270.67479   -22.202126    22.865347    48.945758    40.157864 
78280000    279.67153    313.01816    295.80439   -22.775762    22.733449    17.213767    40.157633 
78284000      263.171    294.41095    269.80875   -20.187113    22.811209    24.602195    40.156002 
78288000    278.68623     323.3793    279.94358     -22.9419    22.581867     43.43572    40.156608 
78292000    280.21413    333.80737    282.86301   -22.639869    22.229948    50.944367    40.155612 
78296000     270.7275    315.28817    263.47489   -22.008943    22.962388    51.813284    40.155566 
78300000    278.79998    320.05428    289.48324   -22.123733    20.944158    30.571037    40.154456 
78304000    275.47354    324.53273    258.53948   -22.126842    23.262991    65.993252    40.152528 
78308000    279.90108    325.27705    282.09334   -21.519795    22.477775    43.183707    40.153727 
78312000    277.75637    317.93596    286.54776   -22.190411    22.741474      31.3882    40.153647 
78316000    270.92334    302.21371    287.48461   -22.249759    22.154282    14.729098    40.151598 
78320000    276.37116    296.68968     291.9986    -21.24691     21.79589    4.6910799    40.150572 
78324000    270.95978     300.6445    291.24375   -21.731281    22.895437    9.4007468    40.151094 
78328000    280.73897    357.29899    267.03258   -23.238138    23.435155     90.26641    40.152549 
78332000    271.19756    322.75699      284.109   -21.928098    22.220805    38.647995    40.153139 
78336000    269.12417    302.73295    266.67159    -21.43826    22.494776    36.061363    40.152112 
78340000    280.39045    330.43143     269.9321   -22.870501    22.643984    60.499326    40.152184 
78344000      273.852    328.88134    282.42938   -23.402077    22.776634    46.451961    40.152684 
78348000    280.89388    328.92149    301.14881   -23.632496    21.163212    27.772681    40.151284 
78352000    273.45013    324.14622    271.55806   -22.358278    24.241155    52.588155     40.15161 
78356000    270.37661    301.68902    275.26574   -22.166576    22.529655     26.42328    40.150213 
78360000    278.56753    323.68455    271.12642   -22.259315    22.626089    52.558134     40.14979 
78364000    275.34773    325.98979    283.94806   -22.928813    21.407619    42.041731    40.148107 
78368000     278.9486    328.07877    277.54071   -23.700714    22.418754    50.538056    40.148631 
78372000    277.70215    320.98088    271.48104    -23.50025    23.380564     49.49984    40.149642 
78376000    279.62783    311.81177    304.14617   -23.271503    21.501366    7.6656082    40.149483 
78380000    286.08753    355.52133    299.64855   -25.826921    21.499594    55.872781    40.151552 
78384000    282.11792    336.56119     291.3898   -24.344971    22.158623    45.171386    40.152714 
78388000    282.34941    335.77139    300.42348   -23.423009    21.677794    35.347915     40.15188 
78392000    282.17123    327.54419    285.57418   -23.016269    22.819472    41.970005     40.15142 
78396000    272.77075    326.38435    271.92419   -23.042965    23.435297    54.460165    40.151144 
78400000    284.44058     338.0209    291.65196   -23.087464    21.232359    46.368944    40.152635 
78404000    273.29413     319.9025    283.68221   -22.386579      21.2497    36.220286    40.153206 
78408000    283.33496    308.03659    294.25195   -21.556751    20.615757    13.784641     40.15307 
78412000    277.21195     346.8221    264.36454    -23.30856    22.089715    82.457561    40.152342 
78416000    270.73974    331.65477    273.22767   -23.768272    22.655109    58.427101     40.15133 
78420000    275.78917    321.58731    285.52766   -23.074935    21.327029    36.059644    40.151271 
78424000    274.89335    316.43909    276.70482   -22.114046    20.847606    39.734276    40.150369 
78428000    271.55813    311.17584    271.07068   -22.995264    22.188743    40.105159    40.149343 
78432000    269.71667    306.54799     279.3802   -20.865591    21.679194    27.167799    40.147839 
78436000    280.46282    325.79459    287.26197   -22.200283    22.097731    38.532617     40.14919 
78440000    274.09084    310.30476    293.74246   -22.185914    22.023041    16.562305    40.150198 
78444000    284.85909    320.99276    308.20741   -22.191303    20.599808    12.785344    40.149386 
78448000    281.53503    336.53954    285.93144   -22.306861    21.872506    50.608102    40.148405 
78452000    276.45639    320.23749    283.02393   -21.831752    20.450975    37.213565    40.149038 
78456000    273.50847    329.08328    267.12855   -21.659263    21.700765    61.954725     40.14997 
78460000    287.32241    334.42183    302.35304   -22.745405    20.497326    32.068794    40.148126 
78464000    268.58506    307.09334    266.04603   -20.388956    22.793347    41.047312    40.150318 
78468000    273.19328    312.84578    280.12833   -20.676355    23.115298    32.717459    40.151665 
78472000    273.89621     333.3697    263.76318   -22.425865    23.705736    69.606522    40.152384 
78476000    276.52582    317.88546    291.45371   -21.373724    21.771676    26.431747    40.152568 
78480000    282.56136    316.50566    292.54125   -20.477033    21.851556    23.964411    40.152551 
78484000    274.67769    323.54781    276.62488   -21.978591    22.125921    46.922933    40.150964 
78488000    280.53415    322.64597    308.68748   -22.987338     21.69334    13.958483    40.150371 
78492000    273.41734    313.44348    290.28333   -21.058331     22.21058    23.160149    40.149485 
78496000    268.87297    296.50126    274.61675    -20.99801    23.201225     21.88451    40.147957 
78500000    263.42841     311.1669     263.2847   -21.392878    23.190579    47.882199    40.148594 
78504000    270.57074    300.14528    278.63996   -20.576488    23.655529    21.505325    40.147627 
78508000    269.91222    304.16917    281.07712   -21.555767    23.290856    23.092056    40.148645 
78512000    265.33265    287.29797     281.6605   -19.998758    23.184807    5.6374756    40.146765 
78516000    274.31007    338.32283    290.03353   -22.342336    22.174522    48.289305    40.146522 
78520000    274.04511    300.97342    290.07938   -21.432842    22.225678    10.894044    40.145369 
78524000    271.95067    315.25521    295.70938   -22.665986    22.528274    19.545823    40.145312 
78528000    275.34926    324.26217    278.88711   -21.962442    22.679832    45.375053    40.143904 
78532000    276.27298    322.88691    267.91415   -21.784062     22.80729    54.972753    40.143732 
78536000    277.21345     336.3488    293.95909   -22.044799     22.95705    42.389712    40.143679 
78540000    274.15388    331.46923    280.25375   -21.822045    22.979656    51.215481     40.14263 
78544000     270.9827    331.67798    270.49448   -21.880983    23.691421    61.183497    40.142475 
78548000    275.20252    327.14098    282.36229   -21.839522    21.862018    44.778694    40.141803 
78552000    272.16443    315.82653    283.94585   -20.952125     22.83843    31.880675    40.140864 
78556000    274.33791    309.84549    275.19078   -21.539833    22.763878    34.654704    40.143862 
78560000    274.99422    322.40655     285.7296   -22.654513    22.585407    36.676948    40.145471 
78564000    270.92164    294.59119    278.79359   -20.917358    22.637388    15.797599    40.143928 
78568000     269.6743    304.92155    281.88557   -20.143567    22.184331    23.035984     40.14359 
78572000    266.36413    299.21368     276.4437   -21.991295    22.751827    22.769985    40.142466 
78576000    276.05984    312.55191    281.45281   -22.652174    22.125632    31.099108    40.142761 
78580000    286.17878    337.50654    301.90105   -23.419382    22.646372    35.605481     40.14213 
78584000    282.55436    340.30564    289.51689   -24.292759    23.809246    50.788752    40.140019 
78588000    273.91035    325.71236    277.47972   -23.844852    24.273039    48.232643    40.140663 
78592000    271.40421    318.72021    260.71799   -22.839782    23.738785    58.002224    40.141425 
78596000    273.78787    325.08427    270.33484   -23.708542    22.855679    54.749433    40.141713 
78600000    275.76622    308.78369    267.08327   -23.739727    22.418425    41.700421    40.142546 
78604000    276.29504    313.92324    289.66483   -23.165038    21.677069    24.258414    40.142602 
78608000    268.34201    312.24689    286.81538   -23.548183    22.975698    25.431509    40.142979 
78612000    278.92597    329.38474    278.93719   -23.558869    23.273779     50.44755    40.144286 
78616000    270.02348    306.67164    288.75201   -22.879882    22.469604    17.919631    40.143546 
78620000    274.32716    315.73705    274.90032   -23.688361    22.796319    40.836726    40.143742 
78624000    276.80659    315.40502    298.88814   -23.200872    19.829107    16.516876    40.142286 
78628000    275.48517    304.48104    285.07008   -21.496386    20.855338    19.410965    40.142713 
78632000    271.85023    312.03457    298.54199   -21.674717    21.408075    13.492588    40.142657 
78636000    275.66028    347.86207    248.77178    -23.41029     23.50853    99.090286    40.142781 
78640000     283.1709    337.01002    285.32107   -23.183061    22.300873    51.688956    40.142399 
78644000    272.07972    310.37678    283.02842   -23.073796    21.296611    27.348355    40.142411 
78648000    282.83696    329.57867    277.40302   -24.236478    22.809979    52.175646    40.143135 
78652000    273.84786    317.15051    283.10033   -23.028512     21.69298    34.050189    40.143695 
78656000    270.76298    323.73651    247.75905   -22.921095    22.647512    75.977461    40.143743 
78660000    277.54216    307.33389    285.60509   -23.130791    22.674591    21.728801    40.144469 
78664000    276.24367    302.87917    289.75438    -21.51971    22.653473    13.124788    40.144487 
78668000    278.22848    329.76951      266.738   -22.979175    22.757618    63.031512    40.143617 
78672000    274.34459    327.45411    274.74361    -22.34097    22.617138    52.710504    40.143458 
78676000    273.69209    301.28449    287.57489   -22.180356    22.408078    13.709594    40.144361 
78680000    269.83398    319.12585    263.34796   -22.814614    23.151186    55.777887    40.144838 
78684000    264.43967    303.99084    273.03673   -22.448925    22.889116    30.954108    40.147339 
78688000    271.22771    322.95148    256.99117   -21.782594    23.647949    65.960306    40.147253 
78692000    265.41113    289.50184    265.73827   -21.466288    23.096035    23.763577    40.147273 
78696000    279.66886    317.04429    290.53156   -23.078756    21.698591    26.512731    40.148386 
78700000    271.58915    331.15782     255.6777   -22.802324    23.836666    75.480121    40.148236 
78704000    274.14739    324.07006    288.77628   -22.666937    21.378662    35.293782    40.147931 
78708000    273.01799    323.82353    265.65697   -24.338399     22.39933    58.166559    40.146559 
78712000    271.38012     301.3059    280.91668    -21.55592    22.199794    20.389219     40.14544 
78716000    273.41571    314.01319     294.4913    -21.72727    22.913083    19.521889    40.145226 
78720000    267.05069    331.62893    271.57495    -22.74769    23.738013    60.053975    40.143196 
78724000    272.36805    327.58323    272.97807   -22.883805    23.713139    54.605157    40.143617 
78728000     272.0219    318.29339    281.56767   -22.289681    22.418544     36.72572    40.144662 
78732000    281.36521    360.52182    296.86611   -24.944455    22.582337    63.655706    40.146515 
78736000    270.85569     326.5957    277.01708   -22.892583    23.954849    49.578623    40.144987 
78740000    274.08627    328.50117    274.63005   -22.913789    23.586918    53.871126    40.144948 
78744000    271.68352      333.139    276.60719   -22.608929    24.457596    56.531812    40.143958 
78748000    264.30551    315.31262    268.44168   -20.982111    24.346571    46.870947    40.143274 
78752000    267.70024    296.46203     288.1952     -20.0621    23.924692    8.2668301    40.143294 
78756000    277.88282    317.24134    281.53191   -22.027648    23.296742    35.709433    40.143028 
78760000    273.61235    331.33919    289.66574   -22.681432    23.023355    41.673445     40.14297 
78764000    262.64701    290.09903    294.81268   -20.820378    23.290881   -4.7136474    40.144775 
78768000    278.07746    331.61992     286.8717   -21.929501    23.299376    44.748221    40.144331 
78772000    273.27094    325.74843    299.98851   -22.220392    23.453788    25.759923    40.143476 
78776000    254.82763    275.12902    254.56578   -20.587878    24.190115    20.563235    40.142735 
78780000    277.60874    323.98631    277.83754   -23.048649    23.416978    46.148777     40.14134 
78784000    272.96389    329.70431    262.41989    -22.25266    23.916378    67.284415    40.140255 
78788000    279.64649    317.89193    296.93271   -21.497424    23.055365    20.959216    40.140255 
78792000    283.97491    330.15052    303.67636   -23.979465     22.02829    26.474162    40.139355 
78796000     267.7299    319.70055    252.84974   -24.243763      25.0277    66.850812    40.140412 
78800000    279.91618    330.33812    284.61609   -23.184682    23.634016    45.722028    40.140625 
78804000    267.44357    329.97917    279.61374   -21.910065     24.40062    50.365429    40.140092 
78808000    265.94641    299.27407    274.15156    -20.45478    23.656218    25.122518    40.140793 
78812000    276.88934    338.38508    294.75625   -22.827929     23.89752    43.628827    40.142701 
78816000    267.43518    315.22313    278.89739   -21.857347    24.643474    36.325735    40.142749 
78820000    267.09189    305.58875    282.30636   -21.699428    23.277821     23.28239    40.141725 
78824000    266.58839    315.02601     283.5599   -21.243999    22.698228    31.466117    40.144401 
78828000    267.20229    305.60671    284.14936   -20.761057    22.893618    21.457351    40.144304 
78832000    275.60954    331.39482    293.83734   -22.402895    21.970018    37.557487     40.14381 
78836000    267.19576    296.37299    282.66906   -21.247558    22.290998    13.703929    40.142366 
78840000    272.33185    323.89464    271.60574    -23.00033    24.211838    52.288904    40.141175 
78844000    271.23564    322.22986    286.21912   -22.646696    23.388234     36.01074    40.140401 
78848000     280.1451    341.65686    265.29331   -23.730348    24.001338     76.36355    40.140704 
78852000    280.77959    332.11995    282.86498   -22.745461    23.373966    49.254968    40.139767 
78856000    276.35558    324.10248    287.18538   -22.649685    24.302837    36.917099    40.140241 
78860000    263.94137    304.37461    275.54364   -22.045115    24.367765    28.830971    40.140373 
78864000    270.40215    333.03422    268.88089   -23.109443    24.258159    64.153321    40.140393 
78868000     273.8056    326.22701     275.4093   -22.509632    22.898211    50.817707    40.139466 
78872000    273.92481    331.90619    281.84946   -23.703177    23.668793    50.056732    40.138696 
78876000    279.06264    330.48868    300.46855   -22.135609    22.224849    30.020128    40.139767 
78880000     276.1679     308.9641    279.89321   -20.507923     23.95285    29.070891    40.138606 
78884000    279.15672    328.06973    288.35334   -22.603206    21.937122    39.716385    40.139285 
78888000    270.66451    300.23738    298.35537   -20.953097    22.165627    1.8820046    40.139168 
78892000    261.30301    302.02817    273.07256   -21.519371    23.875712    28.955607    40.138551 
78896000    276.11283    334.49272    278.40048   -23.416966    24.086056    56.092242    40.138132 
78900000    264.00495    293.21489    276.96746   -22.324014    23.614612    16.247426    40.135958 
78904000    279.56522    335.42619    273.63375   -24.152411    24.042257    61.792444    40.136694 
78908000    276.97677     336.0629    284.95927   -23.931711    22.915269     51.10363    40.137233 
78912000    270.53984     296.3486    272.60987   -21.965262    23.604738    23.738729    40.136117 
78916000    279.12526    329.35128    288.61796   -23.379868    22.989448    40.733317    40.134434 
78920000    267.99408    316.21103    288.05782     -22.7371    22.569209    28.153214    40.134439 
78924000    278.39941    355.28281    269.61078   -25.208993    23.527884    85.672031    40.133489 
78928000    277.02415    324.32351    286.56299   -24.200331    22.739727    37.760515    40.134633 
78932000    270.70239    311.89372    282.03906   -23.052207    23.092552    29.854652    40.133761 
78936000    267.24711    309.33742    279.26281   -22.195175    23.652355    30.074605     40.13382 
78940000    273.35236    324.00837    274.55781   -22.496051    22.949881    49.450561     40.13371 
78944000    275.48195    324.89635    288.52756    -22.73548    22.743408    36.368786     40.13468 
78948000    278.99485    340.31208    277.10139   -25.550837    23.669134    63.210697    40.134296 
78952000    268.98494    294.67654    285.90997   -21.781462    23.953868    8.7665693    40.135195 
78956000    271.84497    311.87763    285.52708   -22.389964    24.395701    26.350551    40.134812 
78960000    267.98362     324.6998    261.91249   -23.242074     24.60079    62.787312    40.134198 
78964000    278.51331    326.42053    276.67192   -23.359529     24.41948    49.748609      40.1334 
78968000    270.86144    306.21993    293.82898   -22.713841    23.474458    12.390942    40.135618 
78972000    283.13419    357.36483    291.80292   -26.444582    23.638751    65.561908    40.136772 
78976000    276.78379    298.88939    292.03805   -23.152903     22.84182    6.8513406    40.136972 
78980000     274.8934    310.52193    289.43089   -23.200758    23.205573    21.091033      40.1388 
78984000    270.59179     326.7122    248.90075   -23.731923    25.304283    77.811453    40.139921 
78988000    274.20684    318.52433    283.37567   -22.349107    24.242061    35.148654    40.139881 
78992000    276.81731    334.12556    274.57087   -23.076799    23.290287    59.554693    40.140053 
78996000    266.12662    330.91255    276.61096   -22.343152    23.401649     54.30159    40.139435 
79000000    268.96872    314.23936     276.3542   -21.766982    22.573307    37.885159    40.139408 
79004000    267.07888    310.62348    261.92871   -22.558563    23.650743     48.69477    40.140635 
79008000    267.66057    320.08554    256.73219   -22.761815    24.330599    63.353354    40.139495 
79012000    267.51396    304.90738    279.64754   -22.636223    22.134393    25.259844    40.141491 
79016000    277.26366    332.76144    284.11051   -23.730935    22.238203    48.650926    40.140539 
79020000    276.33084    344.71976    284.14437   -23.705781    23.152839    60.575394    40.140906 
79024000    272.84451    322.50834     281.1853   -22.353892    22.521557    41.323038    40.139546 
79028000    271.73221     324.3302    278.85031   -21.583891    24.362555     45.47989    40.138914 
79032000    270.29819    309.16355    282.65469   -21.295406    23.570791     26.50886    40.139403 
79036000     275.5314    325.85529    291.80775   -21.840723    22.553022    34.047536    40.140289 
79040000    268.96998    328.94446    267.41322   -22.109746    24.973802    61.531242    40.139159 
79044000     273.3605    320.92184     264.1443   -22.291549    24.436599    56.777541    40.139125 
79048000    267.38013    311.59266    268.84945   -22.759308    23.143724    42.743214    40.138542 
79052000    271.39933    310.61685      279.306   -21.553043    22.334423     31.31085     40.13734 
79056000    277.26224    310.04758    274.72814   -21.807042    22.927229    35.319444    40.136758 
79060000    275.36191     323.8943    277.88448   -21.909978    21.988604    46.009814    40.137547 
79064000    272.60154    313.79217    291.22599   -21.495073    23.017602     22.56618    40.136368 
79068000    271.77875    339.02323    276.80344   -23.241132    23.568384    62.219785    40.137491 
79072000    276.64752    339.13293    278.05259   -22.946403    22.342703    61.080339    40.137908 
79076000    273.56079    316.55299    285.52402   -22.788139     22.54553    31.028965    40.137601 
79080000    266.34732    309.35091    274.14442   -22.616343     23.10896    35.206486    40.137547 
79084000    277.78509    328.96782    274.65537   -24.310623    23.502919    54.312442    40.138387 
79088000    273.97773     323.8709    283.58307    -23.69483    23.623708    40.287825    40.139516 
79092000    268.63191    313.77176    279.30319   -23.693009    23.577234    34.468564    40.139285 
79096000    285.68545    351.56116    273.70518   -24.548992    23.710577    77.855982    40.139089 
79100000    278.05203    324.87864    298.56869    -22.51183    23.045483    26.309954    40.137372 
79104000    283.60255    348.60261    287.73977   -24.053992    23.619156    60.862842    40.138152 
79108000    277.43438    342.81236    283.45317   -23.253465    23.217233     59.35919    40.138891 
79112000     268.0389    323.51664    257.83219   -23.033756     24.64943    65.684454    40.138922 
79116000    268.93767    306.03629    272.77649   -22.252224    24.418528    33.259805      40.1395 
79120000     271.1601    324.35085    276.06246   -23.237156    24.267295    48.288399    40.140433 
79124000     275.8366    331.40781    289.74889   -23.116737    24.058402    41.658913    40.140559 
79128000    267.47947    311.36516    276.47962   -22.694338    23.592003    34.885532    40.140618 
79132000    277.36781    336.21781    271.31349   -22.898936     23.56758    64.904324    40.142303 
79136000    279.86828    332.92275    287.22385   -23.971199    22.900717    45.698905     40.14186 
79140000    282.13224    333.44658    305.10515   -23.317383    22.606651    28.341429    40.142158 
79144000    274.67906    313.91439    283.47583   -22.463622    22.955535    30.438559    40.142818 
79148000    270.62558    310.93002    287.70358   -21.416938    21.820714    23.226444    40.142681 
79152000    269.16406     337.3764    280.16058   -23.707306    23.154641    57.215822    40.143119 
79156000    270.99742    326.83532     284.0504   -22.388559    23.941767    42.784926    40.143883 
79160000    268.86585    315.04488    278.86912   -21.162792     24.17806    36.175763    40.143428 
79164000    271.62387    321.24739    292.98422   -21.523493    23.886511    28.263165    40.141709 
79168000    272.19615    326.41332    277.73297   -22.688104    24.472923    48.680349    40.142468 
79172000    263.95436    316.56937     262.9755   -21.831708    25.730795    53.593876    40.142427 
79176000    273.48528    321.21408    309.56699   -22.007831    22.635369    11.647084    40.141955 
79180000    271.45613    335.42908    294.20266   -22.425178    23.445299    41.226413    40.142199 
79184000    274.71857    336.78495     271.6378   -23.169614    22.986836     65.14715    40.142443 
79188000    277.39099    309.11674    303.53502   -22.309748    22.149534    5.5817174    40.143678 
79192000    274.21438     337.1232    264.03452   -23.424326    24.344061    73.088687    40.143795 
79196000    269.71506    300.67876    287.57527   -21.992149    23.706139    13.103489    40.144775 
79200000    278.42253    328.47267    267.76143   -23.239637    24.887151    60.711236    40.144243 
79204000    273.45677    331.85999    288.08591    -22.30022    23.635079    43.774076     40.14612 
79208000    280.28616    315.09688    293.46984   -22.423921    22.385703    21.627048    40.146212 
79212000    266.57575    305.25885     263.3409   -23.194012    25.121526    41.917951    40.145886 
79216000    272.22849     333.7868    270.48426   -23.296796    24.105121    63.302545     40.14537 
79220000    265.93682    301.43793    277.96016   -21.985114    24.511964    23.477767    40.144017 
79224000    276.32446    324.34404    279.30993   -23.324389    24.079884    45.034102    40.144611 
79228000    275.62196    319.77364    279.76939   -23.846816    22.581141    40.004251    40.145259 
79232000     272.7853     310.8196    284.13961   -22.957758    23.702661    26.679994    40.145492 
79236000    272.28541    328.52611     266.3327   -24.951513    24.366846    62.193415    40.146988 
79240000     266.2137    303.90195    280.18572   -22.404141    24.156111    23.716234    40.147691 
79244000    274.67052    330.21879    281.70534   -22.558109    23.896533    48.513457    40.148325 
79248000    270.51663    303.27427    295.29073   -22.009193    23.988393    7.9835383    40.147273 
79252000    269.71432    301.95134     274.8954   -22.868275    24.375955    27.055938    40.146709 
79256000    259.03647     284.5123    266.53421   -20.811431    24.868568    17.978097    40.146063 
79260000    278.72701    339.07498     276.2049   -24.335191    23.355256    62.870082    40.146324 
79264000    278.77115    331.13686    271.28171    -23.10519    24.476634    59.855149    40.145611 
79268000    283.81466    334.82261    292.37377    -24.68127    22.702624    42.448839    40.146957 
79272000    276.85778     331.0623    276.37919   -23.904714    24.586629    54.683108    40.147582 
79276000    275.00262    317.08701    279.67919    -23.57345    24.161487    37.407825    40.146951 
79280000    267.99898    307.96152     268.0613   -22.662825    24.576732    39.900222    40.147056 
79284000    284.14745    335.13821     300.7351   -23.015557     22.43453    34.403105    40.147127 
79288000    276.03243    324.80723    286.35655   -22.807134    23.844669    38.450676    40.146959 
79292000    276.37949    313.36358    281.65726   -22.649633    24.662453    31.706325    40.144808 
79296000    276.72342    318.46502    293.12555   -23.230601     24.08995    25.339465    40.143873 
79300000    274.26573    314.56928    279.87497   -22.849816    24.710825    34.694308     40.14262 
79304000    275.79181    326.56304    267.87616   -22.760271     24.37022    58.686882    40.143935 
79308000    277.56203    312.08928    294.89716   -23.671764    24.238336    17.192115     40.14493 
79312000    273.56013    326.40549    277.04993   -22.658005    24.840827    49.355568    40.144115 
79316000    274.64414    333.78446    282.71548   -23.106152    25.197535    51.068983    40.143514 
79320000    273.22579    332.45875    283.00439   -22.954158    24.421068    49.454365    40.143121 
79324000     279.8661    339.85614    283.64549   -24.611224    23.497738     56.21065    40.144039 
79328000    283.52476    338.54286    288.69897   -24.434206    24.218254    49.843898    40.144788 
79332000    274.41965    324.65869    282.35422   -24.368637    24.691256    42.304467    40.143907 
79336000    281.03167    341.99217     298.8028   -24.791322    23.829238    43.189365    40.144558 
79340000    273.39756    322.78103    279.77664   -24.238299     24.45265    43.004391    40.143662 
79344000    261.25423     296.0512    264.07545   -23.142194    25.246722    31.975745    40.143353 
79348000    276.31847    343.77117    273.39962   -23.825417    24.939194    70.371542    40.145074 
79352000    273.15104    324.81769    277.16681   -24.868632    23.163976    47.650882    40.147561 
79356000    272.66078    329.63307    275.96802    -24.85533    24.310208    53.665049     40.15003 
79360000    278.05005    335.65878    292.36139   -24.539228    24.130245    43.297385    40.149272 
79364000    264.85458    310.41991    276.15455    -22.19028    25.316204    34.265361    40.149311 
79368000    274.33267      316.211    274.80306   -23.750489    24.681155    41.407943    40.150403 
79372000     283.3831    325.47521    288.73231   -24.376648    22.543965    36.742901    40.151058 
79376000    283.70426    334.30705    302.35415   -24.625391    22.385286    31.952898     40.15077 
79380000    275.24292    314.34856    289.71599    -24.90124    22.632214    24.632565    40.149543 
79384000    278.11843    323.91707    289.94718   -25.123485    21.965329    33.969895    40.149539 
79388000    285.17149    335.91023    308.29796   -24.173196     22.68184    27.612262    40.146909 
79392000    263.65068    284.84356    280.05157   -20.465093    22.549611     4.791994    40.145805 
79396000    275.33767    325.58468    283.07572   -23.629336    21.758846    42.508966    40.145019 
79400000    263.88984    299.36725    267.89257   -21.111128    24.106635    31.474682    40.145561 
79404000    280.35261    339.82044    300.82069    -22.98161    23.033181    38.999744    40.144291 
79408000     281.2271    326.98488     297.4074    -24.06306    21.516229    29.577476    40.146609 
79412000    276.43024    333.67637    258.19886   -22.940114    22.975865    75.477508    40.147895 
79416000    271.41666    309.04774    284.26172   -21.930112    22.287654    24.786029     40.14706 
79420000     269.1067     302.9084    282.63955   -20.697758    22.197011    20.268846    40.147451 
79424000    259.95597    291.80755    261.28269   -19.656157    23.844972    30.524857     40.14675 
79428000    270.79185    302.48075    293.45816   -21.345959    22.683061    9.0225943    40.146478 
79432000    278.35041    332.64733    288.27233   -22.350694    23.476274    44.375004    40.146073 
79436000     277.0249    321.55311    277.07935   -22.651651    23.674279     44.47376    40.145094 
79440000    270.57725    314.74013    271.75762   -22.128331    24.224079    42.982509    40.143669 
79444000    268.27392    309.91499    280.45667   -22.926477    24.449701    29.458323    40.141882 
79448000    279.17935    330.20895     271.3209   -23.049451    24.723013     58.88805    40.141119 
79452000    277.22153    326.67002    281.39133   -23.272602    23.389279    45.278696    40.141619 
79456000    287.47846     322.3249    304.41984   -22.958689    23.062171    17.905058    40.142487 
79460000    279.55726    348.00533    288.51148   -24.326936     23.24876     59.49385    40.141982 
79464000    277.97585    341.79027    260.98051   -23.535331     24.01535    80.809759    40.142795 
79468000    280.50436    342.28292    283.61526   -24.100231    23.627375    58.667666      40.1426 
79472000    278.41891     340.6744    279.47535   -24.037398    23.373347    61.199049    40.143167 
79476000    286.07266    352.48235    288.83812   -25.744714    23.810778     63.64423     40.14321 
79480000    273.37831    334.66285    268.23086   -25.036555    23.113099     66.43199    40.144832 
79484000    273.16829    313.88173     273.2951   -24.565858    23.405655    40.586637    40.144731 
79488000     278.8114    339.28603    279.77724   -25.101473    24.127159    59.508785    40.144226 
79492000    272.54176    324.83941    279.12816   -24.994464    24.612904     45.71125    40.142809 
79496000    269.35031    297.20438    296.96174   -22.936409    24.122115   0.24264048    40.141095 
79500000    276.46672    340.35375    268.77805   -24.695877    24.115013    71.575702    40.141513 
79504000    270.86001    312.04326    266.12632   -23.693021    24.678149    45.916941    40.141098 
79508000    272.29912     329.5016    278.42776   -24.192053    24.271699    51.073839    40.139455 
79512000    265.61084    313.62044    260.59765   -23.582545    24.210719    53.022785    40.140641 
79516000    277.10977    318.05352    300.20464   -23.434187    23.814292    17.848874    40.139364 
79520000    278.39616    311.31444    284.08151   -23.794978    24.126609    27.232924    40.140885 
79524000    280.91354    326.56377    295.68971   -23.539096    23.809288     30.87407    40.141151 
79528000    264.36064    316.14351    262.37057   -25.702228    26.237725    53.772941    40.140599 
79532000    284.83826    325.13856    295.82053   -23.495736     23.48393    29.318031    40.141108 
79536000    271.90592    308.94624    274.59652   -23.548578    24.764193    34.349723    40.140365 
79540000    273.01183    324.00237    291.64947   -23.128241    23.473594    32.352898    40.140385 
79544000    277.30625    326.20484    286.14208   -23.981463    23.732341    40.062762    40.140134 
79548000    274.87377    314.21447    296.25782    -23.07087     23.28776    17.956657    40.139577 
79552000    270.99528     299.5975    275.68576   -23.625813    23.596936    23.911743    40.139918 
79556000     271.1719    316.23505     265.6564   -23.032253    23.960272    50.578652    40.141092 
79560000    275.64901    335.64735    264.45009   -24.574294    23.861057    71.197257    40.141886 
79564000    270.52917    309.65532     272.4505   -23.359782    24.125303    37.204814     40.14257 
79568000    277.50886    320.98108    294.59342   -23.915325    23.234605    26.387662     40.14342 
79572000    279.40564    324.52415    293.31587   -25.449058    22.091719    31.208281    40.143905 
79576000     277.7906    317.22614    289.60592   -24.519681    23.461579    27.620223    40.143012 
79580000    272.29811    311.55722    278.50782    -22.69293    23.240306    33.049403    40.141456 
79584000    279.64373    336.72309    280.06774   -24.928108     23.25384    56.655343    40.142994 
79588000    275.33136    303.97976    286.20334   -23.543949    22.700206    17.776423    40.141741 
79592000     275.5803    336.53604    262.65647   -24.868414    25.150756     73.87957    40.141101 
79596000    279.15643    336.71459    257.32168   -25.696067    24.359396    79.392903    40.141035 
79600000    278.25233    328.58835    283.09594   -23.805985    23.959336    45.492413    40.139499 
79604000    273.83971    304.30097    267.91128   -24.245712    25.023219    36.389688      40.1394 
79608000     268.7595    321.56949    271.33675   -24.815205    25.636901    50.232738    40.141953 
79612000    285.16384     334.0637    299.27082   -25.552739    23.980002    34.792884     40.14171 
79616000    275.90812    321.00162    295.18885   -23.851254    24.182064    25.812772    40.141457 
79620000    272.87738    326.62678    266.62737   -24.426922    24.537917    59.999414    40.142193 
79624000    270.38774     322.4288    297.91764   -24.042936    24.345818    24.511166    40.141841 
79628000    269.19498    316.94435    272.95563   -23.744787    25.674323    43.988723    40.142464 
79632000    273.04697    304.06008    289.39487   -22.639598     24.28039    14.665202    40.142838 
79636000    275.89038    315.52504    279.81333   -23.399538    25.515103    35.711712    40.143504 
79640000    271.19996     322.7549    283.82074   -24.499823    25.026403    38.934164    40.143637 
79644000    277.37188    311.48364    287.66625   -24.194663    25.595977    23.817396    40.143066 
79648000     280.2854    336.45369    279.68362   -24.935587    24.316469    56.770068     40.14235 
79652000    268.06228    319.96899    264.86684   -23.317917    25.464189    55.102147    40.141799 
79656000    269.38023    323.92285    262.77613   -24.316605    24.340244    61.146714    40.140335 
79660000    274.83322    327.15223    269.10785   -24.719874     25.28166     58.04438    40.140224 
79664000    277.00955    327.04646    271.92756   -24.819826    24.947104    55.118896    40.140103 
79668000    271.93494    315.50159    270.41783   -24.447779    25.185955    45.083759    40.140303 
79672000    274.78377    329.52105    277.97524   -24.869108    25.176776    51.545814    40.139011 
79676000    276.98647    322.61169    283.28334   -24.718135    25.383058    39.328353    40.138879 
79680000    271.50702    321.57533    267.66036   -23.684133    26.397353    53.914967     40.13828 
79684000    276.99936    314.70225    275.65644   -25.084761    24.819732    39.045812    40.140476 
79688000    277.64127    351.82952     282.9456    -25.38565    24.797456    68.883922    40.140085 
79692000    274.08146     311.6891    286.51864   -24.849147    25.583479    25.170459    40.139907 
79696000    271.63715    320.02614    286.75134   -24.550822    25.487148    33.274795    40.139917 
79700000    268.12306    314.92544    261.76693   -24.924456     25.60911    53.158514    40.139674 
79704000    271.98635    319.87304    288.68913   -23.924377    23.803136    31.183909    40.140031 
79708000    267.81612    328.08922    277.39845   -24.097514    24.977715    50.690763    40.140916 
79712000    279.11799    319.98609    290.12145    -25.88644    24.225599    29.864646    40.139913 
79716000    267.47218    313.74429    274.63699   -24.811379    25.125704    39.107308    40.142374 
79720000    274.84571    335.08936    278.65629   -25.513075    25.180495    56.433073    40.140515 
79724000    277.41981    319.49577    287.60371   -24.430229    24.867147    31.892058     40.14075 
79728000    272.19754    318.96302    258.80102   -24.198028    26.076659    60.162005    40.141172 
79732000    283.96699     347.1424    293.62757   -25.729607     25.06741    53.514837    40.141435 
79736000    284.23336    328.40299    301.90841   -25.554229    25.214135     26.49458    40.142169 
79740000    266.77785    306.34257    286.51027   -25.147551    25.426994    19.832305    40.141923 
79744000    263.61965    308.93304    261.74899   -25.616579    28.105499    47.184051    40.144144 
79748000    275.38046     322.6631    298.73091   -26.706512    25.142122     23.93219    40.144593 
79752000    275.75057    325.74767    283.13834   -26.639321    25.395034     42.60933    40.143722 
79756000    269.98592    314.73343    270.26867   -25.619287    25.985649    44.464758    40.144462 
79760000    275.95627    323.26181    268.10384   -26.598942    26.411289    55.157967    40.145344 
79764000    279.81406    318.44619    288.87643   -25.206702    25.439194    29.569761    40.145278 
79768000    272.28422    319.54381    271.61801   -26.196789    26.855289    47.925804    40.146404 
79772000    281.47028    320.66787    292.72785   -25.114149    25.564649    27.940023    40.145813 
79776000     271.8882    312.99405     276.6648   -25.324053    26.206219    36.329246    40.146595 
79780000    274.19087    318.36931    285.59333   -26.039702    25.392254     32.77598    40.145891 
79784000    267.62467    312.88837    265.84949   -26.651781    27.132477     47.03888    40.146695 
79788000     276.6801    330.97021    270.07222   -27.365041    26.249883    60.897995    40.146418 
79792000    279.26366    315.16086    272.92642   -25.192938    25.833254    42.234437    40.147199 
79796000    274.46652    303.89933    288.61811   -25.138435     26.21275    15.281213    40.146718 
79800000    279.56236    345.30478    273.81536   -26.743525    26.197844     71.48942    40.147367 
79804000    277.87171     320.3214    286.19149   -25.342053    24.793483    34.129907    40.146633 
79808000    272.70028     317.2739    290.55344   -26.204654      23.8125    26.720462    40.145669 
79812000    283.82722    323.18127    323.83313   -26.389242    23.485008   -0.6518521    40.146076 
79816000      275.642    320.29049    287.98465   -24.941826     25.32918    32.305838    40.147348 
79820000    264.78565    310.67748    262.85297   -24.572655    27.219726    47.824511    40.147028 
79824000    275.15488    313.07266    300.07698   -24.969597    25.213106    12.995677     40.14658 
79828000     276.5686    339.75726    275.57178   -26.841991    26.051183    64.185483    40.147995 
79832000     274.0012    315.66459    274.36904   -25.620475    26.584914    41.295554    40.147534 
79836000    271.95946    318.53228    281.59341   -25.214843    24.774255    36.938877     40.14755 
79840000     274.3271    305.38272    278.98141   -23.699662    25.622773    26.401313     40.14788 
79844000    278.43412    343.00325    287.15201   -25.679658    24.761307    55.851245    40.149345 
79848000    276.85974    323.22443    304.69314    -26.46987    25.852777    18.531288    40.147709 
79852000    269.13565    311.38634    300.82041   -25.038349     26.24292    10.565936    40.148473 
79856000    266.84393    299.77051    297.25721   -23.946493    26.359122    2.5133041    40.146888 
79860000    271.34216    330.11522    275.92379   -27.782995    27.896896    54.191433    40.147679 
79864000    271.50934    318.28798    276.69449   -25.752116     26.72702     41.59349    40.148301 
79868000    271.20744    330.59124    273.93699    -26.15945    27.738927    56.654247    40.147757 
79872000    276.29929     336.3182    280.04814   -25.935841    26.913053    56.270058    40.146194 
79876000    280.72147    324.64866    292.48601   -26.572038    26.138528    32.162643    40.145507 
79880000    277.39718    328.90395    281.12893   -26.363306    27.045995    47.775021    40.146259 
79884000    269.19043    325.10339    282.93635   -26.922126    27.067469    42.167042     40.14507 
79888000    276.85502    322.63546    277.61056    -26.52075     27.56872    45.024898    40.144567 
79892000    280.28261    338.83466    270.39637   -26.968099    28.190142    68.438289    40.143121 
79896000    281.92232     331.6315    292.14296   -26.079255    26.106581    39.488531    40.142038 
79900000    271.45368    314.71455    290.04591   -25.683005    27.328648    24.668641    40.142056 
79904000    272.12699    319.25119     274.8903   -24.946412    27.472192    44.360894    40.140022 
79908000     273.2869    320.32316    283.75572   -26.631122    27.123183    36.567443    40.138954 
79912000    268.02892    333.92984    247.92494   -25.996069    28.254687    86.004905    40.140288 
79916000    281.80471    322.19196    274.58262   -26.394811    27.314188    47.609334    40.141141 
79920000    273.55792    332.38465    283.63285   -26.774899    26.147356    48.751804     40.14059 
79924000    276.37319      322.023    292.73782   -25.997479    26.297123     29.28518    40.140296 
79928000    264.70343    325.65536    262.58088   -26.758464    26.673889    63.074484    40.139558 
79932000    276.14078    318.86833    292.31892   -26.252787    25.891112    26.549413    40.139436 
79936000    274.63284    325.20951    284.71346   -26.167951    26.601863    40.496051    40.139931 
79940000    275.11808    317.73065    285.02011   -26.906993    26.549146    32.710541    40.140176 
79944000    273.90811    301.55049    286.32494   -27.894126    26.701178    15.225551    40.138315 
79948000    277.02869    323.49229    278.39225   -28.589764     27.05849    45.100037    40.137544 
79952000    276.44525    332.49454    271.51436   -26.851845    27.229482    60.980184    40.138147 
79956000    276.76171    329.05747    299.41232   -26.802106    25.564048     29.64515    40.137534 
79960000     268.8044    314.33389    265.87597   -26.483363    26.041676    48.457922    40.139475 
79964000    273.79678    318.84473    286.99789   -25.712074    24.441263    31.846835    40.139502 
79968000    269.37041     306.6899    284.60736   -24.426541    25.095314    22.082542    40.139875 
79972000    270.41216    318.34574    292.12124   -26.030305    24.839722    26.224497    40.139592 
79976000    270.27315    305.85042     283.3036   -26.128291    26.338135    22.546822     40.13989 
79980000    278.48188    327.07683    279.37302   -27.137546    26.506133    47.703809     40.13928 
79984000    280.35102     303.3517    301.82892   -26.017299    24.733341    1.5227843    40.137741 
79988000    284.01671    357.14467    276.36291   -29.024898    26.502522    80.781751    40.138117 
79992000    281.11741    328.23955    298.35804   -26.738566    25.650491    29.881505    40.137805 
79996000    279.35883    352.30323    270.34271    -27.75334    26.025719    81.960515     40.13752 
80000000    274.40997    332.76753    259.07476   -26.378772    27.236472    73.692764    40.138123 
80004000    278.87705    357.69236    256.94206   -27.786425    27.270112     100.7503    40.139748 
80008000    273.08271    327.87191     269.9542    -27.08202    27.413177    57.917708    40.138656 
80012000    267.90596    319.39048    263.25825   -26.655353    26.341239    56.132229    40.138269 
80016000    278.51779    315.62367    282.57026    -25.18142    26.838149    33.053418    40.139588 
80020000    275.01061    323.94083    293.59908   -26.734797    25.713982    30.341757    40.139372 
80024000    277.41692    328.40835     291.3277   -27.163041    26.093171    37.080652    40.137647 
80028000    283.43082    320.28942    299.37861   -26.482448    25.888613    20.910803    40.135941 
80032000    273.70413    317.80752    276.03272   -27.356052    27.132042    41.774802    40.134052 
80036000    280.71923    330.10016     288.9224   -26.055752    25.388573    41.177755    40.134006 
80040000    277.91039    337.89569     282.8086   -26.669992     25.77715    55.087092    40.135262 
80044000    266.47295    287.19642    279.36367   -24.147061    25.306412    7.8327541    40.135512 
80048000    263.90712    308.58514    270.78009   -24.937147     25.97725    37.805048    40.137055 
80052000    268.61654    322.29489    271.79829   -25.265351    27.053149    50.496606    40.137308 
80056000    281.74711    336.67737    284.67883   -26.444116    26.773177    51.998539    40.136114 
80060000    267.64458    306.17011    269.18068   -25.914339    26.499193     36.98943    40.137377 
80064000    264.58152    294.76236    274.32584    -24.54712    25.584384    20.436518    40.134209 
80068000    271.94285    311.48337    281.97874   -26.439759    26.693739    29.504628    40.133165 
80072000    278.46518    319.66727    295.23697   -25.864338    25.516412    24.430301     40.13221 
80076000    277.16044    326.21366    265.55107    -26.30732    27.068922    60.662597    40.132506 
80080000     277.0844    318.44706    285.06781   -25.748715    25.534728    33.379249     40.13342 
80084000    272.56776    313.42224    277.33458   -23.749983    26.024265    36.087658    40.133199 
80088000    265.95158    300.57631    273.83944   -23.983897    26.767106    26.736864     40.13367 
80092000    264.51097    314.19819    268.02107   -23.357828    26.791014    46.177118    40.135015 
80096000    274.40938    300.49306    272.35223      -23.501    26.340495    28.140834    40.135303 
80100000    274.38198    324.67321    272.93135   -25.231457    25.751391    51.741853    40.135986 
80104000    265.21061    311.11754    263.50461   -23.857927    26.767452    47.612927    40.134457 
80108000    274.31608    305.63542    279.99384   -23.566073    25.655069    25.641586    40.134649 
80112000    261.95637    300.63249    282.77353   -22.766101    24.507721    17.858961    40.134065 
80116000    270.48315    318.92193    277.09191   -25.458165    26.074225    41.830022    40.135243 
80120000    277.32488    335.55474    269.42687   -26.029665    25.230195    66.127866    40.135281 
80124000    279.88833    335.37158    278.28097     -25.7456    24.167794     57.09061    40.135104 
80128000    284.28407    345.14311     286.1872   -26.285374    24.881337    58.955914     40.13437 
80132000    281.62953    319.61068    291.41623   -25.158689     24.62537    28.194444    40.133665 
80136000    274.83885    321.30018    292.69933   -25.370573    24.401004    28.600849     40.13348 
80140000    273.30134    303.51018    299.86165   -24.926618    24.990086    3.6485361    40.134331 
80144000    279.52147     334.9705     280.5212   -25.781979    25.885973    54.449297    40.135658 
80148000    277.85963    342.57326    269.34741   -27.608128    25.806945    73.225844     40.13819 
80152000    276.37649    298.67832    273.98477   -24.537767    25.531465    24.693551    40.137004 
80156000    263.34739    310.02636    257.72442   -24.480551    27.640061    52.301941    40.138004 
80160000    273.09194    337.50874    290.76634   -26.294033    25.893945    46.742403    40.137547 
80164000    271.93522    316.24368     292.0563   -25.345508    26.961861    24.187375    40.136776 
80168000    275.93029    324.81589     278.7301   -24.691919    26.771475    46.085792    40.135206 
80172000    274.85343    314.37431    312.49059    -23.54579    24.179714    1.8837179    40.134066 
80176000    269.09304    309.38541    269.57665   -25.411006    26.632726    39.808761    40.134822 
80180000    268.48806    305.21599    286.53375   -23.450913    26.074891    18.682244    40.134205 
80184000    276.01406    334.47876    281.69326    -25.00168    26.608065    52.785497     40.13575 
80188000    272.50184    318.52884    271.33775   -23.639729    26.463093    47.191086    40.136134 
80192000    269.28875    319.77317    271.84402   -25.657312    24.884007     47.92915    40.134394 
80196000    267.71668    313.45708     262.6098   -24.108626    25.700299    50.847283     40.13415 
80200000    269.19199    311.71782    280.65703   -25.017633    24.953503    31.060785    40.132643 
80204000    270.08635    319.07873    258.59828   -24.746618    25.207799    60.480444    40.133688 
80208000    279.62157    317.26087    298.72479   -24.666928    24.072923    18.536078    40.134455 
80212000    274.28365    331.54349    280.60155   -25.479677    25.687647     50.94194    40.135265 
80216000    272.63952    327.15437    279.36009   -25.031957    26.105488    47.794284    40.137072 
80220000    282.42711    325.23275    304.82673   -24.800993     24.08056    20.406024    40.138131 
80224000    276.61908    326.54908    280.03177   -25.190756    25.581543    46.517313    40.138419 
80228000    269.18799    317.36029    272.92412   -24.103537    26.220003    44.436176    40.137932 
80232000    280.38519    335.66225    291.52776   -26.149951     25.15533    44.134487    40.137698 
80236000    275.67579    319.71805    290.47699    -24.20032    24.749443    29.241062    40.136945 
80240000    274.45966    322.41474    291.87275   -26.150263     24.49157     30.54199    40.136097 
80244000    270.52635    306.30473    272.67977   -24.607205    25.276436    33.624963    40.136911 
80248000    283.41419    335.18114    277.17492   -25.678322    25.707518    58.006218    40.137315 
80252000    281.85193    341.86267    271.62611   -25.635793    25.185226    70.236557    40.137621 
80256000    271.35673    317.84034    273.08968   -25.688544     25.20255    44.750657    40.139424 
80260000    274.82215     309.3724    295.56508   -25.659393    24.482256     13.80732    40.140013 
80264000    279.99574    330.51315    290.44023   -26.559758    23.754278    40.072926    40.138746 
80268000    272.58032    313.30942    281.21026   -24.595382     24.58978    32.099153    40.138009 
80272000     282.6244    327.85596    300.29103   -26.345768     23.91521     27.56493    40.137059 
80276000     282.7459    313.26965    301.32878   -25.128694     23.17469    11.940869    40.136737 
80280000    282.15309    340.36839    283.65591   -25.853329    22.213782    56.712479      40.1364 
80284000    275.51623    302.64039    281.84231   -24.975254    22.941993    20.798082    40.135527 
80288000    271.43628    325.98609    260.09164   -26.400136    24.825257    65.894448    40.134604 
80292000    289.08024    339.26705    296.27137     -26.0271    23.544574    42.995681    40.134832 
80296000    283.64834    334.11421    290.25968   -26.526446    24.107845    43.854527    40.135412 
80300000    270.43467    306.11211    284.31138   -25.405204     24.65605    21.800737    40.135139 
80304000    280.81721    344.18007    269.01569   -26.344506    26.330657    75.164378    40.134128 
80308000    278.28072    324.08001    272.10351   -25.322831    25.046227    51.976498    40.134322 
80312000    280.49573    322.66255     278.9827   -26.609419    25.827037    43.679853    40.134117 
80316000    269.68675      299.583    282.55138   -24.551944    24.988077    17.031618    40.135392 
80320000    288.08561    306.70841    300.25875   -24.192122    23.933216      6.44966    40.134268 
80324000    280.84374    325.10844    298.50364   -25.283674    23.397883    26.604801    40.133999 
80328000    269.17404    323.40928    266.91294   -26.357797    25.150079    56.496336    40.135497 
80332000    281.98225    343.54201    265.98823   -26.105998    25.915722    77.553777    40.134722 
80336000     285.6158    362.32373    275.95256   -28.101921    25.669827    86.371178    40.135348 
80340000     278.1326    308.13162    281.96234   -26.797829    24.689529    26.169286    40.134599 
80344000    272.69668    310.63027    273.61772   -25.766622    25.896753    37.012551    40.133717 
80348000    277.97981    298.28737    285.37487   -24.577159    25.453245    12.912494    40.133451 
80352000    271.66227    302.40423     273.6245   -25.517365    25.906867     28.77973    40.132731 
80356000    272.39746    321.51035    275.14892   -27.700005    25.807107    46.361427     40.13109 
80360000     279.3502    318.10885    277.81625    -26.44247    26.592445    40.292601    40.131177 
80364000    281.67119    326.04147    300.09067    -26.74437    25.924063    25.950793    40.132483 
80368000    272.10553    317.30855    277.27599   -25.812671    26.430714    40.032565    40.132528 
80372000    287.52082    346.34784    308.80786   -27.590903    24.598361    37.539974    40.133941 
80376000      275.604    318.01794    288.89104   -25.943161     25.79679    29.126909    40.134809 
80380000    272.31798    311.79937    296.48546   -25.333197    24.519177    15.313916     40.13483 
80384000    286.43158    356.89909     299.3155   -28.656101    26.262617    57.583594    40.133667 
80388000    277.64519    353.74033    272.99939   -27.645665    27.480862    80.740937    40.134173 
80392000    272.80062    325.11606       262.83   -26.653696    27.382247    62.286057    40.135904 
80396000     263.0893    330.24665    246.37072   -26.427772     27.32415    83.875925    40.136052 
80400000    266.69404    309.96769     277.1902   -25.754073    26.272595    32.777491    40.135574 
80404000    278.24031    326.63442    289.16636   -26.606211    25.257946    37.468062    40.135196 
80408000    270.99427    329.85881    271.84256   -25.775894    26.411882    58.016246     40.13488 
80412000    276.33493    344.46087    264.25483   -25.929056    27.671824    80.206033    40.135045 
80416000    270.75605    324.02406    290.27087   -25.712926     26.95949    33.753184     40.13674 
80420000     277.3053    324.23891    298.63292   -26.386206    26.415225    25.605986    40.135547 
80424000    269.06026    325.35377    261.80979   -25.771652    27.994478    63.543974    40.136142 
80428000    281.43596     325.3742    283.12873   -26.349643    26.289785     42.24547    40.135994 
80432000    276.58958    339.24336     281.2179    -28.17134    27.095083    58.025465    40.135585 
80436000      283.063    326.30847     303.7126   -26.762988    25.273788    22.595875    40.135744 
80440000     283.4524    323.25141    297.94619   -26.730998    25.285132     25.30522    40.136254 
80444000    264.43323    302.93701    254.16555   -26.573594    27.152564    48.771458    40.135553 
80448000    270.00447    318.43992    271.89402   -25.204716    26.493813    46.545898    40.133721 
80452000    274.24317    335.62296    269.54266   -27.490033    27.778905    66.080292    40.132832 
80456000    275.31008    327.85192    266.46283   -26.926145    26.465314    61.389086    40.133192 
80460000    282.91071    326.97233    300.18485   -27.169537    24.595314    26.787473    40.131064 
80464000     275.7063    322.42977    268.39475   -26.819486    25.881023    54.035016    40.129143 
80468000    274.40125    313.05034    274.05517   -26.489477    26.879452    38.995172    40.130698 
80472000    268.08202    318.22147    262.50968   -25.320298    27.130213    55.711796    40.130226 
80476000    269.05587    314.01084    271.26922   -25.797924     26.32583    42.741613    40.129726 
80480000     279.6401    342.21774    277.62134   -26.792181    26.162105    64.596399    40.129249 
80484000    279.92784     323.9663     280.2748   -27.765036    26.708606    43.691494    40.128515 
80488000    275.23566    313.44335    277.99816   -24.928806    25.398629    35.445187    40.126666 
80492000    277.76213    329.24484     283.8894   -25.637252    26.866627    45.355441    40.127576 
80496000    273.47402    319.57797    270.98257   -26.273249    27.839809      48.5954     40.12611 
80500000    281.09097    337.97005    294.02976   -26.316788      24.8313    43.940295    40.126152 
80504000    284.54891    354.86283    287.65293   -27.881536    25.388337    67.209902    40.127141 
80508000     274.7754     311.7645    294.02008   -25.750908    26.964221    17.744419    40.127226 
80512000    278.81176    321.77338    293.52684   -26.634453    26.117177    28.246541    40.126272 
80516000    275.76103    320.37336     283.0331   -26.172024    26.606562    37.340264    40.125662 
80520000    270.91856    321.83922    262.57748   -25.268517    27.028309    59.261742     40.12655 
80524000    269.52928     308.6155    291.78353   -25.560768    26.035926    16.831971    40.125044 
80528000    276.60786    341.36523    276.58961   -26.746045    26.331068    64.775622    40.125276 
80532000    273.45393    324.82945    282.15746   -26.463637    25.744794    42.671994    40.125428 
80536000    275.04159    326.06069    260.42263   -25.705229     27.14868    65.638061    40.125219 
80540000    275.51799    322.32205    274.38758   -26.733072    28.090253     47.93447     40.12524 
80544000    264.76205    314.46515     266.1367   -26.400874    27.960375    48.328448    40.125413 
80548000    270.61955    317.59766    272.71271   -26.897583    27.665194    44.884953    40.125579 
80552000    264.28445    311.12617    254.64122   -26.844332    27.030524    56.484946    40.126029 
80556000    277.45077    323.00974    290.26859    -26.82586    26.684596    32.741146    40.126983 
80560000    269.42123    318.27403    276.88099   -26.984622    25.840249    41.393036    40.126227 
80564000    269.20202    329.67793    261.92579   -28.761013    28.686179    67.752138    40.128305 
80568000    275.70337    318.90316    275.46427    -26.86149    27.253044    43.438889    40.127364 
80572000    281.99786    345.28062    281.81095   -27.097877    26.249663    63.469668    40.126453 
80576000    280.77809    339.99672    277.81699   -28.075938    26.277147     62.17972    40.126995 
80580000    268.22053    310.08656     274.6725   -25.838647    26.501327    35.414058    40.126295 
80584000    278.38695    317.86176    276.24365   -26.889679    26.609006    41.618111    40.127924 
80588000     265.5193      303.407    275.12487    -26.12861    27.312766    28.282129      40.1258 
80592000     275.3693    311.82176    285.95258   -27.178242    25.407168     25.86918      40.1258 
80596000    278.33534    321.89368    273.48687   -26.594356    24.999723    48.406806    40.125289 
80600000    280.11464    320.76132    281.51689     -26.7738    25.524559    39.244437    40.125568 
80604000    273.60928    313.20554    265.81817   -27.752054    27.123234    47.387361    40.125243 
80608000     281.3237    322.55252    290.31469   -27.890015    25.552529    32.237827    40.123792 
80612000    281.31773    343.14361    281.82703    -27.91129     25.93118    61.316576    40.123052 
80616000    270.76484    322.10101    280.59291   -26.245691    26.882203    41.508097    40.124167 
80620000    276.54319    312.86596    281.38169    -26.29851     26.81035    31.484276    40.123643 
80624000    278.19765    335.62728    282.95435   -27.794127    25.935522    52.672932    40.123894 
80628000    271.78394    303.54779    291.37874   -26.168529    26.700829    12.169051    40.123589 
80632000    273.05384    316.36134    276.22595   -27.401667    27.871769    40.135389     40.12489 
80636000    275.51312    322.68573    260.33942   -26.887318    28.355582    62.346311    40.125945 
80640000    275.81153    314.17301    294.84713   -25.579046    27.169177    19.325875    40.124564 
80644000    282.82723     319.2352    286.97026   -27.332179    25.872975    32.264939    40.123312 
80648000    287.25933    352.39275    284.46875   -27.727489    25.741153    67.923991    40.121889 
80652000    284.36302    323.12867    301.30411   -27.053824    24.358624    21.824553    40.122002 
80656000    272.23164    318.20579    266.03456    -25.70937    26.965577    52.171229    40.123202 
80660000    275.96106    313.73956    283.77463   -24.655062    25.758567    29.964921     40.12448 
80664000    284.24958    326.49355    283.18869   -25.639407    25.811004    43.304855     40.12591 
80668000    276.73838    322.59304    281.12645   -26.694088    27.304434     41.46659    40.126589 
80672000    275.89976    323.57424    274.96968   -25.762694     28.05462     48.60456    40.124925 
80676000    280.02793    311.76593    293.71064   -26.092476     26.47839     18.05529     40.12452 
80680000    278.61779    330.85902    291.83412   -27.830112    26.730373    39.024902    40.124997 
80684000    274.74068    313.15208     267.8199   -26.702399    27.002437     45.33218    40.126864 
80688000    277.20065    325.59047    278.82718   -27.925648    27.090726    46.763286    40.126143 
80692000    270.75771    307.90696    271.01309    -25.61674     27.39967    36.893871    40.125655 
80696000    263.46148    297.36162    274.44588   -25.080673    26.526574     22.91574    40.126122 
80700000    274.15051    307.61778      283.814   -25.045584    27.269817     23.80378    40.126213 
80704000    280.46796    335.67414    276.79669   -26.639756    26.569451    58.877454    40.125881 
80708000    279.41989    319.95153    291.15286    -27.62845    26.431721    28.798664    40.127277 
80712000    274.61988    337.57242    249.62568   -27.335404     28.28425    87.946746    40.126886 
80716000    264.97037    302.80901    270.04285   -25.966283    27.070779    32.766159    40.127691 
80720000    274.80232    314.25109    288.09643   -25.095237    26.261584    26.154659    40.128411 
80724000    271.16005    306.81389    278.96004   -24.929354    27.291952    27.853852     40.12813 
80728000    267.92141    314.70311    266.19221   -25.913273     28.62199    48.510902    40.128331 
80732000    274.47583    336.27929    270.70105    -27.83953     27.80036    65.578238    40.129518 
80736000    283.19589    346.98155    289.65332   -28.002903    27.977228    57.328225    40.129469 
80740000    270.94966    310.43708     279.7867     -25.4957    27.577658    30.650375    40.131075 
80744000    270.03516    293.75618    286.53906   -24.972135    27.394042    7.2171165    40.130117 
80748000    272.21339    301.59906    300.62598   -25.040497    26.810958   0.97308419    40.129323 
80752000    282.10556     346.9116    299.05742   -27.008506    27.125219    47.854184    40.132143 
80756000    274.77579    321.65037    276.77207    -26.20968    27.874846    44.878299    40.134336 
80760000     264.9645    303.59857    282.30598   -26.123431    27.943187     21.29259    40.134413 
80764000    277.94523    334.39816    279.01268   -26.902663    28.105444     55.38548    40.134102 
80768000    268.06179    314.13485    286.76074   -25.012862    28.048405    27.374105    40.133422 
80772000    267.47127    321.09785    277.22181   -25.131344    28.973278     43.87604    40.132145 
80776000    264.86665    318.74624    283.28166   -24.993221    27.463903    35.464574    40.133226 
80780000    270.78329    346.12247       277.35   -25.516181    28.085232    68.772471    40.132178 
80784000    263.48032    302.42399    282.52862   -22.475473    27.803915    19.895376    40.132315 
80788000    273.06807     324.1663    310.98566   -25.095302    25.937247    13.180649    40.133386 
80792000    274.71531    350.18615    281.38592   -26.964054    28.600896    68.800229    40.133525 
80796000    266.63181    330.06731    270.48109   -25.079486    28.371926    59.586221    40.132645 
80800000    266.03896     319.8016    265.24354   -24.432368     29.11936    54.558062    40.133266 
80804000    269.58361    336.56687    291.64766   -25.382699    27.522861    44.919214     40.13362 
80808000    265.94271     309.3775    263.11966   -25.044032    28.568901    46.257833    40.132811 
80812000    265.64099    316.24056    272.74009   -25.858486    27.654597    43.500464    40.132875 
80816000    265.72027    306.29218    278.11315   -24.990457    27.436058    28.179032    40.133299 
80820000    272.05667    336.12782     290.7556   -25.046952    26.619697    45.372222    40.132732 
80824000    264.06724    309.68716    262.03001   -24.135564    27.579074    47.657148    40.133375 
80828000    266.03455    316.19841    275.69096    -23.68176    26.667465    40.507452    40.132941 
80832000    271.44437    319.39078    269.98651    -24.34983    27.183537    49.404274    40.131879 
80836000    268.46169    330.54898    284.88196   -24.244487    26.349345    45.667021    40.132318 
80840000    274.96577    317.16871    308.47491   -23.086462    26.112913    8.6937964     40.13122 
80844000    273.32692    334.87156    272.10787   -24.659633     26.51502    62.763694    40.130753 
80848000    272.75316    301.92592    299.17622   -23.277862    26.187198    2.7496982    40.130325 
80852000    260.51701    301.24091    271.35198   -24.392785    27.536363    29.888933    40.129036 
80856000    267.32943    304.62206    290.41353   -24.086047    27.060005    14.208526    40.128778 
80860000    272.32718    317.91547    278.85959   -26.039658    28.371092    39.055876    40.130248 
80864000    277.30865    342.40519    276.59451   -27.484215      27.0713     65.81068    40.130388 
80868000    275.80598    316.79847    288.02348   -26.715177    27.898644    28.774989    40.130507 
80872000    266.65228    325.08318    277.91595   -27.101306    27.464799     47.16723    40.129562 
80876000    264.13904    312.42489    284.86412   -25.652138    28.181308    27.560769    40.129455 
80880000    277.13262    331.62777    303.00812   -26.471303    27.687833    28.619649    40.128996 
80884000    271.13528     331.7561    285.15834   -25.582461    27.930385    46.597763    40.128132 
80888000    272.83892    304.87363    302.67627    -25.92725    27.970772    2.1973639    40.126327 
80892000    272.92974    308.68597    290.26733   -25.791427    27.833314    18.418635    40.125126 
80896000    274.62893    307.95177    291.49044   -25.345627    27.848484    16.461339    40.125455 
80900000    269.22082    317.42949    284.62838   -25.932952    27.533077    32.801111    40.125636 
80904000    270.55889    321.22849     271.6656   -26.384945    28.197551    49.562898    40.127151 
80908000    277.82876    323.60688     291.1518   -25.360564    27.060602    32.455081    40.127967 
80912000    269.50413    328.62514    278.97582   -26.516783    27.923137    49.649319    40.127355 
80916000     273.5625    330.31014    277.68265   -27.285318      29.0999    52.627491    40.128131 
80920000    270.22875    318.69257    288.33756   -26.517593    28.334971    30.355009    40.127514 
80924000    267.17442    310.51738    276.27882   -25.618715    28.984963    34.238557      40.1285 
80928000    278.15517     331.0003    294.36236   -27.511469    28.033821     36.63794    40.128123 
80932000    275.04515    337.72742    286.58195   -28.070549     28.35252    51.145472    40.128622 
80936000    277.67615    336.74029    279.45477   -27.359583    29.116609    57.285522    40.128493 
80940000    263.24814    299.44605    268.48011   -25.005664    29.094117    30.965941    40.129148 
80944000    263.66414    307.62431    270.70427   -27.402661    29.187996    36.920045     40.13087 
80948000    270.74036    320.70206    262.56481   -27.136926    28.705706    58.137252    40.132418 
80952000    268.03676    298.96193    289.15498   -27.439505     27.54943    9.8069443    40.132083 
80956000    267.29716    316.46037    250.78069    -27.16566    30.532497     65.67968    40.132335 
80960000    285.82742     340.6881    290.38932   -28.896621     27.89836     50.29878    40.133161 
80964000    269.78697    309.50779    282.24523   -28.056826    28.141599    27.262558    40.134111 
80968000    278.05158    336.03449    290.42711   -27.123918    27.307872    45.607388    40.136066 
80972000    264.10741    304.09685    277.90705   -26.106818    28.914416    26.189799     40.13623 
80976000     269.7514    323.22977    289.04531   -27.371898    28.535197    34.184461     40.13637 
80980000    275.33644    311.68714    290.07578   -27.584682    29.266684    21.611362    40.135303 
80984000    269.01375    328.17371    274.09975   -27.710668    29.313054    54.073957    40.135613 
80988000    257.68899    312.46595    262.28175   -26.200259    29.652156    50.184191    40.134121 
80992000    273.86075    344.05805    273.72399   -27.779614    29.801862    70.334064    40.134654 
80996000    261.78016    310.83621    257.47095   -25.988017    30.275019    53.365261    40.134363 
81000000    269.78338    347.57982    279.84494   -28.831721    29.002345    67.734881     40.13337 
81004000    272.94251    307.10523    302.94206   -27.064346    29.109216    4.1631606    40.134412 
81008000    271.94386    323.24964     278.9115   -27.946817    29.040061    44.338145    40.134955 
81012000     262.5577    314.88106    266.59568   -27.827999    29.612375    48.285382    40.135925 
81016000    273.34918    333.96878    274.87618   -28.312344    29.348623    59.092601    40.136436 
81020000    263.44325    307.26017    279.30016   -26.210218       28.512    27.960019    40.135254 
81024000     265.6287    299.24793    280.72746   -27.231661    30.409564    18.520471    40.134762 
81028000    266.34748    294.90537    286.52738   -25.834628    29.249656    8.3779854    40.135337 
81032000    271.38058    333.50865    266.82312   -26.693292    29.845643     66.68553    40.136552 
81036000    277.69566    335.27173    279.11996   -29.174404    28.765031    56.151763    40.136368 
81040000    268.92133     325.2117    269.00101   -27.608222    29.357315    56.210685    40.136207 
81044000    272.56467    308.80797    267.36656   -27.880885    28.983144    41.441409    40.137984 
81048000    272.32763    314.85721    291.26363    -29.29624     28.65763    23.593573    40.140041 
81052000    277.87336    332.92295    286.85133    -28.99338     28.25786     46.07162    40.140955 
81056000    286.46113    322.70599    302.82148   -26.839492    27.068429    19.884504    40.139984 
81060000    271.69716    307.43485    276.72378   -27.575188    27.897944    30.711069    40.140442 
81064000     268.1429    288.13357    274.06693   -26.453344    28.399273     14.06664    40.140267 
81068000    288.66909    366.49508    282.17586   -30.272817    26.472381    84.319222    40.140956 
81072000     273.1014    321.58473    277.01888   -28.001675    28.260137    44.565845    40.142101 
81076000     274.8787     306.6719      283.513   -28.105188    28.629791    23.158903    40.140697 
81080000    279.10367    318.81967    298.56803   -28.086672    27.846094    20.251639     40.13984 
81084000     278.1777    306.21752    289.82985   -26.522193    28.049388    16.387662    40.140291 
81088000    276.14281    310.88494    275.43515   -27.677064    27.832454    35.449784    40.139252 
81092000    265.66085    281.75499    280.03972   -26.596977     27.67982    1.7152749    40.138943 
81096000    283.82787    354.02207    278.45435     -29.6047    27.818189    75.567718    40.139522 
81100000    277.33869    336.97223     285.0058   -28.242619    27.463358    51.966435    40.140908 
81104000    273.73152    314.70087    282.76011   -27.393961    28.087654    31.940762    40.139784 
81108000    272.09447    312.24641    265.85358   -27.226414     28.77229    46.392826    40.139636 
81112000    275.59856    321.55353    293.42819   -26.358231    28.791078    28.125335    40.138977 
81116000    278.91029    326.45017    297.68694   -28.390374    27.119529    28.763234    40.140472 
81120000    273.54046    320.49066    269.93463   -28.347273    27.761016    50.556033    40.141677 
81124000    268.29659    322.56267    277.96692   -27.326356    28.760256    44.595749    40.140943 
81128000    272.03262    315.23092    300.74031   -27.077166    27.936087    14.490607    40.141445 
81132000     276.5894    316.04186    311.49212   -27.136113    27.005354    4.5497445    40.141943 
81136000    267.16784    306.33522    284.83129   -26.257341    28.171336    21.503931    40.141506 
81140000    268.73806     307.1067    283.53475   -26.185203    28.228142    23.571956    40.143028 
81144000    269.89072    323.23608    260.47009   -26.885164    29.319328    62.765993    40.142194 
81148000    271.58618     299.5941    290.73127   -25.572186    27.345617    8.8628319    40.142278 
81152000    267.56964    310.49753    292.57746   -27.320015    27.834371    17.920068     40.14334 
81156000    268.25557    313.44719    304.31366   -27.151099    27.794883    9.1335347      40.1447 
81160000    274.73356    325.56339    289.83444   -28.057578    29.407065    35.728947    40.145142 
81164000    273.20315    316.89314    281.56828   -26.596698    29.276092    35.324864    40.146005 
81168000    276.69485    312.47339    309.86325   -27.163478    26.863946    2.6101391    40.145308 
81172000    269.55515    312.34704    288.06122   -26.699128    27.436335    24.285817    40.146035 
81176000    280.54477    330.79522    299.38248   -27.500275    28.017585    31.412744    40.144441 
81180000    267.20667    311.78383    269.96958     -26.7967    29.567659    41.814254    40.143921 
81184000    272.72907    329.77594    288.64591   -27.414777    28.228512    41.130028    40.143803 
81188000    271.15699     310.8197    284.15122   -26.485103     29.07091    26.668485    40.141875 
81192000     276.4678    329.91064    281.01659   -27.651229    29.438851    48.894044    40.142732 
81196000    276.68973    324.45875    294.18707   -27.172801    27.745147    30.271672    40.141769 
81200000    266.30577    280.96895    297.74103   -25.421824    28.638363   -16.772074    40.142041 
81204000    279.40362    333.16623    278.36038   -28.331036     28.35375    54.805848    40.143425 
81208000    276.12605    313.96229    296.96524   -27.177826    27.825037    16.997054    40.144145 
81212000    274.16391    300.20078    293.58094   -27.361684    27.790028    6.6198375    40.143857 
81216000    271.42972    319.26971    279.99942   -28.528477    28.187121    39.270286    40.144519 
81220000    273.86916    303.45585    272.02559   -26.712372    29.909709    31.430265    40.144792 
81224000    283.39971     337.6278    301.53813   -29.410834    28.367224    36.089673    40.143731 
81228000    274.46591    313.19107    276.27245    -26.90063    27.406563    36.918621    40.144823 
81232000    275.61596    315.90514    282.22323   -27.822503    27.605319     33.68191    40.143111 
81236000     270.5858    309.91239    275.29145   -28.504442    27.444995    34.620944    40.143211 
81240000    272.12034    328.07084    278.60296   -29.544999    27.829457    49.467872    40.142737 
81244000    271.08832    318.36809    262.50273   -28.642966    28.484869    55.865363    40.143388 
81248000    273.94008    324.39675    275.36623   -29.263493    28.888951     49.03052    40.142672 
81252000    274.10287    319.97064    290.84297   -28.507341    27.929592    29.127674    40.143831 
81256000    278.69614     325.1582     289.6753   -29.638675    27.798181    35.482908    40.143648 
81260000    271.04407    315.53239    280.84507    -28.95429    28.098946    34.687323    40.142252 
81264000    277.49918    320.07258    279.81268   -28.346612    28.575759    40.259899    40.142869 
81268000    279.11613    323.34014    292.69578   -29.123844      28.5506    30.644356    40.142907 
81272000     277.6234     326.8063    267.98756   -29.820232    28.590455    58.818743    40.144318 
81276000    272.89848    320.95686    263.34301   -27.867039    28.521393    57.613849    40.144851 
81280000    279.31613    304.17823    294.30987   -28.637914    27.335608    9.8683602    40.143911 
81284000    275.18098    353.86665    263.02672   -31.525281    29.226235    90.839933    40.144441 
81288000    282.45353    323.15658    289.01658   -28.884343     27.81041    34.139999    40.144516 
81292000    276.90578    309.97175    276.04495   -28.332911     28.46299    33.926796    40.144437 
81296000    271.03555    308.17236    274.84361   -27.908148    28.583811    33.328752    40.144425 
81300000    277.92666    332.74212    272.60217   -30.146829    28.878262    60.139954    40.144314 
81304000    278.06676    340.12745    273.66783    -29.79336    30.282917    66.459621    40.145568 
81308000    272.06739     301.0191    300.17506   -28.144938    27.870463   0.84403802    40.144037 
81312000    271.57483     308.8277    269.93891   -28.309777    29.659856    38.888794    40.142784 
81316000    273.58375    325.44378    270.72736   -29.417079    29.571024    54.716428    40.142107 
81320000    269.84224    313.68208    267.97516   -28.490943    28.395105    45.706926    40.140948 
81324000    283.03414    315.91845     291.7317   -29.075801     28.60656    24.186751    40.140852 
81328000    276.36057    336.19731    282.27574   -30.658609    28.396036    53.921571     40.14031 
81332000    268.54255     325.2884    274.21496    -29.74147    29.554723    51.073435    40.138734 
81336000    274.23109    307.66448    278.74352   -27.576123    29.476503    28.920964    40.139204 
81340000    269.25095    332.81059    272.51393    -28.20543    29.468379    60.296664    40.139327 
81344000    279.46199    332.60637    281.22599   -29.283209    29.134641    51.380378     40.14061 
81348000    279.49533     323.1951    276.95569   -28.376419    29.361866    46.239414     40.14125 
81352000    268.27993    298.96526    273.83692   -26.962985    28.734007    25.128341    40.139976 
81356000    284.48522    309.64939    303.29086   -28.053575     27.64378    6.3585268    40.139551 
81360000    277.93707    322.76169    301.24276   -28.726797     28.98311    21.518928    40.138719 
81364000    272.86774    311.37602    277.48752   -28.233094    29.709021    33.888496    40.138106 
81368000    277.73115    326.63416    284.54559   -28.081046    29.414703    42.088575    40.138712 
81372000    269.29925     317.8407    271.44425   -28.687253    29.662622    46.396453    40.137814 
81376000    269.42679    337.69027    270.97578   -29.998609    29.812329    66.714489    40.137995 
81380000    270.44939    329.49235    270.74413   -29.942545    29.759441    58.748214    40.139328 
81384000    277.72847     328.7146    279.84094   -29.451873     29.62587    48.873663    40.139233 
81388000    266.88163    312.67603    269.48933   -28.710946    30.122447    43.186701    40.138597 
81392000      277.429    326.00917    290.52339   -29.802787    28.874056    35.485783    40.138521 
81396000     266.5018     304.8013    275.92364   -28.750258    29.021686    28.877657    40.137437 
81400000    283.55434     333.0844    292.47997   -30.146692    28.700837    40.604434     40.13825 
81404000    270.14491     293.1249     274.5457   -27.237573     29.40751      18.5792    40.138933 
81408000    274.92157    295.58325    298.39905     -29.2158     27.54574   -2.8158061    40.138511 
81412000    284.61246    343.50741    303.97307   -30.087196    27.019635     39.53434    40.138306 
81416000      279.007    321.25427    290.70653   -29.062637     27.83505    30.547741    40.136943 
81420000    270.75529    306.45708    278.42388   -28.930656    28.102209    28.033203    40.137506 
81424000     268.3331    308.56488    274.27151   -29.933419     29.40325     34.29337    40.137736 
81428000    280.75512    333.60204    291.03414   -30.637004    28.589379    42.567899    40.138065 
81432000    261.84862    284.10028    278.64471    -28.30136    28.642423    5.4555619    40.137321 
81436000    271.90807    319.84354    277.60425   -29.640274    29.752289    42.239291    40.137997 
81440000    273.22305    311.50814    284.36502   -29.161315    28.742908    27.143122    40.138854 
81444000    284.07178    321.37611    287.13203   -29.095827    28.246611    34.244081    40.140222 
81448000    272.46263    314.84092     277.2179   -28.437628    27.678799    37.623019    40.139101 
81452000    273.41371    316.71382    295.02737    -29.16074    28.385719    21.686457    40.138928 
81456000    277.36454    335.18941    280.66267   -28.993883    28.421118    54.526739    40.138918 
81460000      273.359    312.87754    272.00528   -28.682468    29.001387    40.872263    40.138654 
81464000    282.83151    339.39972     283.9495   -30.904712    28.581649    55.450211    40.137051 
81468000    280.79709     359.3558    285.10923   -30.439141    27.548826    74.246578    40.137511 
81472000    276.54314    325.83218    283.97161   -28.158914    29.177763    41.860571     40.13701 
81476000    270.93687    328.63153    278.77924   -27.428133    28.664503     49.85229    40.137002 
81480000     268.3959    302.97991    286.83857   -27.815013    27.964479    16.141337    40.135726 
81484000    281.54858    338.20798     291.7915    -29.62241    28.121236     46.41648    40.136801 
81488000    272.89087    322.22697    271.70306   -27.848731    28.666464    50.523909    40.136714 
81492000      275.795    326.92771    283.27298   -29.445648    27.605309     43.65473    40.136398 
81496000    275.92356    313.88434    275.75697   -28.563176    27.497066    38.127365    40.135608 
81500000    284.50353    311.70718    285.60323   -28.151722    27.864832    26.103946    40.136751 
81504000    270.68393    326.55477    268.74977   -30.028726    28.373138    57.804996    40.138048 
81508000     266.6121    320.02999    268.85386   -28.874531    30.040813    51.176135    40.138422 
81512000    282.70329    336.06859    283.36439   -29.662417    28.903297    52.704201    40.138474 
81516000    281.03604     323.7746    287.25016   -28.802079    29.362572    36.524444    40.137896 
81520000    271.32709    310.42098    277.96696   -27.009631    29.063798     32.45402     40.13875 
81524000     273.8443     326.4883    272.31811   -27.941409     28.39558    54.170188    40.138795 
81528000      279.803    329.05015    271.58883   -28.388852    28.095651    57.461326     40.13913 
81532000    266.45076    305.39858    286.99184   -28.194459    28.458996    18.406734    40.141136 
81536000    278.32993    317.21477    287.80424   -28.420541    27.529286    29.410531    40.140484 
81540000     267.8518     297.3036    277.63967   -27.312635    27.501508    19.663938    40.140166 
81544000    271.90128    306.77259    282.99419   -28.242701    28.054326    23.778402    40.139631 
81548000    267.86394    303.14849    277.67856   -28.450883    27.680851    25.469928    40.139179 
81552000    275.25227    334.25788    283.47194   -29.668304    26.852327    50.785937    40.138049 
81556000    286.05953    327.25991    313.68385   -28.556737    26.562566    13.576057    40.137779 
81560000    283.39378    355.25349    273.58845   -31.024767    29.386737    81.665042    40.137452 
81564000    276.29305    321.57377    292.19555   -28.919781    27.649182    29.378222    40.137214 
81568000    272.82336    325.23225    283.52258   -28.708074    27.785871    41.709671    40.137918 
81572000    280.87977    316.85168    294.69532   -27.527144    26.816259    22.156356    40.138467 
81576000    280.08634    342.12966    262.86181   -28.453607    29.310348    79.267855    40.138209 
81580000    268.00361     304.5097    281.43958   -28.002774    27.975525    23.070119    40.138267 
81584000    272.19642    327.54869    296.93738   -28.095659    27.713598    30.611317      40.1385 
81588000    276.77423    326.01894    287.39782   -27.698338    28.073494    38.621116    40.139099 
81592000    274.79173    339.66715    277.95524   -29.040542    28.346271    61.711911    40.140782 
81596000    263.91693    280.30099    274.10087    -27.09772    28.817498    6.2001275    40.140566 
81600000    282.46373    328.95764    291.65359   -29.039561    28.595886    37.304053    40.140701 
81604000    277.97008    334.30838    275.73056    -28.44525    28.941003    58.577817    40.141728 
81608000    266.94832    304.29579    280.53294   -27.670517    29.101679    23.762854    40.142762 
81612000    264.71431    306.77076    272.85983   -28.203908    28.129299    33.910929     40.14282 
81616000    274.44078    316.32383    288.25806   -28.066257    27.749278    28.065773    40.141358 
81620000    263.15185    294.51491    268.59263   -28.126731    29.597901     25.92228    40.141371 
81624000    264.38915    302.19553    263.74847    -28.52659    30.756823    38.447065    40.142443 
81628000    278.10209    330.28353    290.07592   -29.252684    28.418923    40.207613    40.143703 
81632000    272.05558    309.96797    273.75351   -28.514425    29.600553    36.214454    40.142341 
81636000    268.74404      318.048    280.46601   -28.945251    29.223442    37.581992    40.142949 
81640000    276.45777    326.26827     303.6401   -29.387287    28.722213    22.628168    40.143094 
81644000     270.4574    319.29243    280.02592   -28.750766    30.544552    39.266507     40.14295 
81648000    277.93896    325.08727    288.50031   -30.711807    30.005392    36.586957    40.142056 
81652000    265.84034    318.74236    278.52984   -27.236448     29.17936    40.212521    40.142962 
81656000    263.84678    301.85301    264.02428   -27.279682    30.358308    37.828727    40.144271 
81660000    273.67134    327.76176    287.31463   -29.477242    28.895347    40.447126    40.143719 
81664000    265.09809     306.7673    271.42973   -27.469393    30.524945     35.33757    40.145005 
81668000    275.86686    330.87597    287.66928   -28.278849    29.750117    43.206684    40.144942 
81672000    270.53213     321.0629    293.98713    -28.48384    29.154348    27.075763    40.145038 
81676000    271.35734    305.60727    283.68689    -27.80466     30.06007    21.920377    40.144682 
81680000    272.46462      336.557    273.73947   -29.914019    30.392764    62.817536     40.14488 
81684000    273.93767    316.62738    285.89291   -28.284651    29.759326    30.734467    40.143693 
81688000    270.67304    309.72064    291.91883    -27.04161    30.002972    17.801811    40.142439 
81692000    264.61439    306.93334    271.98149   -27.675817    30.298013    34.951857    40.143031 
81696000    268.72298    320.58407     281.2191   -27.721762     30.88127    39.364968    40.143103 
81700000    277.70493    344.50525    285.80658   -30.142578    28.786144    58.698666    40.143545 
81704000    267.69346    320.89648    269.81385   -27.015337    29.813809    51.082622    40.143001 
81708000    275.83501    314.98049    302.27994   -29.084475     30.01183    12.700542    40.140634 
81712000    266.10932    321.45974    259.52823    -29.21447    31.418579     61.93151    40.140927 
81716000    269.37832    310.69692    279.72716   -28.322835    30.325765    30.969762    40.141669 
81720000    267.47891    322.68117    268.96018   -30.462232    31.078216    53.720995     40.14166 
81724000    262.05211    291.22703    278.18775   -29.016292    29.848668    13.039282    40.143096 
81728000    279.56379    341.53435    273.33856   -29.851006    30.270187    68.195793    40.143651 
81732000    267.19389    312.32861    279.45734   -28.023893    30.201923    32.871261     40.14356 
81736000    276.37698    318.55228    290.21476   -26.952946    28.786786    28.337517    40.144612 
81740000     276.3075    323.35367    277.54255   -29.341961    29.490421    45.811126    40.143831 
81744000    277.14055    313.55152    297.60799   -28.129627     29.36458    15.943529    40.143887 
81748000     270.4676    311.22586    269.03568   -28.267693    30.168215    42.190185    40.143345 
81752000     269.5942     328.9597    264.68909   -29.289541    31.679775    64.270604     40.14191 
81756000    271.22443    319.98493    284.53773   -29.069696    29.596479    35.447195    40.142012 
81760000    277.77662     331.4104    275.07843   -28.795729    30.168826    56.331975    40.141982 
81764000    277.83414    330.83766    276.68104    -28.69527    29.082094    54.156623    40.142135 
81768000     273.8366    310.57114    291.09289   -27.404615    28.968576    19.478253      40.1419 
81772000    272.86327    312.91568    281.64322   -28.206727    29.267379    31.272457     40.14119 
81776000    275.74332    318.04754    301.35759    -27.95832    28.124757    16.689948    40.142455 
81780000    274.71557    301.02207    284.69509   -26.123164    28.557016    16.326975    40.142488 
81784000    279.58266     339.2394    264.79406    -27.91599    30.046229    74.445346      40.1426 
81788000    271.67679    314.91704    285.41776   -27.715285    28.975005    29.499282    40.141563 
81792000    270.24308    323.27735    282.86068   -28.741904    28.746273    40.416665    40.141122 
81796000    273.81048    338.96225    278.78022   -28.105022    29.489204    60.182038     40.14064 
81800000     258.0961    292.52709    275.90617   -27.311768    30.149117    16.620924    40.141632 
81804000    275.78892    355.37257    280.27402   -30.041994     31.05431    75.098546    40.141566 
81808000    269.44826    338.13608    273.94624    -29.04779    30.440802    64.189837    40.141497 
81812000    267.84735    327.16454     275.3469   -28.142349    30.311797    51.817639    40.140912 
81816000    270.33762    322.32104    280.21777   -28.784562    29.920821     42.10327    40.139784 
81820000    267.65152    324.83323    283.10261   -27.513592    29.834854    41.730624    40.139847 
81824000    266.39535    303.17088    273.49881   -26.693858    30.706893    29.672063    40.139258 
81828000    271.18282    310.33199    291.49367   -27.194332    28.475998    18.838319    40.137934 
81832000    269.31627    318.97094    278.52737   -27.978116    29.406033    40.443572     40.13822 
81836000    271.84893     323.6273    288.73182   -27.895033    30.051789    34.895478    40.137439 
81840000    271.64985    311.88357    277.00989   -27.262753    30.192887     34.87368    40.137492 
81844000    281.45389    341.91725    294.96609   -29.325771    28.667014    46.951164    40.137596 
81848000    271.17105     332.3309    274.03235   -29.506004    29.641878    58.298553    40.139326 
81852000    268.01894    302.62046    284.86543   -27.515576    28.942761    17.755025    40.139036 
81856000    276.52423    341.49106    287.28017   -29.984425      29.1864    54.210892    40.140902 
81860000    268.49699    325.82754    283.07284   -27.441829    29.236792    42.754696    40.140077 
81864000    256.91682    292.10581     270.2971   -27.250841    30.065893    21.808714    40.139167 
81868000     271.6984    325.88088    268.61096   -28.482739    29.475475    57.269925    40.139196 
81872000    279.29008     348.9862    296.32594   -28.438077    27.827022    52.660264    40.139033 
81876000    260.20501     296.7718    283.86186   -26.538594    28.723932    12.909939    40.138411 
81880000     272.9695    313.48679    294.86412   -25.078084    28.565044    18.622662     40.13725 
81884000    277.77652    324.86043    277.44178   -26.239107    29.788353    47.418648    40.137261 
81888000    267.76815    315.56718    276.82193   -26.357295    29.526479     38.74525    40.137583 
81892000    270.59496    324.13913    262.91757   -27.938906    30.719955    61.221563    40.138677 
81896000    270.06058    334.05483    270.58391   -27.204987    30.558349    63.470922    40.139423 
81900000    260.80468    288.64772    280.10306   -26.728279    29.122722    8.5446613    40.138994 
81904000    283.53344     357.0558    298.79125   -28.721553    28.858731    58.264543    40.139529 
81908000    271.70273    330.35832    283.92634   -27.958033    29.015411    46.431982    40.140034 
81912000    278.42291    315.80929    292.00409   -28.537047    28.978598    23.805194    40.139822 
81916000     268.8699    316.20836    274.42785   -28.563981    30.783328    41.780514    40.140389 
81920000    274.53151     326.4066    287.13973   -28.787085    30.404964    39.266876    40.140571 
81924000    274.62928      328.947    270.67796   -29.105141    29.397254    58.269046    40.141473 
81928000    266.40774    314.74363    269.90244   -27.965611    30.872471    44.841193    40.141504 
81932000    271.13903    297.22027    303.12779   -27.202794    28.731325   -5.9075142    40.141997 
81936000    283.87381     333.6477    295.89206   -28.263899    28.651876    37.755634    40.141593 
81940000    271.64319    328.63702      278.471   -29.383341    28.882386    50.166014    40.140964 
81944000    281.40729    347.21938    300.38775   -28.970496    28.222816    46.831632    40.141524 
81948000    274.28801    328.96189    272.13441   -27.767199    30.363165    56.827475    40.142313 
81952000    282.45112    323.30614    300.27151   -28.540571    29.173551    23.034638    40.142355 
81956000    269.15291    297.90394     281.1001   -28.567227    30.012758    16.803835    40.142509 
81960000     265.5022    311.88114     259.9498    -29.19041    31.529861    51.931343    40.141389 
81964000    278.01379    320.84815    295.77365   -30.050465    30.057842    25.074496     40.14187 
81968000    269.56285    307.39967    272.16835   -29.340942     30.04434    35.231322    40.142229 
81972000    281.52041    325.41597    295.69309   -29.798451    29.356534    29.722879    40.142134 
81976000     270.9483    304.24734    287.34188   -28.710484     28.84712    16.905464    40.141025 
81980000    257.40355    278.92573    252.88168    -28.09219    31.067894    26.044052      40.1427 
81984000     274.8184    316.55936    294.07641   -29.062897    28.746089    22.482954    40.143048 
81988000    270.59298    306.52831     276.7697   -29.412171    29.642928    29.758608    40.143246 
81992000    275.53003    316.97003    281.16023   -28.644272    29.268732    35.809804    40.144489 
81996000    280.72923    305.93063    294.54754   -29.517425    29.213208    11.383085    40.145294 
82000000    280.09448    320.35196    280.51277   -29.292263    30.284558    39.839191     40.14451 
82004000    272.29689    316.09287    280.75422   -30.638039    30.000555    35.338646    40.143772 
82008000    270.27758    310.80655    291.05909   -30.498967    29.208848     19.74746    40.143526 
82012000    271.17206    286.72909    281.55724   -28.326936    29.997675    5.1718488    40.143906 
82016000    277.25743    327.45188    282.92396   -30.999377    29.996167    44.527921     40.14468 
82020000    272.41674    323.06996    272.97353   -29.837345     29.55803    50.096431    40.145912 
82024000    278.18276    334.63209    278.46202   -29.581501    30.263705    56.170069    40.145944 
82028000    270.60011    309.64436    287.36485   -30.337121    31.149742    22.279509     40.14472 
82032000    271.26813    318.75862    284.35541   -29.227865    29.773833    34.403204     40.14346 
82036000    274.05571    314.10717    277.42938   -28.177695    30.463896    36.677786    40.142596 
82040000     272.1949    292.25754     291.9312    -28.44315    29.661251   0.32633799    40.141648 
82044000    267.41995    317.70128    272.74588   -28.794165    30.609628    44.955399     40.14213 
82048000    272.41988    299.08493    279.06351   -27.915141    30.884841    20.021419    40.141934 
82052000    281.57352    327.28666    303.34945   -29.521742    29.387127    23.937213    40.141317 
82056000    266.01435     304.0218    280.62578   -28.751442    30.995732    23.396025     40.14083 
82060000    274.12951    330.15673     277.7944   -29.368491      30.3372    52.362329    40.141134 
82064000    275.77628    328.15181    285.35878   -28.989341    30.403597    42.793032    40.140544 
82068000    272.60431    328.34626    277.32285    -29.13929    30.589401    51.023404    40.140103 
82072000    273.36324    315.44422    299.74773   -27.959271    28.942503    15.696491      40.1402 
82076000    272.14487    319.99218    280.39083   -28.460151    31.031735    39.601349    40.140124 
82080000    261.02199    301.59161    260.24666   -27.019702    30.470273    41.344949    40.140995 
82084000    273.80797    330.35674    287.33952   -28.813997    29.363188    43.017227    40.140197 
82088000    268.93397    316.62541    280.60745   -27.228837    30.724937     36.01796    40.139308 
82092000    271.84709    325.27156    280.19354   -27.381904    30.482274    45.078025    40.138617 
82096000    278.70507    341.90398    297.10072   -28.510433    30.146214    44.803261    40.138371 
82100000    269.18792    328.62084    283.71104   -28.475812    31.002184    44.909797    40.137707 
82104000     278.2809    312.80167    306.71481   -27.157394    29.178705     6.086868    40.136776 
82108000    261.34277    318.46851    274.76737   -28.275459    30.026554    43.701146     40.13691 
82112000    267.56591    313.63488    277.21442   -28.681636    30.643415    36.420456    40.136343 
82116000    266.36174      312.445    285.95645    -28.53752    29.691343    26.488548    40.137018 
82120000    270.60784    332.14992    286.93087   -29.124909    30.223713    45.219056    40.136181 
82124000    269.04683    322.68465    285.40929   -29.521222     31.13132    37.275362    40.135809 
82128000    264.98355    298.48057    290.45296   -27.362764    29.852084    8.0276146    40.135698 
82132000    265.77725    317.26812    260.56055   -28.893094     31.84035    56.707575    40.135476 
82136000    282.55563    340.06698    293.94798   -29.979358    30.151663       46.119    40.136232 
82140000    264.21469    292.69321     283.4926   -28.646243    30.656967    9.2006116    40.136013 
82144000    267.47846    336.52793    259.80107   -29.479019    31.826627    76.726856    40.135016 
82148000    269.37485    318.28377    279.08512   -29.494757    30.553467    39.198651    40.134574 
82152000    276.30955    353.11763    286.51089   -31.356144    31.563002    66.606739    40.131332 
82156000    276.24269    325.23292    304.32935    -29.83778    29.787461    20.903574    40.129457 
82160000     260.5608    291.76464      279.618   -28.564048    31.479474    12.146636    40.129274 
82164000    272.11567    344.65374    282.25035   -31.560638    30.619385     62.40339    40.129692 
82168000    275.47211     338.8745    277.25613   -30.547564    31.422332    61.618367    40.129365 
82172000    277.32402    313.70605    282.97063   -29.318413    32.101592    30.735416     40.12964 
82176000    270.19791    324.45395    283.92064   -30.611074    31.428146    40.533307    40.130302 
82180000    269.25848    314.44637    282.70279   -29.776261    32.269151    31.743577    40.129943 
82184000    272.38446    317.79412    289.56581   -28.902073    30.153511    28.228309    40.130167 
82188000    267.88324    299.71613      287.759     -29.0358    29.603462    11.957128    40.130002 
82192000    263.71815    316.02906    275.67454   -29.699177    31.870854    40.354522    40.128887 
82196000    272.47696    319.36129    286.77649   -29.858914    30.898062    32.584802    40.129015 
82200000    269.24262    297.77528    285.49251   -27.282126    31.741591    12.282766    40.128941 
82204000    265.19462    309.98683    266.70734   -27.857493    31.448606    43.279488    40.130151 
82208000    274.67699       327.08    287.60847   -28.654949    30.772137    39.471528    40.130471 
82212000    268.97103    317.73041    291.99468   -27.924704    31.457625    25.735728    40.131221 
82216000    263.57449    331.07507    280.49594   -27.188031    32.211421    50.579125    40.131096 
82220000    271.21247    316.21924    291.90945   -27.742544    30.389139    24.309787     40.13031 
82224000    266.19861    330.46529     265.8247   -28.819842    31.633454    64.640592    40.130603 
82228000    272.81732    325.98432    273.34825   -28.713188    31.074414    52.636072    40.130811 
82232000    263.43939    305.17004    262.38504    -28.68798    31.662318    42.785001    40.131372 
82236000    264.56146    328.62563    274.63591   -29.456891    31.996647    53.989717    40.133036 
82240000     260.1688    309.82144    257.95215   -28.720472    31.736896     51.86929    40.133866 
82244000    263.67245    314.26571    267.43404   -27.685676    32.252293    46.831668    40.132878 
82248000    259.80187    294.92505      281.537   -27.138468    31.213134    13.388049    40.131398 
82252000    273.23901    323.38433     290.8198   -29.317639    31.204194     32.56453    40.132313 
82256000    270.84571    339.14563    269.50175   -29.519913    32.441488     69.64388    40.132981 
82260000     269.3238    308.53482    306.89389   -27.969909    30.525787    1.6409365    40.133206 
82264000    263.00609    325.04245    246.71728   -28.871125    33.499544    78.325169    40.133881 
82268000    261.16401    323.98636     269.0043   -28.821819    32.889674    54.982053    40.134021 
82272000    271.29704    322.35894    273.50332   -28.092274    31.227694    48.855614    40.134747 
82276000      265.168    321.50588    281.42505   -28.465661     31.48574    40.080835    40.135246 
82280000    270.82686    315.43819    275.78012   -27.983872    31.645237    39.658072    40.135061 
82284000    277.25081    354.17659    294.80083   -30.416595    31.320773     59.37576    40.135101 
82288000    263.54141    322.15025     267.0014   -28.970012     31.99021    55.148855    40.134649 
82292000    257.75469    313.51511    274.07971   -28.160455    31.758053    39.435401    40.134231 
82296000    271.16951    326.34446     290.6461   -29.571791    31.238621    35.698357    40.134358 
82300000    267.58769    323.81547    287.85589   -28.792283    30.731567    35.959584    40.133444 
82304000    260.52686    300.49654    286.53004   -27.177956    31.098204    13.966494    40.134567 
82308000    268.79321    323.50033    301.19606   -29.282828    31.850885    22.304266    40.135007 
82312000    263.63333    324.83752     270.0076     -29.1877    32.544736    54.829912    40.135017 
82316000    266.67195    316.11971    300.71364   -27.727906    30.743307    15.406071    40.133829 
82320000    266.71604    325.24429     282.2292   -28.546062    33.086855    43.015093    40.134632 
82324000      263.188     323.0914    270.16074   -28.151547    32.047824    52.930667    40.135149 
82328000    269.16232      305.018    308.02119   -25.771423    29.778945   -3.0031949    40.134949 
82332000    270.33631    326.24114    275.10097   -28.784797    30.956788    51.140168     40.13438 
82336000    273.34604     327.1437    290.74734   -28.982696    30.749017    36.396356    40.134537 
82340000    263.47977    303.65466    281.86562   -28.186665    31.669692    21.789037    40.135232 
82344000    270.80643    323.88782    295.01584   -29.155157    31.563804    28.871981     40.13442 
82348000    270.95081    327.66468    266.23098   -30.199261    32.271706    61.433698    40.133332 
82352000    274.06134     346.8591    296.11694   -31.014061    30.515557    50.742162    40.133214 
82356000    273.78403    315.73262    285.00149   -28.747939     31.18998    30.731128    40.132839 
82360000    267.55764    326.64839    281.11711   -28.296032    31.685987     45.53128    40.132959 
82364000    255.95218    287.39831    271.85956   -26.434196    31.693111    15.538748    40.132347 
82368000    269.98551    322.19747    278.70918   -28.068519     31.80117    43.488289    40.132359 
82372000    268.59183    336.04893    270.99732   -29.601311    32.756482    65.051618    40.133546 
82376000    271.88907    311.49431    293.37447   -29.062635    31.057843    18.119839    40.133575 
82380000     278.2124    329.92855     297.2641   -29.084581    31.058919    32.664443    40.133062 
82384000    262.26341     318.9589    268.36955    -29.02898    32.155352     50.58935    40.134742 
82388000    273.68161    338.89147    260.74647   -29.806917    31.680863    78.144991    40.134288 
82392000    262.24654    313.49799    257.91029   -29.089769    32.435608    55.587701    40.133436 
82396000    279.20087    337.64333    288.07529   -29.939528    30.123451    49.568036    40.132914 
82400000    276.07846    322.12869    284.76629   -29.676801    30.935391      37.3624    40.131635 
82404000    268.70469     322.6921     265.5535   -28.588173    31.713839    57.138603    40.131975 
82408000    281.79724    323.75267    307.59992   -28.642164    31.209752    16.152754    40.132637 
82412000    275.77235    342.37987     272.5183   -30.744897    31.344131    69.861561    40.132383 
82416000    263.20695    284.67929    276.23003   -28.454599    30.834885    8.4492606    40.131654 
82420000    269.08771    296.26613    266.35419   -28.319142    32.706811    29.911932    40.131797 
82424000    278.85049    320.11931    310.35193   -30.281493    30.062816    9.7673851    40.132176 
82428000    280.28115    310.84837    281.32198   -29.555884    29.857404    29.526385    40.130697 
82432000    271.11154    330.90157    290.52731   -30.212811    30.651501     40.37426    40.132048 
82436000    273.44215    317.08154     282.5243   -29.604219    31.519333    34.557237    40.132662 
82440000    265.76077     317.3517    291.68847   -29.625572    31.206714    25.663235    40.133059 
82444000    278.36062    348.29174    283.27012   -29.529865    30.992699    65.021618     40.13273 
82448000    268.82728    314.37437    281.46711   -28.383537    32.397253    32.907257    40.132878 
82452000      271.769    322.49664    290.88157   -29.458221    30.919414    31.615069    40.133098 
82456000    270.76946    328.75102    257.67402   -29.472707    31.299548    71.077004    40.132523 
82460000    273.62541    308.99003    288.32848   -28.635626    29.293387    20.661552    40.131359 
82464000    267.35931    308.59037    267.54009   -29.036041    31.207792    41.050285    40.130969 
82468000    277.40042    343.40416    267.52961   -30.508469    31.843973    75.874552    40.132111 
82472000    270.47836    315.76527    273.77218   -29.086983    31.011638    41.993085    40.131904 
82476000    277.51172    326.76009    283.69273   -29.333741    31.178938    43.067361    40.131512 
82480000    275.13397     331.8153    282.34615   -29.707638     31.56955    49.469151    40.133272 
82484000    272.02112    297.02422    278.26362   -28.060006    30.903417    18.760607    40.133375 
82488000    271.32811    316.14687    292.93265   -29.158799    30.760929    23.214214    40.133499 
82492000    275.47287    343.20123    282.15425   -29.896465    32.334817    61.046974    40.133907 
82496000    269.60604    310.76555     276.8576   -30.177609     32.14207    33.907951    40.132371 
82500000    263.60361    302.39186    277.66436   -29.513204    31.803174    24.727503    40.132094 
82504000    263.86253    309.64024    275.96015   -28.555798    32.454496    33.680088    40.131883 
82508000    275.85107    316.28003    287.25077   -29.295066    31.520453    29.029252    40.131291 
82512000    268.51967    311.92717    271.18342   -30.124461    32.087762    40.743744    40.133072 
82516000    272.08061    324.42845    275.37097   -30.217427    31.654458    49.057482    40.132952 
82520000     277.7354    334.13715    280.93485   -30.077991    31.515328    53.202299    40.133553 
82524000    263.94038    313.26438    266.91872    -30.34247    31.066453    46.345659    40.133653 
82528000    275.71882    332.97413    277.58728   -31.956337    32.552936     55.38685    40.133823 
82532000    273.46722     324.6234    283.98031    -31.07268    31.012244    40.643087    40.132984 
82536000    280.84868    329.22884    284.30334   -31.512364    30.783873    44.925507    40.132699 
82540000    268.29287    324.33069    277.41145     -30.0167    31.070985    46.919241    40.133563 
82544000     270.5138    302.09641    282.72922   -30.020347    31.243989    19.367187    40.132852 
82548000     281.3692    322.66238    285.56571   -31.132706    31.848163    37.096677    40.131444 
82552000    278.49065    335.25143    277.21338   -31.471398    31.129351    58.038045    40.131487 
82556000    279.75343    326.11023    288.54288   -31.308438    30.778026    37.567341    40.130137 
82560000    277.95817    308.66966     290.7265   -31.685759    29.698272    17.943155    40.130591 
82564000    282.18739    354.88635    296.93737   -30.771703    29.770601    57.948982    40.130335 
82568000    279.47944    342.81338     293.3659   -31.903866    30.920795    49.447478    40.130563 
82572000    271.96407    335.70098     274.2568   -31.795838    31.186306    61.444175    40.131141 
82576000    271.84695    303.56411    295.65076   -28.901785    30.079996    7.9133559    40.131724 
82580000    263.22154    289.55723     267.9206    -28.60461     31.85031    21.636625    40.132403 
82584000    272.91479    329.51376    288.17336   -30.482303    29.835542    41.340402    40.133159 
82588000    272.16157     296.0257    282.33294   -29.439887    29.896923    13.692762    40.132477 
82592000    271.68852      317.656    281.13594   -31.305502    30.194755     36.52006    40.132142 
82596000    268.52695    322.00067    271.33167   -30.196302      31.0653    50.669002    40.132963 
82600000    272.96564    332.87467    269.62355   -30.573054    31.401109    63.251127     40.13273 
82604000    273.38852    318.06361    301.06902   -29.477543    30.214921    16.994585    40.132423 
82608000    275.76991     330.7109    293.84305   -28.869378    29.907339    36.867853    40.133531 
82612000    273.66944    336.69681    289.34562    -30.63177    30.992839    47.351191    40.133613 
82616000    273.89799    319.25213    280.93299   -29.595467    32.011726    38.319141    40.133391 
82620000     265.9398    306.41377    272.30016   -28.048819    32.481269     34.11361    40.134026 
82624000    272.47578    329.55515    286.42574   -30.817932     31.89916     43.12941     40.13419 
82628000    266.38232    321.66722    267.42554   -30.152495     32.14686    54.241686    40.134381 
82632000    264.14207    302.33774    272.60485   -29.325786    31.552127    29.732885    40.133106 
82636000    268.77704    322.13599    282.42805   -29.550195    31.863464    39.707937    40.132358 
82640000    267.20573    324.20018     252.5135   -28.379563    32.595679    71.686683    40.132441 
82644000    270.23782    324.15488    265.33763   -28.963217    32.303414     58.81725    40.132538 
82648000     272.5913    322.24913    275.89101   -29.428587    32.254028    46.358122    40.132523 
82652000    272.51151    332.82278    281.08045   -29.785197    30.900521    51.742334    40.131519 
82656000    266.79302    317.58816    264.76882   -30.189868    31.959081    52.819342     40.12971 
82660000    265.66101    301.23865     278.1962   -28.148881    31.641796    23.042451    40.129525 
82664000    272.32261    334.90102     286.5767   -29.814095     31.95575    48.324321    40.129989 
82668000    263.04498     308.3212    261.28636    -28.44267    31.556562    47.034841    40.129671 
82672000    277.36094    320.67946    294.37032   -29.034491    31.419133    26.309142    40.128596 
82676000     274.6853    309.48282    290.30018   -27.881813    31.430903    19.182641       40.128 
82680000    268.88499    312.64013    291.43515   -28.795991    31.471083    21.204977    40.127731 
82684000    270.19006     326.1541    259.82285   -29.765849    32.889412    66.331251    40.127271 
82688000    270.88673    323.64149     292.1619   -29.361425    31.606669     31.47959    40.127796 
82692000    265.04632    304.75214     255.1151   -29.223128    33.252615    49.637046    40.127575 
82696000    274.68684    316.37088    298.34725    -29.54832    30.553759    18.023624    40.126947 
82700000    261.78323    310.16257    271.60881     -28.0758     32.70039    38.553759    40.127676 
82704000    269.83336    326.30647    296.35555   -29.249971    31.345853    29.950915    40.126561 
82708000    273.73119    337.39391    269.68501   -29.724769    32.555198    67.708904    40.127844 
82712000     263.2354    294.85504    277.62271   -27.771337    31.922761    17.232331    40.126883 
82716000     261.0144     301.8117    272.53137   -28.625868    32.035551    29.280326     40.12623 
82720000    282.55585     320.2894    316.21759   -28.744638    29.612175    4.0718048    40.127287 
82724000    265.73636    305.04748    280.67263    -29.58777    31.768905    24.374843     40.12682 
82728000    270.08982    327.78645    275.75946   -29.243907    31.990478    52.026988    40.127462 
82732000    263.33413    301.47558    271.97762   -29.786964    33.755555    29.497955    40.127447 
82736000    270.32354    328.36556    281.14657   -29.662148    31.801232    47.218985    40.127167 
82740000     271.4811    330.65137    280.43998   -29.991961    32.132684    50.211395    40.126354 
82744000    273.37343    320.17812    282.27527    -30.29069    31.256685    37.902853    40.126097 
82748000    266.23575    301.94313    280.14397   -28.660078    31.076183    21.799165    40.125493 
82752000    262.52844    298.05103    259.72211   -28.165629    33.140005    38.328921    40.124741 
82756000    267.17379    303.74818    283.36779   -28.676582    32.246954    20.380396    40.125845 
82760000    266.17112    321.05225    258.56464   -29.314776    32.601813    62.487619    40.126305 
82764000    275.19527    326.83151    277.33979   -29.982091    32.786383    49.491717    40.126643 
82768000    261.85057    308.02233    269.98673   -28.551132    32.352222    38.035608    40.127443 
82772000    266.14626     300.6426    266.12413   -28.364111    32.295321    34.518473    40.127313 
82776000    275.83454    332.42741    291.40202   -30.053906    30.424411    41.025398    40.125468 
82780000    270.97127    305.06301    282.12472   -30.290547    31.801131    22.938287    40.124358 
82784000    274.70858    320.59339    288.12834   -30.683467    31.388088    32.465052    40.124961 
82788000    273.44881    311.63118    285.00417   -29.596245    31.948515     26.62701    40.124464 
82792000    269.61585    316.33088    287.43361     -28.9951    31.919171    28.897273    40.124501 
82796000    269.48107    328.78174    295.18745   -29.891578    31.963883    33.594294    40.123977 
82800000    273.38724    313.74535    302.71814   -28.554947     30.49893    11.027205    40.123996 
82804000     265.9888    348.64845    258.73403   -31.042407    31.949007     89.91442     40.12374 
82808000    264.18957    314.96343     288.0532   -29.618931    32.271382    26.910225    40.123151 
82812000    266.03684    305.40532    285.41506     -27.7343    31.318898     19.99026    40.121784 
82816000    252.63895    290.29997    265.66925   -26.852075    33.339127    24.630713    40.123016 
82820000    269.02296    330.04142    289.55277    -30.41615    31.961956    40.488641    40.122599 
82824000    260.61114    310.64631    261.52857   -29.334685    33.331979    49.117737    40.122826 
82828000    272.52308    320.50668    293.16763   -29.751518    31.327285    27.339059    40.121703 
82832000    265.48199    336.42351    262.29565   -30.802997     32.37575    74.127861    40.123309 
82836000    276.34109    344.50643    291.95873   -31.989326    31.865544    52.547699    40.123459 
82840000    271.86707    331.81922    282.75178    -31.69542    32.799976    49.067444    40.123246 
82844000    271.48166    318.39276    286.92893   -30.372572    32.086799    31.463825    40.124448 
82848000    264.03218    321.39341    262.61013    -30.49169    32.708267    58.783282    40.124538 
82852000    271.75543    323.93129    285.66906   -31.329319    32.437201    38.262229     40.12486 
82856000    268.31066    303.04647    274.36419   -29.799609    32.969852    28.682279    40.125293 
82860000    265.31177    310.68698    290.92298   -30.324368    32.274996    19.763995    40.126211 
82864000    280.49724    339.48198    303.39199   -32.014585    30.888164     36.08999    40.126189 
82868000    265.99112    312.09565    276.23146   -29.756827    32.523913    35.864191    40.125498 
82872000    268.69152    334.92017    276.92472   -29.178171    31.454912    57.995454    40.125532 
82876000    270.20727    302.85119    294.14772    -28.34499    32.165121    8.7034718    40.126072 
82880000    271.90423    316.72715    271.76212   -28.605893    32.861036    44.965025    40.126173 
82884000    263.92006    300.27766    290.70375   -28.150055    32.230439    9.5739121    40.125486 
82888000    262.89567     299.3719    281.34261   -28.890265    32.592033    18.029292     40.12483 
82892000    273.54614    328.39102    274.39223   -30.853718    33.334102    53.998791    40.124481 
82896000    268.86933    325.84935     274.3711   -31.034954    32.212889    51.478242    40.124914 
82900000    271.59399    340.30709    263.62537   -32.225518    33.289116    76.681724    40.124988 
82904000    278.03618    328.38922    296.53206   -30.734622    30.665437    31.857158    40.123827 
82908000    268.63287    303.29395    274.43492   -29.645593    32.274237    28.859026    40.124826 
82912000    281.10071    361.17245    286.54146   -32.733939    31.869486    74.630997    40.125442 
82916000    272.17169    323.94809    287.94167   -31.042952    31.843865    36.006423    40.126196 
82920000    278.02119    323.03824    283.87677   -30.114918    31.532221    39.161474    40.126991 
82924000    277.33727     332.0462    285.17494   -31.860898    31.480255    46.871264     40.12765 
82928000    271.29187    324.53997    268.10063   -30.663699    32.402901    56.439347    40.127705 
82932000    272.92519    308.14632    299.44414   -30.083025    30.304043    8.7021816    40.127934 
82936000    278.34032    344.75193    272.74263   -31.542361    30.718312    72.009303    40.128649 
82940000     261.4578     289.3759     274.0272   -28.630382    31.570326    15.348699    40.129161 
82944000    262.73934    302.39927    256.13163     -29.7277    31.855735    46.267647    40.129802 
82948000     264.8074    310.76536    278.55883   -30.321539    31.077766    32.206534    40.130374 
82952000    277.77983    327.38573    301.61882   -31.625875    31.211071    25.766912    40.130111 
82956000    273.90014    310.43807    291.44417    -30.96261    31.956641    18.993896    40.129998 
82960000    274.06511     325.3551    298.95949   -30.339427    30.969778    26.395613    40.129015 
82964000    274.23878    338.96742    279.01183   -31.742059    32.063385    59.955585    40.128079 
82968000    271.57051    330.58224    287.92418    -30.73462    31.727448    42.658054     40.12923 
82972000    273.01404     314.8708    293.33832    -30.04643    31.994562    21.532477    40.128197 
82976000    274.80363     334.5657    285.87007   -30.605343    31.391647    48.695638    40.126836 
82980000    268.03312     293.9745    290.06887   -29.496491    31.871598    3.9056308    40.125798 
82984000    278.02697    349.42054    287.95159   -32.531492    31.043453    61.468952    40.125836 
82988000    266.75199    296.28378    262.30769    -29.09573    31.842839    33.976093    40.126591 
82992000    262.03166    288.43131    279.10666   -28.851216    31.309297    9.3246536    40.125643 
82996000    278.04378    328.03284    286.02267   -31.169257    31.538493    42.010167    40.124335 
83000000    279.57114    332.11288    285.02487   -31.968109    31.169838    47.088008    40.124765 
83004000     265.7661    306.00197    269.95651   -30.900174    31.508441    36.045459    40.124386 
83008000    276.98445    341.68854    284.84222   -31.199405    31.119478    56.846314    40.123836 
83012000    269.47312    315.95939    265.23518   -31.476097    31.754591    50.724208    40.123727 
83016000    267.52389    303.70501    279.68142   -30.263534    31.692966     24.02358    40.123625 
83020000    269.40598    328.00557    267.46827   -30.809419    32.483569    60.537299    40.123662 
83024000    268.71023    291.85111    275.78668   -28.866707    32.669885    16.064432    40.124216 
83028000    277.45654     327.4962    290.90819   -31.021304    31.044417    36.588004    40.123601 
83032000    271.00527    317.79593    264.93872   -30.859654    32.523127    52.857207    40.124637 
83036000    277.18464    314.72891    277.25873   -29.909838    32.477853    37.470176    40.124862 
83040000    271.79638    322.27872     287.1361   -31.987001    32.319375    35.142627     40.12427 
83044000    263.10345    294.48224    281.93468    -30.52835    32.301794    12.547562     40.12422 
83048000    273.13143    317.58674    286.76052   -30.489663    31.933491     30.82622     40.12414 
83052000    276.14646    328.45253    293.64092   -32.484934    31.618177     34.81161    40.122985 
83056000    271.98305    323.69993    274.95967   -30.010646    32.453619    48.740257     40.12353 
83060000    267.73092    304.47876    292.21245   -30.394807    31.229541    12.266314    40.122252 
83064000    271.50188    331.44401    279.74645   -31.530466     32.96914    51.697557    40.120648 
83068000    280.29658    317.77077    281.04862    -31.01078    31.675286    36.722147     40.12093 
83072000    270.92753    296.41772    287.03039   -28.939554    31.427731    9.3873285    40.120011 
83076000    266.69851    317.05995    267.07117   -31.054154    31.930887    49.988776    40.119003 
83080000    271.49439     315.9624    272.44555   -30.972142    31.804296    43.516847    40.118648 
83084000    280.81189    319.90608    296.38302   -30.168722    30.930461    23.523053    40.119067 
83088000     274.0504    310.25062    291.32006   -29.273678    31.026963    18.930562    40.119428 
83092000    276.08014    313.30375    288.79365   -31.440007    31.491562    24.510101    40.119512 
83096000    267.28863    295.73765    282.38602   -30.729473    31.799035     13.35163    40.119495 
83100000    271.52154    315.73438    285.04275   -30.332044    31.344528    30.691639    40.119862 
83104000    278.17145    322.51551    279.88173   -30.348327     32.18017    42.633785    40.120368 
83108000    284.77675    321.88666    300.27917    -31.14219    30.848738    21.607488    40.120464 
83112000    273.13955    322.72518    273.53811   -30.232848    32.900292    49.187068    40.121803 
83116000    278.95662     322.0382    279.67317   -31.153037    32.410837    42.365036    40.121236 
83120000    279.90447    326.25427    289.79428   -30.345423    31.650536    36.459993    40.121436 
83124000    277.49819    325.76283    297.60712   -31.276713    31.182312    28.155701    40.121257 
83128000    263.00338    305.84394    275.42179   -30.394983    31.632719     30.42215    40.120924 
83132000     275.2749    340.13849    275.36757    -31.41727    31.590721    64.770921    40.121529 
83136000    273.64038    331.84412    275.58643   -31.758763    33.352112    56.257687    40.121925 
83140000    277.19816    330.02864    292.05818   -31.904385      30.0679    37.970456    40.122024 
83144000    269.32437    319.04924    261.43387   -30.984209    31.845923    57.615367    40.122115 
83148000    264.54447    323.16536    268.12139   -32.134335    31.468245    55.043974    40.123351 
83152000    265.77917    310.42996    270.05261   -31.899268    30.498713    40.377356    40.123641 
83156000    271.44606    313.21237    278.95018   -30.826213    31.698631    34.262191    40.125031 
83160000     274.9391    335.30794    285.27666   -31.927482    31.158064    50.031283    40.125225 
83164000    276.14834    311.48815    276.12925   -30.811501    31.454802    35.358896     40.12551 
83168000    275.63645    301.23624    263.42167   -30.412419    31.949926    37.814568    40.124937 
83172000    279.16822    333.83629    267.93102   -33.284274    32.236452    65.905268     40.12532 
83176000    279.90661     322.9954     289.1368   -31.674691    31.417955    33.858603    40.124779 
83180000    273.65004    331.40489    271.14195   -33.287963    31.355152    60.262937    40.124714 
83184000     272.2335    310.82947    279.05078   -30.787232    32.186309    31.778687    40.123527 
83188000    276.21746    308.65461    300.43352   -30.906197    30.759528    8.2210891    40.122924 
83192000    282.58942    340.27291    291.16537    -33.03733    31.455883    49.107533    40.123587 
83196000    275.02166    312.29887    282.64543   -31.217345    31.691897    29.653431    40.124134 
83200000    273.97717    329.38641    261.07841   -31.756934    32.475571       68.308    40.124978 
83204000    261.26219    296.51451    265.24279     -30.3728    33.203251    31.271723    40.124169 
83208000    282.71777    350.16649    286.33971   -32.947742    30.269973    63.826775    40.124789 
83212000    279.62806    335.54985    289.12635   -31.558086    29.948345    46.423502    40.124728 
83216000    266.81827    293.03594    282.26729   -29.421007    30.321153    10.768655    40.125037 
83220000    260.27478    290.47672    265.95772   -27.687328    31.494611    24.519004    40.125193 
83224000    272.32722     318.0385    281.42069   -29.853613    30.691773    36.617809    40.125217 
83228000    271.86542     310.9464    275.99468   -29.299197    30.691072    34.951716    40.125426 
83232000    275.69519    325.22571    260.23611   -30.176085    31.989213    64.989594    40.126054 
83236000    277.59683    337.20809    274.27266   -31.816832    30.818214    62.935436    40.124995 
83240000     283.4152     343.5881    289.25236   -32.596333    31.284543    54.335731    40.125938 
83244000    284.51326    350.41107    268.99566   -32.946799    32.212492    81.415405    40.125996 
83248000    270.75906    316.11929    283.38493    -30.70804    30.662654    32.734362    40.125857 
83252000    273.02335    320.30897    264.57991   -32.074392    31.323713    55.729058    40.124993 
83256000    277.29137    322.66561    270.96322   -31.047582    31.202957     51.70239      40.1251 
83260000    285.97735     320.8068    285.94554   -31.172545    30.176396     34.86126    40.126096 
83264000    277.09974    325.37036    269.00938   -31.881215     30.92945    56.360985    40.125826 
83268000    267.52995       307.49    269.13554   -31.819743    29.395709    38.354457      40.1257 
83272000    280.38754    325.79858    299.21485   -32.313874    29.592999    26.583736     40.12572 
83276000    271.91431    309.61412    258.76927   -31.588438    32.070829    50.844858    40.125199 
83280000    283.79486    326.97486    288.09216   -33.308553    30.846674    38.882698    40.124034 
83284000    287.96848     323.1373    288.27667   -32.317723    29.761806    34.860627    40.125463 
83288000    280.59727    323.11283    277.70806   -32.361409    30.677463    45.404772    40.125609 
83292000    279.36379    320.62826    287.25114   -31.647833    29.473289    33.377126    40.125672 
83296000    278.27243     337.9506    274.71626   -31.628592    29.959706    63.234338    40.126423 
83300000    278.23489    343.10172    256.54485   -32.014514    32.635319    86.556874    40.126987 
83304000    277.47342     321.7556    293.58898   -32.324908     31.37405    28.166616    40.127277 
83308000    280.37009     326.5976    270.64845   -30.426676     30.95279    55.949152    40.126758 
83312000    283.81012    330.90919    286.48496   -30.890065    30.512603    44.424229    40.126324 
83316000     274.4732    316.29173    280.80303   -30.653849    31.777265    35.488693    40.124755 
83320000    274.48083    290.96305    292.40988   -28.704256    31.121132   -1.4468355    40.123324 
83324000    283.23135     360.0121     271.4011    -32.61976    31.889688    88.610997    40.123843 
83328000    275.52707    326.88485    268.51558   -32.990199     31.51366    58.369277    40.123978 
83332000    286.14128    343.32423    292.96605    -32.62968    30.040834    50.358186    40.123228 
83336000    271.16001    327.67096     276.2163   -32.421671      30.9633    51.454658    40.123522 
83340000     271.5798    324.40252    267.21454   -30.863456    31.017922    57.187979     40.12407 
83344000     265.2986    291.42567    271.53379    -29.03861      30.3886     19.89188    40.123203 
83348000    264.49275    302.29872    260.39375   -30.529393    31.276129    41.904973    40.123802 
83352000    273.75911    297.42964    284.09945   -31.204027    29.838464    13.330189    40.124523 
83356000    274.80234    310.68951    316.10512   -31.080678    28.944368   -5.4156033    40.125882 
83360000    280.02997    318.00043    297.20143   -31.991336    29.291009    20.799006    40.124394 
83364000    277.12241    303.33632    300.28378   -31.696295    29.366731    3.0525398    40.124147 
83368000    270.69122    297.96617     251.6998   -30.950168    31.408292     46.26637     40.12446 
83372000    282.97807    323.16108    295.64311   -32.963757    29.822491    27.517968     40.12355 
83376000     269.5473    295.19717    260.76455   -29.735619    31.901873    34.432612    40.123165 
83380000    271.55038    328.40906    249.94265   -31.877179    32.012381    78.466408    40.124918 
83384000    276.26952    310.24378    289.02411   -30.790398    31.010757    21.219675    40.125708 
83388000    270.67863     331.2249    264.45114     -32.2514    32.936115    66.773754    40.126846 
83392000    268.98945    299.46381    275.28828   -30.879881    32.134261    24.175531    40.126593 
83396000    288.04795    350.46256    285.09076   -33.894923      31.0624    65.371801     40.12719 
83400000      273.923    315.50397    288.35038   -30.813723    32.407504    27.153588    40.127758 
83404000    271.15476     319.1171    281.13525   -31.735919    30.939908    37.981854     40.12858 
83408000    275.40674    332.73506    285.60392   -31.868009    31.172738    47.131145    40.128834 
83412000    273.47001    315.39232    283.54178   -30.150224    31.229066    31.850534    40.128339 
83416000    271.59568    320.59213    282.54153   -29.390499    31.192386      38.0506    40.125619 
83420000    281.88103    339.54316    288.73189     -31.1085    29.920827    50.811268    40.125254 
83424000     265.8827    306.07188    304.19248   -29.355077     29.36289    1.8793963    40.125327 
83428000    264.92523    296.90197    267.79145   -29.420592    31.017136    29.110517    40.124541 
83432000    257.51426    312.05661    246.97995   -28.639375    32.454647    65.076662    40.124525 
83436000     261.6011    320.04134    263.10928   -30.191775    32.929598    56.932051    40.123711 
83440000    273.43126    316.08415    282.63218     -30.5955    31.956992    33.451969    40.122577 
83444000    259.70634    283.83875     282.0516   -28.747739     29.84913    1.7871435    40.121727 
83448000    272.26875    312.53823    282.75198   -30.642585    31.164476    29.786249    40.122076 
83452000    278.71153    334.33013    293.14916   -30.883474    30.931287    41.180967    40.121136 
83456000    280.12028    327.56681    298.41285   -30.585149    30.115056    29.153964    40.121347 
83460000    275.81364    306.92034    300.66151   -29.712657    29.471192    6.2588321    40.120561 
83464000    267.61873    326.51135    275.61988   -30.773356    31.363074    50.891461    40.119935 
83468000    275.91495     313.8466    292.57001   -29.799713    31.406102    21.276594    40.119713 
83472000    279.85878    331.96252    299.47525   -31.523966    30.586246    32.487271    40.120796 
83476000    277.91432    334.04538    287.60737   -30.505157    31.112486    46.438011    40.120176 
83480000    277.98935    327.06499    302.31361    -31.10141    30.107221    24.751379    40.119257 
83484000    273.45161    308.22152    289.34392   -30.381002    31.094223    18.877596    40.119019 
83488000    269.05414     315.6392    290.77327   -29.910556    30.309635    24.865933    40.118404 
83492000    269.05914    300.68665     270.5119   -29.140235    31.646804    30.174756     40.11792 
83496000    259.47533    287.78552    277.56974    -28.75279    32.080045     10.21578    40.118924 
83500000    264.04475    308.93422    271.65728   -29.008961    32.142814    37.276946    40.119212 
83504000    272.20067     312.0685    286.88388   -29.147979    31.307736    25.184618    40.119372 
83508000    277.40561    336.32212    278.89553   -30.904622    31.198228    57.426586     40.11856 
83512000    262.78187    324.47481    258.03555   -29.594309     33.08044     66.43926    40.118245 
83516000    265.33907    336.36498    276.05947   -31.561594    32.337133    60.305519     40.11983 
83520000    260.61689    304.56055    269.85234   -29.212893    32.652619    34.708215    40.118359 
83524000    265.09912    332.31226    267.15775   -30.786319    32.386034    65.154515    40.118873 
83528000    268.59213    337.77204    268.76445   -30.282656    32.066741    69.007582    40.118704 
83532000    277.08766    360.60196    282.65416   -30.536902     32.05598    77.947802     40.11882 
83536000    263.86124     319.5445    278.07037   -28.662332    32.488384    41.474129    40.119751 
83540000    264.72868    307.86275     276.2312    -27.30227    32.390528    31.631549    40.118965 
83544000    268.33991    322.72893    276.52471   -29.028548    33.088299     46.20422    40.119995 
83548000    265.61847    314.99928    276.77947   -29.463863    32.291528     38.21981    40.120527 
83552000    268.05069    309.30065    285.12482   -29.051363    31.653866    24.175826    40.119579 
83556000     267.5416    322.38765    274.36141   -29.711171    32.516885    48.026241    40.119266 
83560000    266.33665    328.30592    276.39303   -29.323404    33.681523     51.91289    40.120003 
83564000    268.56678    310.32936    290.90507    -29.61412    33.192014    19.424298    40.120135 
83568000    265.14767      300.464    284.11209   -27.902883    33.411674    16.351904    40.119486 
83572000    261.21144    325.37653    269.15226   -29.511326    34.387859    56.224273     40.11942 
83576000     269.4827     325.6823    275.92632   -30.071988    33.617493    49.755975    40.120332 
83580000    272.83084    331.46371    300.51615   -29.395124    32.993062    30.947553    40.120657 
83584000    274.28925    335.42393    288.43472   -29.509718    34.431172    46.989208    40.121138 
83588000    267.32147    325.41834    285.47467   -30.328392     33.36973     39.94367    40.121246 
83592000    255.40094    295.87897    265.31579   -29.428115    33.956643    30.563171     40.12059 
83596000    261.49426    322.09123    263.78071   -30.231728    33.447173     58.31052    40.120491 
83600000    253.82679    290.23199    283.91793   -28.915257    33.350033    6.3140648     40.11939 
83604000    272.20851    316.65406    303.36035   -29.084157    31.688133    13.293704    40.119242 
83608000    262.74426    303.07338    280.32203   -28.989378    32.693809    22.751348    40.118363 
83612000    271.00443     316.9628    284.05511   -29.902681    32.611795    32.907692    40.119591 
83616000    268.87796    313.52472    278.94969   -30.699599    32.658334    34.575028    40.119458 
83620000      269.137    339.83582    277.64367   -30.941823    32.751414    62.192155    40.120354 
83624000    266.96604    320.68826    283.93827   -28.986392    31.725937    36.749987     40.11967 
83628000    262.02049    304.09079    291.36125    -28.31046    32.715627    12.729544    40.118011 
83632000     262.7218    333.31728    275.49245   -30.371527    33.377229    57.824828    40.118294 
83636000    275.61485    347.89964    297.29556   -31.736305    32.266973    50.604082    40.118279 
83640000    263.93816    308.01485    271.14526   -28.893841    33.302318    36.869587    40.118064 
83644000    262.00992    308.44678    279.69636   -29.610291    33.191886    28.750423    40.117979 
83648000    263.19048    324.11954    264.72896   -29.270978    35.090452    59.390579    40.118501 
83652000    271.40793    337.93121     288.3427   -30.010941    33.064088    49.588505    40.117552 
83656000    251.77141    308.44279    259.78543   -28.152367     34.61483    48.657357    40.117014 
83660000    259.49728    315.24567    269.10327   -28.182967    32.915988    46.142401    40.117201 
83664000    264.27481    307.69369    284.33208    -28.17521    32.726149    23.361611    40.118024 
83668000    262.03328    313.63437    277.76812   -29.344808    32.754554     35.86625    40.117435 
83672000    269.82682    320.01938    290.84346   -28.979169    32.337787    29.175925    40.116065 
83676000    274.12214    307.64071    307.66971   -28.885527    31.859984 -0.028995918    40.115617 
83680000    278.27126    333.86316    276.35056   -30.285114    32.284095    57.512598    40.115211 
83684000    261.82756    297.93655    282.95334   -28.877197    32.616994    14.983215    40.115245 
83688000    269.39697    303.62388    287.76756   -28.234444    32.896695    15.856324    40.115141 
83692000    270.63317    326.02582    294.53353   -30.240916    33.100526    31.492286     40.11541 
83696000    268.34901    314.96206    270.91108    -28.65057    34.296529    44.050975    40.115547 
83700000    267.81345    315.05691    281.34836   -29.007452     33.26574    33.708549    40.114728 
83704000    271.17001     313.8605    300.70463   -29.361654    32.859292     13.15587    40.114865 
83708000    264.72889    330.75664    266.46075    -31.33552    33.803213    64.295884    40.114503 
83712000    271.41085    315.55714    285.19467   -29.536593    32.774306    30.362468    40.114804 
83716000    268.50544    341.69308    285.07349   -30.419305     33.33758    56.619585    40.114711 
83720000    269.54138    327.72598    270.47381   -29.822054     33.07498    57.252166    40.116186 
83724000    276.99723    337.32105    293.20733   -30.433082    32.501805    44.113726    40.117216 
83728000    260.99398    298.48116    262.75532   -29.254716    33.033937    35.725843    40.118125 
83732000    260.14752    300.56229    281.01853   -29.399927    31.635645    19.543761    40.117677 
83736000    279.77073    331.75318    298.01655   -31.399814    31.426667    33.736633    40.118106 
83740000    263.62269    304.73445    279.85648   -30.855888    33.186337    24.877975    40.117983 
83744000    263.35871    310.82911    275.10048   -30.958269     33.46755    35.728637    40.118373 
83748000    263.47721     296.3674    273.43794   -30.568823      33.2737    22.929462    40.117649 
83752000    270.00395    307.73214    288.03638   -30.150535    32.751748     19.69576    40.117648 
83756000    268.07333    315.44336    271.01143   -30.747964    32.824879    44.431933     40.11699 
83760000    273.34446    321.01376    286.26072   -31.415815    31.140052    34.753039    40.117967 
83764000    272.31365    310.24614    286.89275    -30.35823    32.590914    23.353387      40.1175 
83768000    277.66261    324.18916    292.02076    -31.22487    32.370338    32.168406    40.116482 
83772000    267.31691    322.83185    270.82875   -31.339448    32.926959    52.003106    40.116745 
83776000      269.464    310.64691    266.26137   -29.951103    33.153006    44.385542    40.116734 
83780000    277.91423    320.91478    292.99069   -30.913517    31.518276    27.924085    40.116814 
83784000     262.4133    297.15476    272.79747    -30.23957    33.154625    24.357281    40.116723 
83788000    267.63204    315.20504    281.49159   -31.225357    32.244213    33.713451    40.116289 
83792000    272.78574    321.76806    285.62448   -30.921844     32.26605    36.143572     40.11556 
83796000    277.76624    310.92668    280.00263   -30.745584    32.176971    30.924042    40.116969 
83800000    275.82194     344.7099     291.2385   -34.745816    31.982067    53.471398    40.116439 
83804000    272.50459    317.44746    289.07482   -31.685112    32.347219     28.37264    40.115233 
83808000    278.46843    341.72432    285.95482   -31.325831     32.17666    55.769495    40.115661 
83812000    281.40556    322.73468    310.00961   -30.856592    31.160357    12.725061    40.116143 
83816000    277.36966    315.08321     298.2823    -30.67009    31.060906    16.800911     40.11635 
83820000    271.45092    312.01126    286.01948   -30.740098    32.936111    25.991773    40.115852 
83824000    275.17286    316.43126     302.8536   -30.170144    31.980995    13.577659    40.116453 
83828000    273.48048    324.34396    283.94841   -31.706376    32.531548    40.395556    40.116101 
83832000    270.85322    311.85898    285.42484   -31.199838    31.576582    26.434141    40.115079 
83836000    271.61946    330.86502    276.14461   -32.614222    32.726304    54.720405    40.114604 
83840000     275.6757    310.85219    319.08296   -30.650658    31.347258   -8.2307684    40.114604 
83844000    267.55541    324.66008    282.89474    -32.92715    32.572567     41.76534    40.115822 
83848000     259.6045     318.5863    258.67726   -30.726678     34.10093    59.909047    40.116259 
83852000     273.8095     315.3689    287.18243   -30.083633    32.756708    28.186465    40.115921 
83856000    269.82991    313.23084    284.39956   -31.732698    32.978976    28.831276    40.117154 
83860000    260.78175    305.47751    273.77005   -31.230273    33.352298    31.707459    40.116563 
83864000    270.06404    334.72895    277.53139   -30.736328    33.571463    57.197561    40.117593 
83868000    275.03169    317.90383    287.38594   -31.133008    33.180461     30.51789    40.116876 
83872000     264.2048    297.64375    270.10462   -30.450555    33.612307    27.539127    40.117065 
83876000     268.4176    327.42719    271.14301   -31.813521     34.10657    56.284179    40.117021 
83880000    270.06363    325.89673    275.91139   -32.421207     34.16001    49.985336    40.117034 
83884000    262.28072    302.31389    261.92744   -31.382278    33.526658    40.386449    40.116839 
83888000    262.71852    298.62571    288.01268   -30.226927    32.206207     10.61303    40.117067 
83892000    264.64221    309.67279    276.46341   -30.853389    33.299044    33.209384     40.11735 
83896000    275.43232    337.00408    289.71889   -32.463478    33.384731     47.28519    40.118023 
83900000    270.00026    322.69714    291.35945   -31.727331    32.258362    31.337683    40.116127 
83904000    275.72595    316.15496    298.66698   -31.628008    31.646778    17.487981    40.115834 
83908000    267.61784    325.99881    263.70311   -31.979276     35.01774    62.295701    40.116741 
83912000    268.47606    318.47231    281.49017   -32.031091    32.658615    36.982137    40.116913 
83916000    268.22449    317.40647    278.82575   -31.789781    33.206196     38.58072    40.116717 
83920000     283.8707    336.22659    295.53064   -33.202384    31.821961    40.695946    40.118684 
83924000    274.99533    337.53954    273.62497   -33.087386    32.461926    63.914569    40.119722 
83928000    282.83011    342.37573      295.687   -32.373238    31.611362    46.688731    40.120368 
83932000    274.83134    309.16681    290.18461   -31.299742    31.740248    18.982204    40.121427 
83936000    268.17773    300.96551    295.89787    -30.15504    32.324773    5.0676431    40.120782 
83940000    276.91072     338.0014    276.44306   -32.276185    32.593047    61.558336    40.120803 
83944000    265.81327    318.14733    279.99628   -31.660823     33.66756     38.15105    40.120185 
83948000    269.51227    333.23551    268.90061   -32.235887    33.017766    64.334898    40.119816 
83952000    271.70563    300.81653    285.95814   -30.592974    32.338701    14.858397    40.119554 
83956000    278.85493    326.80783    298.78498   -32.520544    32.883856    28.022852    40.119696 
83960000    276.66606    339.69466    270.98382   -32.317055     34.86335    68.710839    40.120224 
83964000    275.01508    324.68485    279.45765   -31.618639    32.764547    45.227196    40.120785 
83968000    281.95111    332.96695    293.56924   -32.960835    32.171383    39.397711    40.121694 
83972000    276.36965    323.67796    281.00688   -32.938929    33.015264    42.671075    40.122737 
83976000    271.12999    320.10355    273.97951   -32.939568    33.568561    46.124047    40.122789 
83980000    277.92646    320.18973    291.30972   -32.367328    31.648455     28.88001    40.124042 
83984000    275.88878    321.09671    288.53987   -33.663596    32.254315     32.55684    40.124112 
83988000    270.68395    317.99866    260.09057   -33.672216    34.826037    57.908096    40.123878 
83992000     283.6673    344.45336    269.13219   -35.235699    32.800008    75.321174    40.124636 
83996000    281.32638    322.91841    277.47976    -32.91037    32.712719    45.438651    40.123983 
84000000    275.98121    314.74997    290.84246   -33.458339    32.197171    23.907503    40.124111 
84001000     271.0115    327.74787    262.39357   -34.284843    33.712471    65.354299    40.124111 
Loop time of 23598.8 on 4 procs for 16000000 steps with 1498 atoms

Performance: 14.645 ns/day, 1.639 hours/ns, 678.002 timesteps/s
99.5% CPU use with 4 MPI tasks x no OpenMP threads

MPI task timing breakdown:
Section |  min time  |  avg time  |  max time  |%varavg| %total
---------------------------------------------------------------
Pair    | 11814      | 16280      | 20938      |3435.5 | 68.99
Bond    | 73.546     | 113.86     | 151.88     | 356.0 |  0.48
Neigh   | 131.73     | 131.77     | 131.8      |   0.2 |  0.56
Comm    | 298.02     | 4596.7     | 9077.5     |6331.3 | 19.48
Output  | 8.9148     | 9.0118     | 9.3013     |   5.6 |  0.04
Modify  | 1251.1     | 1916       | 2613.7     |1112.1 |  8.12
Other   |            | 551.7      |            |       |  2.34

Nlocal:    374.5 ave 714 max 35 min
Histogram: 2 0 0 0 0 0 0 0 0 2
Nghost:    2379 ave 4278 max 496 min
Histogram: 2 0 0 0 0 0 0 0 0 2
Neighs:    13150.2 ave 25992 max 315 min
Histogram: 2 0 0 0 0 0 0 0 0 2

Total # of neighbors = 52601
Ave neighs/atom = 35.1142
Ave special neighs/atom = 0.518024
Neighbor list builds = 28818
Dangerous builds = 0

write_restart FINALCONFIG
WARNING: Using a manybody potential with bonds/angles/dihedrals and special_bond exclusions (../pair.cpp:218)
Neighbor list info ...
  update every 1 steps, delay 0 steps, check yes
  max neighbors/atom: 2000, page size: 100000
  master list distance cutoff = 16
  ghost atom cutoff = 16
  binsize = 8, bins = 3 3 23
  4 neighbor lists, perpetual/occasional/extra = 4 0 0
  (1) pair lj/cut, perpetual, skip from (4)
      attributes: half, newton on
      pair build: skip
      stencil: none
      bin: none
  (2) pair morse, perpetual, skip from (4)
      attributes: half, newton on
      pair build: skip
      stencil: none
      bin: none
  (3) pair eam, perpetual, skip from (4)
      attributes: half, newton on
      pair build: skip
      stencil: none
      bin: none
  (4) neighbor class addition, perpetual
      attributes: half, newton on
      pair build: half/bin/newton
      stencil: half/bin/3d/newton
      bin: standard

#and everyone lived happily ever after, THE END
Total wall time: 6:51:45
