LAMMPS (16 Mar 2018)
#lammps script for united atom polymer simulation (full-scale run)

# 1. INITIALIZATION
#allows pair, bond, bending and dihedral interactions
atom_style molecular

  # periodic (video game) boundaries in all cartesian directions
boundary p p s

  # uses real units (instead of units based on pair potential parameters).  List of units used in manual
units metal

###########
# 2. ATOM DEFINITION
##########

   ##
   # Read in data from starting configuration file
   ##

#read_data lammps-AT-config

 #use to restart
read_restart RESTART
  orthogonal box = (0 0 -29.1214) to (20 20 152.979)
  1 by 1 by 4 MPI processor grid
  1498 atoms
  197 bonds
  96 angles
  95 dihedrals
  2 = max # of 1-2 neighbors
  2 = max # of 1-3 neighbors
  4 = max # of 1-4 neighbors
  6 = max # of special neighbors

   ##
   # Specify the nature of the bond interactions
   ##

bond_style harmonic
bond_coeff 1 19.51 1.54
bond_coeff 2 22.45 1.82
bond_coeff 3 10000.0 2.0
special_bonds lj 0.0 0.0 0.0 angle no dihedral no

angle_style harmonic
angle_coeff 1 2.683 114.00
angle_coeff 2 2.683 114.40

dihedral_style opls
dihedral_coeff * 0.06071 -0.011743 0.1363628 0.0

mass  1   14.00
mass  2   32.06
mass  3  196.97
mass  4  196.97


pair_style hybrid lj/cut 14.0 morse 14.0 eam
pair_coeff 1 1 lj/cut 0.00395 3.95 14.0
pair_coeff 2 2 lj/cut 0.01594 3.62 14.0
pair_coeff 3 3 eam Au_u3.eam
Reading potential file Au_u3.eam with DATE: 2007-06-11
pair_coeff 4 4 eam Au_u3.eam
pair_coeff 1 2 lj/cut 0.0000 3.785 14.0
pair_coeff 1 3 lj/cut 0.00258 3.44 14.0
pair_coeff 1 4 lj/cut 0.00 3.44 14.0
pair_coeff 2 3 morse 0.879 1.47 2.7 14.0
pair_coeff 2 4 morse 0.000 1.47 2.7 14.0
pair_coeff 3 4 lj/cut 0.00 2.934 14.0


group freeze type 4
100 atoms in group freeze
fix startend freeze setforce 0.0 0.0 0.0



################
# 3.  Simulation Settings
###############

neighbor        2.0 bin
neigh_modify    every 1 delay 0 check yes



# Define some variables
variable Lx          equal xhi-xlo   # Ang
variable Ly          equal yhi-ylo   # Ang
variable Lz          equal zhi-zlo   # Ang

variable dz          equal ${Lz}/30  # Ang
variable dz          equal 182.100820204/30  

variable zzlo        equal zlo  # Ang
variable zzhi        equal zhi  # Ang
variable vol         equal ${Lx}*${Ly}*${Lz}  # Ang^3
variable vol         equal 20*${Ly}*${Lz}  
variable vol         equal 20*20*${Lz}  
variable vol         equal 20*20*182.100820204  
variable TEMP        equal 300.00 # K
variable TThi        equal 320.00 # K
variable TTlo        equal 280.00 # K
variable dt          equal 0.00025 # ps

timestep     ${dt}
timestep     0.00025

variable zlo1      equal -26.0
variable zlo2      equal -11.0
variable zhi1      equal 135.0
variable zhi2      equal 150.0

# heat layers

region          hot  block  INF INF INF INF ${zlo1} ${zlo2}
region          hot  block  INF INF INF INF -26 ${zlo2}
region          hot  block  INF INF INF INF -26 -11
region          cold block INF INF INF INF ${zhi1} ${zhi2}
region          cold block INF INF INF INF 135 ${zhi2}
region          cold block INF INF INF INF 135 150
compute         Thot all temp/region hot
compute         Tcold all temp/region cold


# Second Equilibration
fix             1 all nve
fix             hot all langevin ${TThi} ${TThi}  0.005 59804  tally yes
fix             hot all langevin 320 ${TThi}  0.005 59804  tally yes
fix             hot all langevin 320 320  0.005 59804  tally yes
fix             cold all langevin ${TTlo} ${TTlo} 0.005 287859 tally yes
fix             cold all langevin 280 ${TTlo} 0.005 287859 tally yes
fix             cold all langevin 280 280 0.005 287859 tally yes
fix_modify      hot temp Thot
fix_modify      cold temp Tcold

variable        tdiff equal c_Thot-c_Tcold
thermo_style    custom step c_Thot c_Tcold f_hot f_cold v_tdiff
thermo            4000
run             800000
WARNING: Using a manybody potential with bonds/angles/dihedrals and special_bond exclusions (../pair.cpp:218)
Unused restart file peratom fix info:
  fix style: STORE, fix ID: layers_COMPUTE_STORE
Neighbor list info ...
  update every 1 steps, delay 0 steps, check yes
  max neighbors/atom: 2000, page size: 100000
  master list distance cutoff = 16
  ghost atom cutoff = 16
  binsize = 8, bins = 3 3 23
  4 neighbor lists, perpetual/occasional/extra = 4 0 0
  (1) pair lj/cut, perpetual, skip from (4)
      attributes: half, newton on
      pair build: skip
      stencil: none
      bin: none
  (2) pair morse, perpetual, skip from (4)
      attributes: half, newton on
      pair build: skip
      stencil: none
      bin: none
  (3) pair eam, perpetual, skip from (4)
      attributes: half, newton on
      pair build: skip
      stencil: none
      bin: none
  (4) neighbor class addition, perpetual
      attributes: half, newton on
      pair build: half/bin/newton
      stencil: half/bin/3d/newton
      bin: standard
Per MPI rank memory allocation (min/avg/max) = 10.93 | 11.62 | 12.31 Mbytes
Step c_Thot c_Tcold f_hot f_cold v_tdiff 
33601000     315.1623     287.8982           -0           -0    27.264104 
33604000    340.55252    265.88939  -0.36284892   0.78358162    74.663127 
33608000    335.36279    251.88541    0.3054283    2.0991148    83.477379 
33612000    324.83827    278.44244   0.19465426   0.62713385    46.395827 
33616000    317.59582    276.94485     1.381984   0.24457522    40.650975 
33620000    306.47141    293.16722    1.5991942  0.043926818    13.304188 
33624000    325.68032    286.71996   0.80218435  -0.26850458    38.960361 
33628000      330.992    297.08512   -0.2077316  -0.98267632    33.906882 
33632000    333.44604    285.75155  -0.22438214  -0.79796152    47.694488 
33636000    343.14953    284.18957   0.26566473  -0.71017574    58.959966 
33640000    328.34176    266.29803  -0.90905931   0.18933286    62.043725 
33644000    325.79259    278.50865  -0.41672631  -0.47635636    47.283941 
33648000    342.27328    282.32265   -1.1465404   -1.1910983    59.950626 
33652000    325.43955    277.49924  -0.77020338  -0.90989593    47.940301 
33656000    305.89414    279.73168   0.97682847   -1.0999153    26.162458 
33660000    317.18931    294.09699    0.8047359   -2.5574408    23.092312 
33664000     326.5928    284.20407   -1.2053051  -0.80478532    42.388736 
33668000    315.21759    285.33447  -0.11890506  -0.96355302    29.883121 
33672000    326.35724    296.05577   -0.6616659  -0.35971864    30.301468 
33676000     321.1389    294.12963  -0.51604499   0.11148272     27.00927 
33680000    309.59948    286.19276  -0.44756536  -0.25225052    23.406722 
33684000    305.93283    292.18041  -0.30823268  0.089269396     13.75242 
33688000    325.65961    275.34928   -1.8979791   0.70154315    50.310332 
33692000    303.17607    280.94083 0.0072654838   0.13781883     22.23524 
33696000    306.28765    281.55117   -0.4420011   -0.6813156     24.73648 
33700000    295.98907    282.95375   -0.7651745  0.093311207    13.035322 
33704000    311.81644     269.5748   -2.2615227  -0.36136374    42.241648 
33708000    337.84731    287.92083   -1.8895391  -0.74672657    49.926476 
33712000    322.94171    251.44175   -1.8501098    1.1471434    71.499958 
33716000    333.34949    279.00894   -4.0135581  -0.19792466    54.340542 
33720000    294.15663    267.95857  -0.63053027    0.3692387    26.198064 
33724000     291.6243    280.61554   -1.6636193   0.22772213    11.008756 
33728000    301.74063    285.46182   -1.3889991  -0.16263453    16.278809 
33732000    312.71119     271.6433   -1.7823962   0.54672139    41.067884 
33736000    303.08151    278.99437   -1.2373397   0.45235372    24.087141 
33740000    306.43853    291.24808   -1.3390106  -0.55256741    15.190449 
33744000    338.07312    293.69125   -3.4788346  -0.39054917    44.381876 
33748000    344.52033    281.26527   -3.6402203  -0.10036096    63.255052 
33752000    304.77798    274.23861  -0.50399409   0.60320108    30.539366 
33756000    306.68368    281.90642   -1.7553541  -0.79608745     24.77726 
33760000    320.74172    296.09351     -1.26556   -1.3099732    24.648209 
33764000    328.08608    284.77558   -2.3646475   0.24457266      43.3105 
33768000    321.56927    276.55081   -2.4664458   0.28783723    45.018465 
33772000    349.35193    280.79936   -3.6122185  -0.93012613    68.552571 
33776000    305.44022    276.35233   -0.5437755  -0.95907022    29.087894 
33780000     319.0458    265.63287    -1.182312   0.31457352    53.412923 
33784000    317.58979    281.53637  -0.93006816  -0.46062457    36.053427 
33788000    324.61992    262.33198  -0.87885808   0.44070898    62.287937 
33792000    315.15845    288.55438   -1.4340542  -0.21843842    26.604074 
33796000    338.41009     278.6765   -3.0494578   0.92393934    59.733592 
33800000    312.91295    280.60157   -2.3323551  -0.41191307    32.311383 
33804000    293.66915    267.52031  0.047963977    0.8601793    26.148843 
33808000    321.11428    297.81552   -1.1805253  -0.48930387    23.298766 
33812000    303.40569    269.73977  -0.50034012    1.1963903    33.665918 
33816000    308.81169    291.93773  -0.18936329  -0.29140455    16.873961 
33820000    299.86227    296.76996   0.26893953   -1.0215084    3.0923165 
33824000    343.41156    265.77466   -2.4836196    1.2946644    77.636899 
33828000    309.69416    278.17055  -0.28173088   0.93340958    31.523611 
33832000    345.56443    265.91324   -2.2695584    1.6386492    79.651185 
33836000    319.80878    264.06899    -1.619373   0.72465084    55.739784 
33840000    315.67883     298.4606   -0.9638651  -0.10960939    17.218235 
33844000    304.63247    284.59444    1.0179931   0.76019614     20.03803 
33848000    329.12299    271.77291    0.0880448    1.2283711    57.350088 
33852000    313.27941    285.31392  -0.75727175   0.61774056    27.965489 
33856000    337.32266    271.50023   -1.4987904    1.2330897    65.822424 
33860000    336.59279    284.27074   -1.5132326   0.29384908    52.322042 
33864000    329.95145    286.49809  -0.61828929  -0.33198262    43.453357 
33868000    315.17867     295.6632   -1.1420592   -0.6762184    19.515469 
33872000    327.49054    268.54624  -0.54536569    1.5811506    58.944295 
33876000    317.48078    301.30621  -0.85930923  -0.83849206    16.174569 
33880000    340.64483    284.98172   -2.9975511 -0.074033445    55.663103 
33884000    303.32042    303.31328  -0.36894215  -0.06259593 0.0071387011 
33888000    318.21555    253.10114  -0.86913631    1.6463341    65.114414 
33892000    336.25198    287.71555   -1.5638477  -0.03588621    48.536424 
33896000    317.45249    256.46716    0.3042554    1.8782366    60.985324 
33900000    323.79691    285.95606   0.52689958  -0.22740557    37.840853 
33904000    293.58907    263.95508    1.3338934   0.72490548    29.633989 
33908000    303.04391    268.95595    1.1026517   0.52821574    34.087956 
33912000    350.99432    272.12253   -1.6943797   0.31186371     78.87179 
33916000    341.13587    273.18843  -0.78772949    1.1766539    67.947439 
33920000    305.00507    264.52769    1.6429389    1.4122206    40.477373 
33924000     302.0564    284.64803    1.4668747 -0.00040707869    17.408362 
33928000    328.96366    270.22197   0.51210056   0.77479349    58.741693 
33932000    347.63478    280.84212  -0.84441148   0.89230995     66.79266 
33936000    342.25497    285.10419 -0.051085735    0.9953611    57.150781 
33940000    312.62428    273.61993  0.013226585    2.1503142    39.004349 
33944000      336.478     274.3228 -0.062169595    2.2263343    62.155196 
33948000    323.01389    275.59623    1.1467931    2.1062938    47.417655 
33952000    298.88843     289.6621   0.77949728     1.433636    9.2263344 
33956000    310.94243    274.94262  -0.33944255    2.2599968    35.999801 
33960000    326.09477    287.59907  0.021847967   0.82396048    38.495693 
33964000    349.72943    277.77742   -1.2261825    1.2080789    71.952018 
33968000    319.55454    306.34315  -0.75388818   -1.0976405    13.211387 
33972000    303.89862    280.73915  0.093575506   0.11607176    23.159474 
33976000    328.17878    296.06147  -0.86437198  -0.59947388    32.117309 
33980000    293.02752    275.66814   0.12956679   0.78821009    17.359385 
33984000    329.26362    289.49265  -0.96671631  -0.69968253    39.770972 
33988000    316.11323    292.93416   -1.3190706    0.1379325    23.179073 
33992000    297.84039    311.10461   0.29089775    -1.061842   -13.264214 
33996000    350.32496    291.91244  -0.86119282   0.19906858    58.412522 
34000000    327.29808    274.95242   -1.5885496    1.4179059    52.345658 
34004000    335.89777    298.41772   -1.5465798  -0.85857623    37.480048 
34008000    329.39271    294.73694   -2.3106789   0.21528203    34.655769 
34012000    329.65496    302.40205   -1.8333565  -0.56360859     27.25291 
34016000    322.76631    302.26196  -0.66507738   0.75308025    20.504346 
34020000    325.29352    291.87302   -1.3902592 -0.094327222      33.4205 
34024000    338.88607    293.94178   -2.7241062  -0.87751044    44.944289 
34028000    308.82429    307.30912  -0.97355789  -0.64021908    1.5151699 
34032000    298.07233    304.99131   0.37465846  -0.75287141   -6.9189848 
34036000    302.04547    287.70918    0.6080892   0.73299724    14.336287 
34040000    309.41876    263.40092   0.46263843   0.56829562    46.017842 
34044000    293.93719     286.9144 -0.0040840773  -0.68809673    7.0227898 
34048000    327.67588    261.46646  -0.49669344    2.5812332    66.209414 
34052000     313.2002    257.21882   0.50649113    1.5785433    55.981382 
34056000    323.08993    271.71899  -0.35678922    1.5857599    51.370942 
34060000    312.38267    284.93666    1.1307892    1.0730546     27.44601 
34064000    336.86372    300.15025  -0.69262139   0.86157427    36.713469 
34068000    314.81084    282.24242   0.37594627    1.4960215    32.568419 
34072000    311.13162    289.70434  -0.17251641    1.1817088    21.427275 
34076000    316.10678    271.62179  -0.19754615    2.0423903     44.48499 
34080000    335.98206     252.0535    -2.336888    2.7460354    83.928564 
34084000    338.05343    279.56146  -0.83957686    2.4734383    58.491969 
34088000    328.76029    280.81165  -0.80689748   0.65460272    47.948648 
34092000    296.14136    249.67102   0.81667711    3.2359432    46.470343 
34096000    318.08734    294.61597   -1.3251529    1.7889671    23.471366 
34100000     336.9543    268.34576  -0.62246178    2.1998358     68.60854 
34104000    331.65785    283.67778  -0.20222365    1.6047384    47.980069 
34108000    349.87752    291.06087   -1.9776509    1.7635174    58.816652 
34112000    335.52722    287.42595   -2.1943633    1.9092349    48.101264 
34116000    327.86047    282.50915  -0.99382012    1.9985171    45.351319 
34120000    322.42101    278.24305   -1.2465483     3.530997    44.177962 
34124000    353.26533    301.64644   -1.2628947    1.1677995    51.618894 
34128000    312.73301    288.86932  -0.21754949    1.5934852    23.863695 
34132000    315.24118    271.20106   0.75841658    2.1448264    44.040118 
34136000    312.05443    289.75541  -0.98337151      2.14759    22.299015 
34140000    339.55246    305.82858   -1.2230926    1.5783802    33.723879 
34144000     322.2365    267.25126   0.24391538    3.1729393    54.985243 
34148000    322.37036    273.10022   -1.1308893    3.5673917    49.270141 
34152000    327.39931    286.74971  -0.92343284    3.0012562    40.649595 
34156000    338.11319    263.73771   -2.2236674    4.2461878    74.375485 
34160000    324.25393    275.40426   -1.7985234    4.0736695    48.849673 
34164000    313.08943     278.3698  -0.82129254    3.4771434    34.719632 
34168000     308.3821    288.45549   0.79921929    2.9034309    19.926612 
34172000    314.64406    274.18408   -2.1000137    3.4547859    40.459974 
34176000    309.89562    274.31666    -1.246651    3.6837803    35.578962 
34180000    298.59961    296.46806   0.13247423    1.7598415    2.1315515 
34184000    338.51637    280.63025   -2.2838968    2.6852592    57.886118 
34188000    338.69496    286.47003   -2.4947551    1.5188153    52.224936 
34192000    327.30568    297.70685   -1.5482446    1.3851409    29.598837 
34196000    313.99029    293.90176  -0.86828131       2.4394     20.08852 
34200000    327.35481     280.7008   -1.3192154    2.3767796    46.654002 
34204000    322.06507    272.99708   -1.7969157    4.0947616    49.067992 
34208000    340.73153    285.44538   -2.0219087     2.590258    55.286148 
34212000    337.65565    294.35934   -1.9151258    2.8360006    43.296316 
34216000    336.57752    294.81198   -1.8060757    2.5770013    41.765534 
34220000    311.02792    283.60571  -0.58081975    3.0553352    27.422208 
34224000    330.72771    285.43637   -1.7319984    2.4517527    45.291347 
34228000    324.35954    295.87176   -1.4156897    2.0589934    28.487785 
34232000    339.25264    288.03424   -2.2194069    1.3454353    51.218399 
34236000    341.70855    271.51286    -2.938344    3.0008835    70.195694 
34240000    315.04894    273.43109   -1.8750817    1.9732468    41.617851 
34244000    318.30208    302.47398   -1.4346087    1.8896822    15.828099 
34248000    322.97333    288.18637   -1.5184096     2.394262    34.786958 
34252000    309.20813    279.82833    -1.051528    2.3631105    29.379797 
34256000    321.31165    294.13411   -1.2205562    2.9920905    27.177539 
34260000    325.61896    260.68618  -0.82975353    3.1572175    64.932782 
34264000     299.1839    272.92114    -1.049337    3.0400422    26.262763 
34268000    324.87499    276.82088   -2.2183963    3.2041887    48.054109 
34272000    321.07743    253.64055   -0.9416944    4.5022938    67.436872 
34276000     317.8018    272.72072  -0.69328981    2.9086377     45.08108 
34280000    310.17856    287.52149  -0.22755742    2.4047842    22.657066 
34284000    322.07615    273.46269   -1.0320382    3.0207534    48.613457 
34288000     340.2933    284.41119   -2.5350631    1.8290232    55.882113 
34292000    317.84436    300.40167   -1.7206883    1.0888326    17.442689 
34296000    321.07745    267.87626  -0.97664247    2.1833174    53.201189 
34300000    314.20016    284.96357   -2.2468107   0.92956191    29.236586 
34304000    335.51147    289.13424   -1.1592128    1.4614926    46.377231 
34308000    305.08425    270.38448   0.10626138    1.6211404    34.699768 
34312000    296.56033    268.56012   0.10293043     1.972586    28.000217 
34316000    317.86397    265.90267   -2.2705131     1.434194    51.961293 
34320000    317.70461    253.18262   -1.9518312    2.0703862    64.521998 
34324000    322.51951    276.15272   -2.8505539   0.74665583    46.366791 
34328000    326.31031    279.75346   -1.7801007    1.1867681    46.556857 
34332000    331.51107    288.37873   -2.8400054    1.7360301    43.132342 
34336000    322.09965    282.64757   -2.6397531   0.83990125    39.452083 
34340000    328.27489    269.46194  -0.97343927     2.610127    58.812949 
34344000    334.81882    267.08662  -0.79759861    2.6905686    67.732205 
34348000    318.54173    274.90555   -1.4935308    2.4618128     43.63618 
34352000    320.32867    277.34123  -0.96003295    1.0510103    42.987436 
34356000    334.35581    280.04308    -3.771042    1.3146762    54.312726 
34360000    344.99176     276.1774   -4.1739378    1.3664676    68.814361 
34364000    319.39601    273.28201   -2.0508437    2.8499137    46.114004 
34368000    321.07762    278.07022   -1.9155058    2.7583803    43.007405 
34372000    334.54919    297.29164   -3.0203908    1.1764285     37.25755 
34376000    318.72729    290.12762   -2.6848546   0.19627223    28.599677 
34380000    315.77531    282.72945   -1.9037073   0.90634815    33.045866 
34384000    337.65074    278.32813   -3.2631454    2.0742916    59.322616 
34388000    325.28222    262.89128   -1.4534367    2.7746209    62.390941 
34392000    323.92921    280.49396   -3.2072027    2.0210365    43.435252 
34396000    308.36637    273.39082   -1.9568283    1.8418057    34.975551 
34400000    301.73675    269.64824   -2.7385557    3.1219672    32.088511 
34401000    317.70704    284.62868   -1.9755773    2.0963677    33.078359 
Loop time of 1052.66 on 4 procs for 800000 steps with 1498 atoms

Performance: 16.416 ns/day, 1.462 hours/ns, 759.980 timesteps/s
99.6% CPU use with 4 MPI tasks x no OpenMP threads

MPI task timing breakdown:
Section |  min time  |  avg time  |  max time  |%varavg| %total
---------------------------------------------------------------
Pair    | 526.11     | 728.04     | 934.54     | 735.1 | 69.16
Bond    | 3.2886     | 5.1119     | 6.8586     |  77.0 |  0.49
Neigh   | 5.6963     | 5.6989     | 5.7004     |   0.1 |  0.54
Comm    | 13.219     | 207.79     | 406.42     |1347.5 | 19.74
Output  | 0.0040445  | 0.012694   | 0.018389   |   4.7 |  0.00
Modify  | 55.644     | 81.292     | 108.44     | 218.4 |  7.72
Other   |            | 24.71      |            |       |  2.35

Nlocal:    374.5 ave 714 max 35 min
Histogram: 2 0 0 0 0 0 0 0 0 2
Nghost:    2378.5 ave 4261 max 496 min
Histogram: 2 0 0 0 0 0 0 0 0 2
Neighs:    13063 ave 25896 max 313 min
Histogram: 2 0 0 0 0 0 0 0 0 2

Total # of neighbors = 52252
Ave neighs/atom = 34.8812
Ave special neighs/atom = 0.518024
Neighbor list builds = 1397
Dangerous builds = 0
unfix 1


# PRODUCTION

fix             1 all nve
fix             hot all langevin ${TThi} ${TThi}  0.005 59804  tally yes
fix             hot all langevin 320 ${TThi}  0.005 59804  tally yes
fix             hot all langevin 320 320  0.005 59804  tally yes
fix             cold all langevin ${TTlo} ${TTlo} 0.005 287859 tally yes
fix             cold all langevin 280 ${TTlo} 0.005 287859 tally yes
fix             cold all langevin 280 280 0.005 287859 tally yes
fix_modify      hot temp Thot
fix_modify      cold temp Tcold

variable        tdiff equal c_Thot-c_Tcold
thermo          4000

dump gigo all atom 4000 dump.cords_xyz.dat
dump_modify gigo scale no
dump vfgigo all custom 4000 dump.velo.dat id vx vy vz fx fy fz

# thermal conductivity calculation
# # reset langevin thermostats to zero energy accumulation
#
compute         ke all ke/atom
variable        temp atom c_ke/1.5/0.00008617333262

fix             ave all ave/time 100 40 4000 v_tdiff ave running
thermo_style    custom step temp c_Thot c_Tcold f_hot f_cold v_tdiff f_ave

#compute         layers all chunk/atom bin/1d z lower 0.05 units reduced
compute         layers all chunk/atom bin/1d z lower ${dz} units box
compute         layers all chunk/atom bin/1d z lower 6.07002734013333 units box
fix             2 all ave/chunk  100 40 4000 layers v_temp file profile.langevin

run             16000000
WARNING: Using a manybody potential with bonds/angles/dihedrals and special_bond exclusions (../pair.cpp:218)
Neighbor list info ...
  update every 1 steps, delay 0 steps, check yes
  max neighbors/atom: 2000, page size: 100000
  master list distance cutoff = 16
  ghost atom cutoff = 16
  binsize = 8, bins = 3 3 23
  4 neighbor lists, perpetual/occasional/extra = 4 0 0
  (1) pair lj/cut, perpetual, skip from (4)
      attributes: half, newton on
      pair build: skip
      stencil: none
      bin: none
  (2) pair morse, perpetual, skip from (4)
      attributes: half, newton on
      pair build: skip
      stencil: none
      bin: none
  (3) pair eam, perpetual, skip from (4)
      attributes: half, newton on
      pair build: skip
      stencil: none
      bin: none
  (4) neighbor class addition, perpetual
      attributes: half, newton on
      pair build: half/bin/newton
      stencil: half/bin/3d/newton
      bin: standard
Per MPI rank memory allocation (min/avg/max) = 12.22 | 12.33 | 12.44 Mbytes
Step Temp c_Thot c_Tcold f_hot f_cold v_tdiff f_ave 
34401000    277.90375    317.70704    284.62868           -0           -0    33.078359            0 
34404000    276.49568    336.22625    259.05086   -1.9313351    1.4911443    77.175395            0 
34408000    281.55755    335.79208    264.75583    -1.722914   0.75162948    71.036256    35.546245 
34412000    282.28035    324.71219      296.391    -1.440216   -1.2214735     28.32119    36.997425 
34416000    275.99139    320.43085    287.18172   -1.6621628   0.78045174    33.249129    38.526675 
34420000    271.46166     304.5768    295.36977  -0.52166887  0.078191862    9.2070277    38.193405 
34424000    283.88053    325.41163    268.87251   -1.7262446   0.25423037    56.539115    39.456066 
34428000    283.14455    330.98856     288.7154   -2.1249363   -1.3007395    42.273161    39.135905 
34432000    278.47102    335.77658    278.02914   -2.5077606  -0.57510485    57.747441    39.504245 
34436000    283.35682    347.79658    269.92959   -2.3887946   0.10469681    77.866985    39.937258 
34440000    273.24543    329.87741    261.27221   -2.9851277    1.0492309    68.605201    39.964373 
34444000     279.1429    325.20685    284.10641   -2.3385113  -0.58255967    41.100443    39.826281 
34448000    282.17731    343.02761    275.55731   -2.3917894  -0.28123154    67.470297    39.946391 
34452000    280.80903    323.30867    273.33338   -1.6362135  -0.33757187    49.975294    39.617611 
34456000    266.67074    306.28295    280.12214  -0.13484667  0.047881398    26.160815    39.532905 
34460000     281.2185    313.11191    273.90079  -0.62374261   -0.9880439     39.21112     39.62111 
34464000     282.2261    322.36671    287.06824    -1.539671  -0.58508768     35.29847    39.303503 
34468000     279.1597    311.26488    286.92815   -1.1286439  -0.18890366    24.336725    39.589053 
34472000    286.93644      326.255     298.9913   -1.7711196   -1.0463128    27.263695    39.464998 
34476000    273.33602    326.26906    266.80614  -0.63797546   0.82426619    59.462917    39.570022 
34480000    277.94895    304.22321    297.73312  -0.50651782  -0.63137078    6.4900874    39.623681 
34484000    277.83903    318.06954    278.58438  -0.38086628   0.87817101    39.485162    39.493951 
34488000    276.25652    334.32611    260.68909   -2.0966944    1.2884076     73.63702    39.582342 
34492000    272.48203    309.94718    278.68537  -0.25248417    1.1887314    31.261808     39.52394 
34496000    270.23052    309.02164    272.04804  -0.17781282   0.36805526    36.973598      39.5459 
34500000    271.75277    311.80336     282.8128  -0.72305521    1.0620502    28.990562    39.587263 
34504000    277.71188    327.07221    271.90421  -0.78855506   0.18925419    55.167994     39.73816 
34508000       275.72    317.90834    292.42164  -0.71253989  -0.87967077    25.486706    39.752512 
34512000    273.50548    304.35072    265.56546   0.17549492  -0.34497028    38.785264    39.634024 
34516000    274.29737    321.71619    284.25564   -2.5181783   0.18853445    37.460558    39.483566 
34520000    273.97373    315.80248     278.1289   -1.4316092  -0.84505458    37.673575    39.612103 
34524000    273.65545    299.67185     265.0118  -0.71116501  -0.64331405    34.660051    39.688877 
34528000    275.91271     307.5993     275.0553  -0.24127472  -0.22065368    32.544002    39.623105 
34532000    278.92857    334.58321    275.01013   -2.5420371 -0.099575069    59.573089    39.667435 
34536000    271.54767    317.57458    280.62874  -0.98431712   0.16047814    36.945836    39.694448 
34540000    271.81984    297.67032    287.93486   0.45531371   0.10874185    9.7354629     39.58351 
34544000    277.76686    337.20729    280.32645   -1.8002357   0.21050223    56.880839    39.655367 
34548000    276.66569    338.88665    266.09984   -2.4669044   0.31380614    72.786816    39.608952 
34552000     278.3614    329.88047    272.41224    -1.538226  0.041875039    57.468233    39.608514 
34556000    270.61367     300.4815    291.14334  -0.39748223  0.054748754    9.3381558    39.710198 
34560000     270.4342    315.71256    268.86478    0.4143068    1.0874372    46.847779    39.745513 
34564000    272.76363    327.55682    296.84333   0.24626798  -0.60595138    30.713486    39.719756 
34568000    276.66012    300.51577    303.43535   0.42718199   -1.4978176   -2.9195875    39.729879 
34572000    278.35074    342.96945    261.25436   -1.5941461  0.027594303    81.715088    39.749951 
34576000    275.79577    308.97019    287.98968   0.29610497  -0.14332324    20.980508    39.718546 
34580000    277.86562    298.22414    287.65589  -0.50122263   0.20576867    10.568256    39.813209 
34584000     274.5915    317.11796    280.12349  -0.46655772   0.49262773    36.994471    39.826268 
34588000    276.89413    311.25891    301.45423  -0.17144834  -0.30870317    9.8046796    39.880669 
34592000    276.32048    336.39406    278.65156  -0.88597286    2.1002544    57.742501    39.745735 
34596000     286.9419    335.45649    297.66077   -2.1250753   0.94687991    37.795721    39.791765 
34600000     272.0861    328.39698    269.22251  -0.53728512   0.92654445    59.174469    39.741332 
34604000    275.69164    308.31309     291.6164   0.30624686   -0.5698361    16.696689    39.682567 
34608000    273.26987    331.19595    278.08912   -2.4230588   0.65410195     53.10683    39.689883 
34612000    275.33095    304.54409    265.72916   -1.2932629    1.4576457     38.81493     39.70337 
34616000    271.03008    321.84218    290.91095   -1.4909547  -0.01689289    30.931232    39.756606 
34620000    273.19341    314.64168    273.20269   -1.0247719   0.91102773    41.438992    39.763517 
34624000    281.28936    326.39846    287.38164   -1.7368547    0.2353659    39.016816    39.790489 
34628000    272.34299    316.23497    269.31147   -1.4384518    2.0208146      46.9235    39.836398 
34632000    270.44142    331.15506    253.54532   -1.4639631    2.4848478    77.609739    39.868451 
34636000    270.20297    312.55338    273.25001 0.0025199414  0.088243958    39.303368    39.862306 
34640000    271.66072    310.06109    286.95635   0.55685073 -0.017681657    23.104744    39.882996 
34644000    269.08556    330.11708    267.41003  -0.48111786   0.69273338    62.707043    39.866726 
34648000     278.9922    334.09175    282.03927   -0.5652022   0.86879002    52.052483    39.904699 
34652000    275.21828    328.05866    290.73704   -1.6052507  -0.10365532    37.321625     39.89569 
34656000    272.25492    314.19763    274.70421  -0.16193489    1.7407317    39.493416     39.89347 
34660000    273.50747    317.33253    275.22813  -0.47413395    1.3954141    42.104393    39.918253 
34664000    279.98897    352.56249    276.12096   -2.0237944   0.89997268    76.441527    39.963187 
34668000    267.96423    311.41297    292.02941   0.35867959    1.5941267    19.383552    39.956609 
34672000    279.86356     341.5155    278.17216   -1.0169317    1.2656914    63.343339    39.952116 
34676000    266.75552    318.05298    275.25002 -0.088693106    1.4727027    42.802954    40.051777 
34680000     269.7369    319.79141    272.03771    -0.671149    1.1031093    47.753701    40.026843 
34684000    279.07202    341.91028    283.89981    -1.558699   0.50864635    58.010477    40.014196 
34688000    282.04026    351.98497     289.5615   -2.3410575   0.69882388    62.423472    40.033375 
34692000     277.4557    330.56199    282.36298   0.49118374    1.8789563    48.199012    40.056756 
34696000    263.47974    302.57881    257.53134  -0.57788826    1.6175055    45.047474    40.088966 
34700000    267.82134    328.04872    269.25067  -0.82749107    1.3444803    58.798045    40.111431 
34704000    265.69529    305.26733    289.26959   0.95433507   0.68567482    15.997743    40.139004 
34708000    268.34998    313.45473    265.57346   0.53591322    1.3119981    47.881268    40.135291 
34712000    272.74101    311.94338    283.30996    1.0907509   0.10800829    28.633425    40.109688 
34716000     271.0392    314.28696    264.94372    1.0357657    1.6810533    49.343235    40.081156 
34720000    274.43981    326.04997    269.61737  -0.49377012   0.49660457      56.4326    40.081868 
34724000    268.55331    312.78611    265.50706   -1.2377129    1.6382146    47.279054    40.154648 
34728000    276.93663     342.5164     280.0538   -1.7513573   0.49831068    62.462599    40.168825 
34732000    277.16323    332.07975    273.27836   -0.7536153   0.44353225    58.801391    40.253404 
34736000    285.72547     328.6221    289.97927  -0.74810984  -0.45489953    38.642827    40.251576 
34740000    282.75232      344.124    269.19573    -1.823084    1.0783592    74.928264    40.272941 
34744000    277.11822    327.16323    283.10744   -1.7666412   0.51199795    44.055791    40.319934 
34748000    280.27465    308.26557    297.66934   0.42175198  -0.48824915    10.596232    40.323416 
34752000    270.65731    311.14265    259.23875  -0.30873058    1.5558309    51.903899    40.353049 
34756000    276.10126    347.14305    261.46835   -1.6141359    1.1849198    85.674703    40.389708 
34760000    286.13467    336.77899    278.48354   -1.4512122    1.1825759    58.295456    40.430143 
34764000    283.80748    331.18573    295.78114   -1.0428826  -0.46446837    35.404588    40.415686 
34768000    275.03124    311.83594    281.19898  -0.96670553  -0.14413202    30.636966     40.38513 
34772000    270.36484    320.03445    262.57877    -1.619276    1.2966455    57.455681    40.373522 
34776000     271.4587    314.75911    260.07387  0.067709783    1.7113197     54.68524    40.373239 
34780000    278.95958    291.71851    294.28067  -0.36455447  -0.35868546   -2.5621624    40.379494 
34784000    272.40646    307.53449    295.19602  -0.71836422  -0.56184779    12.338466     40.36721 
34788000    276.88974    334.37636    273.36657    -2.499701    1.2881141    61.009786    40.372971 
34792000    275.83756    293.57334    296.61409  -0.83598618  -0.36702999   -3.0407454    40.406027 
34796000     275.4116    329.80884    273.62311   -2.0396145   0.83230307    56.185735    40.400381 
34800000    270.90426    310.20098    261.71384   -1.1502857    1.6651809    48.487133    40.395476 
34804000    273.76223    322.99003    274.90355   -2.6468893    1.2290843    48.086479    40.381085 
34808000    282.37197    341.32218    304.70064   -2.9952927  -0.75156366    36.621546    40.369187 
34812000    278.06828    313.94787    277.06238   -1.2103336  -0.53904498    36.885497    40.375243 
34816000     277.2094    319.71795    266.77197   -0.8185231    1.7033048    52.945976    40.383165 
34820000    282.06314    322.63259    281.89121   -1.1656823  -0.47714983    40.741381    40.355847 
34824000    284.14988    335.66158    290.63636   -2.4862519  -0.53697722    45.025212    40.361058 
34828000    279.83695    313.19194    301.35121   -1.2231583   -1.1455501     11.84073    40.329057 
34832000    276.06139    309.08498    296.89496   -1.2753861   0.62568869    12.190025    40.261077 
34836000    275.28566    305.98192    276.12239  -0.37300299    1.0495401    29.859531    40.269192 
34840000    280.39445    334.71706    283.78292   -1.3942463 -0.062146707    50.934142    40.262521 
34844000    271.07468     306.1275     283.7924   -1.7166583  -0.43489384    22.335103    40.236132 
34848000    285.27765    333.97564    287.39099   -1.5224659   0.77571998     46.58465    40.244664 
34852000    274.61845    327.46831    251.89118   -2.2434921   0.71317747    75.577133      40.2572 
34856000    278.79901    343.94546    259.03839   -2.3727328    1.2767945    84.907069    40.254036 
34860000    278.41071    307.75287    292.68223  -0.45987164  -0.50015661    15.070639    40.259873 
34864000    280.99567    302.50737    285.59763   -1.0949951   0.48709323     16.90974    40.241274 
34868000    270.01304    314.21656    285.95658  -0.20648829    1.2295095    28.259981    40.211587 
34872000    276.24395    308.31987    295.97352   -1.1096611  -0.35177276    12.346357    40.236288 
34876000    277.10299    291.10009    312.07465   0.84493622   -0.8893247   -20.974562    40.232226 
34880000    276.68762    352.14915    258.15439    -2.611852    1.9374065    93.994756    40.179374 
34884000    276.55158    324.54932    294.13933   -1.6034461  0.078848065    30.409996     40.17533 
34888000    280.26437    327.54669    293.61119   -1.4828882   -0.6745912    33.935499    40.139852 
34892000    271.25274    301.65773    273.46833  -0.31897884    1.9575232    28.189396     40.14706 
34896000    272.29916    336.98142    268.69363   -2.2511154    2.2896758     68.28779    40.167096 
34900000    280.76276    341.79873    285.96423   -1.8906313 -0.085550443    55.834504    40.165784 
34904000    275.29678    313.97961    286.58283   -1.0654479  -0.70679397    27.396779    40.148473 
34908000    279.32483    319.93143    286.92844   -1.2224493  0.026595312    33.002984     40.10025 
34912000    273.22958     312.8093    277.05875  -0.65147687   0.84708898    35.750553    40.104807 
34916000    270.90068     312.5653     274.5409  -0.38140164    1.7786126    38.024394    40.119331 
34920000    287.93134    340.99796    268.26131   -1.9662588    2.9036926    72.736643    40.144548 
34924000    274.89321    307.00316    269.48814   -1.0969226    0.8299163    37.515028    40.136741 
34928000    284.35536    335.42502    275.40665   -3.3634194   0.82755545    60.018371    40.123254 
34932000    279.91705    314.24644    286.53753   -1.4707058   0.45996022    27.708912    40.104175 
34936000    277.17035    314.19731     276.0057   -2.6887608 -0.042845585    38.191611     40.09317 
34940000    278.50051    312.64936     290.9479   -2.5517242    0.3597983    21.701455    40.087871 
34944000     273.5888    333.82061    265.66725   -3.7993445     1.924785    68.153358    40.122327 
34948000    275.03986    327.38782    271.00972   -3.7188081    1.3142471    56.378101    40.117982 
34952000    282.48873    336.19186    280.94646   -2.9652385    2.4456748    55.245403    40.118593 
34956000    278.69128    325.48089      274.374   -2.5581987     1.735705    51.106885    40.077854 
34960000    279.92058    325.39012    283.75894   -2.8174486    2.1569985    41.631176    40.049034 
34964000    275.99468    311.88948     273.7016   -1.1825713    1.6377507    38.187878    40.030654 
34968000    281.50939    304.25595    294.45396   -1.1633521   0.38570934    9.8019917    40.080791 
34972000    276.67417    343.47279    263.81394   -4.4406632    1.5855773    79.658856    40.075928 
34976000    271.47374    292.51394    275.69978   -1.3438742 0.0091803666    16.814165    40.054041 
34980000    283.94319    325.47117    289.73301   -3.4830826  -0.45442328    35.738159    40.075871 
34984000    277.80237    318.39016    280.48725   -3.5860652     1.606724    37.902914    40.039864 
34988000    279.51041    309.77809    285.60339   -2.7734941   -0.4846849    24.174705    40.044285 
34992000    278.44487    294.31116     301.7194   -2.1245639   -1.1688476   -7.4082384    40.025666 
34996000    289.65403     322.7364    291.88021   -3.8041839  -0.39352286    30.856186    40.050293 
35000000    280.88091    320.94489    268.81157    -3.410408   0.62612748    52.133311    40.084136 
35004000    278.48319    317.62865    275.67945    -3.764561    1.6426477    41.949194    40.097694 
35008000    278.70133    328.73068    296.53083   -4.6708895   0.75196213    32.199846    40.057969 
35012000    279.37585    313.64713    292.60711   -2.7302975    1.7674284    21.040018    40.085195 
35016000    273.99276    314.94425    291.87531    -3.458659     1.453147    23.068943    40.077817 
35020000    279.81309    322.85666    280.02664   -4.2466937    2.7398362    42.830012    40.087035 
35024000    277.62349    321.84709    284.95248   -4.3339226    2.7228087     36.89461     40.07121 
35028000    272.84649    303.13295    275.48479   -3.2648354    2.4963594    27.648157    40.073552 
35032000    281.29993    301.72219    290.40043   -3.4506163    1.5226266    11.321765    40.058825 
35036000    279.91682    342.37801    275.82081   -4.2668541    2.0111351    66.557204    40.055605 
35040000    270.04462    317.28708    263.05418   -4.8082735     2.788659    54.232904     40.05491 
35044000    278.13128    321.75193    276.34021   -4.0453044    2.2698902    45.411721    40.022868 
35048000    275.11769    329.27045    269.40458    -4.180737    1.9918522    59.865872    40.019338 
35052000    287.94649    330.45255    295.02796    -4.690927   0.54464906    35.424594    40.045244 
35056000    283.98688    327.75403    299.13127   -2.8511122     2.135327    28.622763    40.087986 
35060000    276.04174    323.35937      275.087   -1.8686754     2.067815    48.272364    40.086206 
35064000    272.94812    312.70801    272.64448   -4.0069605    3.5240046    40.063529    40.095389 
35068000    272.02638    311.47043    267.79717   -2.8085774    3.5864983    43.673262    40.108849 
35072000    265.05959    313.01143     269.2859   -3.7006752     2.415141    43.725527    40.135541 
35076000    275.95577    313.42789    287.70518   -3.8700424    2.5550409    25.722716    40.133408 
35080000    276.93655    310.33883    299.80786   -2.4558254    2.1412642    10.530978    40.152899 
35084000    278.40172     323.2309    280.46971   -2.6557899    2.0751436     42.76119    40.136296 
35088000    273.21153    312.23632    271.03762   -1.3354183    2.8046799    41.198697    40.134983 
35092000    276.99993    330.01383    289.93124   -1.8315957    2.3409351    40.082593    40.132316 
35096000     273.9233    321.66803    276.71818   -2.5793404    3.6734763    44.949849    40.109127 
35100000    268.31596    297.15916    290.68663   -1.9689929    3.2902834    6.4725301    40.141006 
35104000    272.51761    319.13012    285.63426   -1.9488042    3.6454717    33.495863    40.121616 
35108000    278.66954    351.27031     281.1445   -4.3781869    2.3861932    70.125806     40.11346 
35112000    270.54132    322.34088    263.55523   -1.9073259    2.8193276     58.78565    40.131267 
35116000    273.03472    319.20394    285.14831   -2.8403707    1.9266036    34.055629    40.131003 
35120000    278.00815    338.84374    257.99906   -3.4316733     3.091606    80.844681    40.117308 
35124000    284.57029      339.365     277.9641   -4.0431159    2.2406105    61.400901    40.122634 
35128000    275.76041    324.15886    282.72826   -4.7774639       2.3385      41.4306    40.127573 
35132000    280.88611    326.91161    297.20287   -3.9647537    1.8809839    29.708741    40.119144 
35136000    273.69247    310.09437    269.93899   -3.2346939    3.0028074    40.155377    40.136042 
35140000    275.80423    314.60938    262.55889   -4.0496099    4.4152401    52.050486    40.103185 
35144000    281.47902    339.15996    286.30211   -4.4667069     3.508138    52.857857     40.11701 
35148000    279.14812    319.88946    279.17181   -3.8241122    4.1623222    40.717643    40.116346 
35152000    273.85781    316.83077    292.32255   -3.0199818    2.2772367    24.508228    40.091002 
35156000    277.08873    331.85489    279.31571   -5.2038724    2.4615871    52.539183    40.075913 
35160000    276.47423    340.87557    269.26393   -3.7532305    2.4650124    71.611649    40.086178 
35164000    273.81963    312.22853     271.6284   -2.7450412    2.6920319     40.60013    40.117877 
35168000    275.11826    326.64247    286.32246   -2.8997651     2.044217    40.320012    40.111788 
35172000    280.10941    331.27516     286.3317   -3.4126085    2.8316686     44.94346    40.121421 
35176000    277.26817     301.5887    301.71758   -2.6165254    1.4608602   -0.1288725    40.110514 
35180000    272.24686    316.54938     291.0657   -3.1196541    2.7778707    25.483681    40.115323 
35184000    267.89824    315.50498    265.85139   -2.3753863    3.6938848    49.653593     40.10169 
35188000    271.52107    325.38393    294.98989   -1.4610144    3.9160615    30.394031    40.095559 
35192000    273.55538    316.64649    281.99223   -1.6200776    3.3026597    34.654261    40.091077 
35196000    272.64312    335.31204    273.17952   -3.4260585    3.9110433    62.132525    40.109704 
35200000    268.07776    328.66151    254.58998   -3.3500733    5.4409815     74.07153    40.117549 
35204000    270.21487    308.83602    283.89174   -1.5906634    2.6687059    24.944279    40.111661 
35208000    272.47973    312.14493    294.34022   -1.6276108    2.0965555    17.804715    40.099161 
35212000    268.98463    315.75921    273.19798   -2.0400173    3.3646321    42.561227    40.112898 
35216000    273.97067    320.56471      283.292   -3.4565572    3.5403501    37.272709    40.107148 
35220000    272.90692    342.30704    283.78306   -2.9098485    3.2026429    58.523983    40.108204 
35224000    277.13659    326.15141    300.03786   -2.7175597     3.392876    26.113547    40.113553 
35228000    264.95243    329.35225    251.40675     -2.50962    5.0417438    77.945497    40.119319 
35232000    271.30206    323.20635    286.10457   -2.7277998    4.4225496    37.101776    40.086269 
35236000    264.19921     297.5118    287.27086    -2.791549    3.2565793     10.24094    40.095204 
35240000    267.91516    340.69064    263.15331   -3.2387321    4.7999674    77.537329    40.093159 
35244000     259.6187    308.40715    250.45483   -1.6162745     4.621268    57.952319    40.102265 
35248000    274.21534    328.04301    305.15707   -3.0630671    2.5449634    22.885937    40.092497 
35252000    273.86613    348.71739    271.20402   -2.9975485    4.1439508    77.513372    40.094643 
35256000    267.75435    309.98876    290.46178   -2.4709457    3.4254876    19.526976    40.084885 
35260000     280.5082    329.14859    302.42729   -3.5961288    2.3151984    26.721303     40.09693 
35264000    261.81702    306.93199    280.45336   -1.5911784     3.938738    26.478635    40.118301 
35268000    269.72683    299.43932     301.4554  -0.89594385    2.5964104   -2.0160798    40.112044 
35272000    265.94924    326.52809    270.50847   -2.4599198    4.3934054    56.019623    40.110671 
35276000    266.53598    309.23897    254.88252   -1.2072635    4.4647696    54.356442    40.104926 
35280000    267.38553     312.7932    268.52182   -2.7106513     4.927683    44.271379    40.107032 
35284000    262.73371    279.38503    291.41888  -0.30500249    3.6255706   -12.033844    40.085466 
35288000    282.07322    342.35992     297.8931   -2.5174695    2.7120647    44.466822    40.086291 
35292000    269.53518    325.30176    274.38163   -2.5726463     5.311154    50.920132    40.092107 
35296000    259.74533    280.25864    275.45276  -0.62156041    4.0554976    4.8058828    40.092807 
35300000    266.87327    319.81535    258.23035   -1.8590947    5.2118168    61.584998     40.09188 
35304000    271.15115    315.40208    259.42666   -3.0487519    4.9080684    55.975416    40.121196 
35308000    272.79137    333.43056    262.52711   -1.6397303    4.6897759    70.903449    40.139255 
35312000    274.44305    324.07196    287.66218   -2.3007183    3.6601948    36.409775     40.14286 
35316000    270.03298    330.14315    285.86815   -2.7973485    4.4605379       44.275    40.152828 
35320000    273.01175    330.84425    288.69463   -1.7569456    3.3799903    42.149613     40.15393 
35324000     261.3144    301.82944    265.82669   -1.8862153     4.503847    36.002754    40.156134 
35328000    257.14574    303.32359    267.65649   -1.1328327    4.9186243    35.667098    40.157228 
35332000     265.9063    307.40133     281.0935   -2.5364174    4.8612922    26.307837    40.145816 
35336000    263.73145     292.1471    270.66926   -1.8926782    5.4314327    21.477839     40.18369 
35340000    276.96071     344.4989    292.51144   -3.4124044    4.5690984    51.987463    40.181984 
35344000    270.41296    319.58977     276.9868   -2.1169734    5.3108159    42.602968     40.16494 
35348000    275.50777    329.96754    293.96734   -2.7116067    3.7711476    36.000196    40.179033 
35352000    264.24923    324.01754    271.58719   -3.1736999    4.7743191    52.430355    40.180624 
35356000    266.15681    337.16739      269.144   -3.0900163    5.3653906    68.023391    40.185558 
35360000    270.09157     339.4652    270.48896   -3.7409649    5.3815532    68.976238    40.182799 
35364000    274.85885    322.40143     282.4335   -3.6997813      4.78018    39.967924    40.194276 
35368000    270.82222    325.01235    281.24436    -2.989876    5.3550438    43.767992    40.181104 
35372000    270.95869    311.12196    280.44908   -2.2694304     3.775328    30.672882    40.174491 
35376000    268.41209    333.14995    278.71911    -3.023635    3.0463378     54.43084    40.163384 
35380000    274.63382     320.1468    287.62542   -3.5228457    3.9680125    32.521371    40.150939 
35384000    267.04164    309.82249    281.21465   -2.5767128    4.7036985     28.60784    40.145349 
35388000      275.859    333.27094    289.22743   -3.1210843    2.7017207    44.043512    40.140813 
35392000    273.93118    319.80737    284.56208   -2.3873546    3.2225012    35.245291    40.129648 
35396000    270.46023    309.31538    276.48493   -2.5334563    3.6010125    32.830453    40.117866 
35400000    267.62709    301.58501    272.81586   -1.1296737    4.1909501    28.769149    40.122465 
35404000    277.47749    346.25265    288.90572   -4.5948619    3.2324315    57.346929    40.120716 
35408000    273.07834    326.52792    280.03158   -3.6424799    3.8368838     46.49634    40.126099 
35412000    274.06257    324.37125    284.67071   -3.0737092    2.8376649    39.700542    40.107323 
35416000    271.58713    301.27929    291.26495   -2.0876087    3.6029931    10.014343    40.112622 
35420000     275.3542    340.89261    264.13304   -6.3171911    4.5109118     76.75957    40.098582 
35424000    278.25501    327.39497    274.33156   -4.3128221    4.4581233    53.063404    40.096299 
35428000    282.29973    351.07682    278.15196   -4.1175654    3.5018668    72.924861    40.077618 
35432000    281.06826    339.71304    294.20983   -3.6398013    3.1116918    45.503215      40.0876 
35436000    282.32685    337.43808    290.28901   -4.3807191    2.9347984    47.149065    40.079205 
35440000    272.20849    322.51792    278.17881   -3.8545351     3.962244     44.33911    40.088707 
35444000    272.45953    328.96184    285.27372   -4.0548934    3.6902227    43.688127    40.071684 
35448000    274.10362    323.44395    266.78677   -2.9961553    3.6368012    56.657187    40.075612 
35452000    277.57437    326.46762    276.46045   -3.8573188    2.9738147    50.007171    40.071583 
35456000    275.93328    344.88883    259.57309   -4.8825107    3.8575807    85.315733    40.064685 
35460000    275.79666    327.11114    288.85541   -3.3719869    3.3139764    38.255732    40.057288 
35464000    279.66586    314.38356     293.2425   -2.6263758    3.1805111    21.141059    40.048928 
35468000    279.30189    330.57908    287.29232   -3.2766772    3.5269699    43.286753    40.037826 
35472000    275.86416    330.28516    267.00596    -3.437028    3.5518056    63.279202    40.041435 
35476000    277.92615    320.48269    279.56768    -3.368016    3.7374826     40.91501    40.038384 
35480000    279.42218    331.75582    283.86278   -3.3150266    3.1246058    47.893045     40.02813 
35484000    265.07571    309.50308    272.91915   -3.5052504    4.3753314    36.583934    40.040196 
35488000    272.52008    326.81617     278.2836   -3.6339162    3.2500545    48.532567    40.034407 
35492000    278.26172     349.0019     277.5182   -4.3341061     3.376772    71.483704    40.038369 
35496000    286.96305    340.57943    317.83123   -3.4269517    1.6051482    22.748205    40.040763 
35500000    271.34219    319.89795     285.3767   -2.9753278    3.4000104    34.521252    40.028528 
35504000    278.31424    332.21816    271.49867   -3.6839559    3.3237894    60.719489    40.021718 
35508000    276.38138    327.15774    283.26011   -3.1646097     3.278256    43.897621    40.016987 
35512000    272.25248    308.55474    301.17933   -2.3092559    2.4416217    7.3754079    40.023815 
35516000    266.17816    309.25457    248.11531   -2.6669657    5.0630283    61.139261    40.027849 
35520000    271.97108    333.79756     255.4268   -3.6172746    3.6855228    78.370756    40.021582 
35524000    274.42834    337.29587    256.69673   -4.3625037    5.0326749    80.599138    40.029988 
35528000    273.84959    335.85257    267.57832   -3.2053704    4.0546695    68.274258    40.029268 
35532000    273.09288    315.04472    280.74051   -2.4834846    4.0499813    34.304201    40.045489 
35536000    274.48795     334.3986    280.78579   -2.5078643    3.5509409    53.612803    40.058118 
35540000    270.65021    304.14503    270.53033   -1.9398423    3.9441752    33.614696    40.068096 
35544000    279.13056    328.67783    297.61873   -2.4738987    3.7069059    31.059107     40.06548 
35548000    263.98985    303.23204    295.29071   -1.9636669    2.4976967    7.9413278    40.060548 
35552000    268.23308    312.41374    273.42519   -2.4754497    3.5887763    38.988551    40.053475 
35556000    276.42701    348.96547    268.73872   -5.4324998     4.473566    80.226747    40.043073 
35560000    273.69332    325.27134    281.19592   -4.1188799    4.7566656    44.075428    40.044593 
35564000    277.17298    333.80957    285.44041   -3.6109399    4.2852945    48.369164    40.042076 
35568000     273.4409    329.90972    268.96724   -4.0972357    5.0017505    60.942481    40.047193 
35572000     275.5046    326.51552    286.94769   -5.1829895    3.5121893    39.567824    40.044969 
35576000    268.60606    311.77685    274.07474    -4.256845    4.9671163    37.702104    40.044757 
35580000    271.23003    290.38295    287.66528    -2.958839    4.9684013     2.717668    40.032581 
35584000    263.70491      293.243    279.98782   -3.0778504    5.4298316    13.255174    40.026943 
35588000    278.60297    316.31566    304.15231   -3.2573627    3.6082274    12.163357    40.028511 
35592000    269.36146    328.53062    287.65094    -3.523508    4.6597541    40.879684    40.016732 
35596000    283.65789    342.74619    311.93557   -4.2646086    2.5796995    30.810618    40.029576 
35600000    272.12654    301.40959    289.78862     -2.52104    3.7436305    11.620976    40.025833 
35604000    267.35432    314.46153    274.78314   -3.9250284    5.5815246    39.678397    40.030802 
35608000    279.26782    333.01377    275.74458   -4.0780896    5.9187028    57.269188    40.031517 
35612000    265.15874    313.57208    265.18764   -1.9300931    5.5301797    48.384441    40.043128 
35616000    271.24059    309.58864    286.45702   -2.4982259    5.1084074     23.13162    40.044504 
35620000    268.52693    305.60108    281.15647   -2.0051504    5.5141943    24.444612    40.038171 
35624000    268.99964    315.57372    283.84379    -4.417312    4.8951004    31.729934    40.050543 
35628000    274.62387    320.96068    300.77395   -3.5835282    4.1161753    20.186733    40.044006 
35632000     274.5778    334.23868    287.94956   -4.2634305    4.2778762    46.289124    40.050142 
35636000    271.49992    294.14177    293.48006   -2.7620048    4.7215016   0.66170918    40.052101 
35640000    270.51983    345.30226    266.29256   -5.5082411    5.5222331      79.0097    40.043437 
35644000    270.01496    320.17043    274.12371   -3.7039906    5.4486231    46.046722    40.056014 
35648000    275.00418    324.16145    290.84713   -4.3322292    3.2230323     33.31432    40.048061 
35652000    277.22733    348.65947    287.70425   -5.1508639    3.9987224    60.955225    40.053813 
35656000    270.38333    320.93125    260.26511   -4.5295713     5.291018    60.666137    40.067777 
35660000    268.94556    295.25691    272.62709   -2.0561155    4.2775564    22.629821    40.078507 
35664000    268.12566    320.57025    271.61836   -4.8222308    5.2844667    48.951886    40.061573 
35668000    269.63396    299.48362    287.81927   -3.6243392     4.113908    11.664352     40.05817 
35672000    272.31414    341.56556    271.09533   -5.4152203    6.1797565    70.470236     40.05507 
35676000    271.84643    316.33583    284.62211   -4.1874271    4.7634145    31.713713    40.053468 
35680000    270.92007    317.90562    277.78985   -4.6622651    5.3060003    40.115776    40.060497 
35684000    264.30466    302.93253    286.74403   -3.0816571    3.5085307    16.188505    40.046613 
35688000    277.75799    321.18447    276.79199   -4.0033945    4.8530481    44.392479    40.044059 
35692000    278.96403    332.16348    288.32222   -5.0203106    5.0383938    43.841266    40.048401 
35696000    275.32335    312.08841    275.74863   -2.9354653    5.2422676    36.339781    40.049901 
35700000    280.10189     319.7276    274.58401   -4.7962011     4.853191    45.143596    40.048203 
35704000    269.62249    315.57398    288.94187    -3.450281     4.277483    26.632118     40.04749 
35708000    274.07951    317.95477    298.66622   -4.0076368    3.9003196    19.288548    40.034908 
35712000    267.78631    301.78246    276.86686   -2.8604058    6.1424513    24.915601    40.025253 
35716000    276.61299    337.23262     274.9058    -5.014329    6.0900888    62.326827    40.028864 
35720000    273.51617    314.60059     279.4934   -4.1650354    5.5551969    35.107191      40.0246 
35724000    277.60287    318.34228    284.65109      -3.5802    4.1995095    33.691183    40.013046 
35728000    277.31539    334.98806    277.67316   -4.9306687    4.5553566    57.314902    40.026429 
35732000    273.28954    312.77303    284.37489    -3.980539    4.8315457    28.398139    40.035902 
35736000    275.44859    313.19961    291.15477   -3.9576099    5.4488438    22.044846    40.044528 
35740000    272.50772    315.60925    285.68335    -4.348059    5.4464365    29.925899    40.034984 
35744000    281.51555    317.52692    296.02579   -5.2682868    4.0629044     21.50113    40.048031 
35748000    268.79627    329.27602    257.92677   -4.7678812    5.4675515    71.349247    40.041807 
35752000    271.92335    303.44443    271.90669   -4.1901507    4.0682711    31.537743    40.037495 
35756000    270.87602     317.0101    281.09358   -4.0550764    3.9645746    35.916524    40.042101 
35760000    271.73559    315.97732     276.4832   -4.6950912        4.729    39.494116    40.023154 
35764000    278.39957    320.55455     278.7139   -4.2899464    4.0258861    41.840653    40.038475 
35768000     268.5518    307.99325    275.36671   -4.4534449    4.1697198    32.626534    40.049584 
35772000    267.58997    315.27947    260.41248     -4.26839     4.391311    54.866993    40.059287 
35776000    279.37996     311.4444    308.38019   -4.4748509    2.7364361     3.064205    40.059661 
35780000    273.06566    311.27821    267.38641   -5.3744928      4.17874    43.891801    40.054222 
35784000    274.18342    323.58434    270.31907   -4.2657719    4.5747255    53.265272    40.068023 
35788000    276.43834    327.63008    274.96427   -5.7330659    4.4555115    52.665815    40.069271 
35792000    270.91939    319.78747      282.781   -5.2575333    4.9921708    37.006474    40.073465 
35796000    282.16458     341.3099    287.42869   -4.8935319    4.7531315    53.881213    40.077334 
35800000    271.70236    337.19103    259.06046   -5.6954464    5.1113073    78.130576    40.093111 
35804000    283.10337    336.53524    300.85675   -5.8826706    3.5968691    35.678491    40.092096 
35808000    271.10822    306.18448    290.75685   -4.6745718    4.3118127    15.427635    40.089182 
35812000    271.23139    311.82748    273.24554   -4.4568524    5.7133283     38.58194    40.078292 
35816000    278.06551     336.1647    286.73079   -5.3292393    4.3029317    49.433908    40.077199 
35820000    260.77597    298.22778     265.6198   -3.2822063    5.6335358    32.607978    40.079419 
35824000    262.96125     316.3321    254.87081   -4.8033234    5.4302668    61.461298    40.083023 
35828000    276.17605     325.6563    274.13694   -4.9042296    4.6354343    51.519365    40.073571 
35832000    283.68564    340.14166    286.94648   -4.8065833    4.3344217     53.19518     40.07112 
35836000     280.7391    321.24075     287.5148   -3.7315853    3.7513932    33.725949    40.075077 
35840000    269.22658    315.80642    295.61804   -4.2278928    3.6751621    20.188374     40.07458 
35844000     280.3104    328.93838    299.78447   -3.8140192     3.240978    29.153913    40.090644 
35848000    273.78723    325.36016    256.62757   -4.9843994    4.2304198    68.732591    40.089623 
35852000    280.47516    313.39632    286.83908   -4.6410904    4.5609344    26.557242    40.106888 
35856000    271.82884    323.42126    276.47005   -4.4286608     4.297575    46.951218     40.11069 
35860000    288.11973    355.24312    297.35425   -6.0783488    3.4608559    57.888868    40.115612 
35864000    273.50576    332.20722     272.4748   -6.1624556    4.7109349    59.732415    40.118298 
35868000    281.88872    333.86775    281.00744   -6.1788016     5.376431    52.860312    40.127295 
35872000    272.25053     319.8551    279.95686   -4.8582306    5.2355359    39.898241    40.129919 
35876000    277.03935    303.54252    297.71606   -3.5261787    5.0206613    5.8264523    40.137337 
35880000    271.33716    314.89573    273.98305   -4.2362873    5.4419344    40.912678    40.134415 
35884000    265.47473    303.59676    266.53734   -4.4599419    4.9537953    37.059417    40.124645 
35888000    276.88039    334.90103    281.42971   -4.7198246    4.2993787    53.471324    40.121475 
35892000    266.50387    328.58429    252.03319   -6.0317004    6.5837939    76.551106    40.126599 
35896000    281.07462      342.853     279.3003   -6.1311047    4.9984371      63.5527    40.124872 
35900000    276.76588    327.66168    300.08453   -5.2172783      4.28372    27.577147    40.126097 
35904000    277.23671    308.10895    280.49656    -4.409621    4.8238208    27.612397    40.124753 
35908000    272.29873      320.097    277.73174   -4.5251065    4.7060145    42.365254    40.127128 
35912000     277.3337    321.78381    286.39719   -4.9355093    4.4937872    35.386619    40.130091 
35916000    270.31831    305.13212    264.22336   -5.2432008    6.2192521    40.908755    40.116516 
35920000    290.60145    339.36392    297.09298   -6.9356983    5.1956066    42.270941    40.117083 
35924000    276.35028    320.08478    279.80614   -4.9179874    5.4071303    40.278636    40.113635 
35928000    280.57231    325.03063    273.90232   -6.4189833    5.3887347    51.128314    40.128129 
35932000    285.54997    338.02992    290.26812    -7.265114    3.6586762    47.761798    40.129564 
35936000    270.78309    320.07788    275.60305   -6.1916838    5.4122856    44.474833    40.126932 
35940000     272.1484    321.10342    261.32757   -6.4026041    6.7269745    59.775854    40.133177 
35944000    271.27108    292.72234    288.99193   -5.6918548    5.4984234    3.7304064    40.130177 
35948000    275.01047    318.90489    282.86044    -5.257506    5.4418031    36.044458    40.128463 
35952000    267.99602    309.66042    271.05243   -6.3722616    5.2557599     38.60799    40.115165 
35956000    285.85284    338.05554      296.428   -5.9593758    4.1839463    41.627544    40.112781 
35960000     277.3265    319.91843    269.72452   -5.6191886    5.8315666    50.193909    40.116417 
35964000    261.34514    309.51023      251.509   -5.5159915    7.7445743    58.001234    40.118523 
35968000    281.38711    343.98118    285.39075   -7.0946179     6.203531    58.590429    40.113969 
35972000    280.61941    351.97793    292.33631   -6.8034648    5.0944249    59.641623    40.127449 
35976000    261.94298    308.27661    255.16076   -4.9991699     7.451785    53.115848     40.13245 
35980000    268.22719     334.2643     271.4404   -7.0941698    6.4187501    62.823899    40.133595 
35984000    278.23378    330.42835    269.00155   -6.7253667    7.2640245    61.426801    40.133012 
35988000    273.70179    339.92343    262.82969   -8.0462966      6.97534    77.093736     40.13584 
35992000    275.82205    323.54805    281.69686   -6.3711564    5.9812779    41.851182     40.13662 
35996000    284.57986    361.03449    277.60606   -8.1595974    6.6467352    83.428429    40.142566 
36000000    281.83019    355.63789    294.14376   -8.7936882     5.493688    61.494125    40.136815 
36004000    278.20164    327.11715    292.08805   -5.7616121    4.6465723    35.029098    40.131268 
36008000    268.30478    321.40114    263.35976    -5.938868    6.5914707    58.041376    40.126707 
36012000    269.68723     338.6997    256.07165    -6.300468    6.0457466    82.628048    40.132245 
36016000    264.59156    318.85614    267.69383   -5.4169434    5.6810322    51.162309    40.139695 
36020000    264.89731    316.02809    269.89954   -5.6276584    6.6287764    46.128554    40.148282 
36024000    270.95757    311.27568     275.7345   -5.1348128    7.6501711    35.541181    40.141625 
36028000    269.87567    309.53199    304.08063   -4.3000995    5.5521296    5.4513605    40.139562 
36032000    279.14454    334.82171    284.86451   -5.4767825    6.7112086    49.957196    40.141204 
36036000     273.1174    322.31609    286.74052   -4.5201413    5.8112497    35.575567    40.143195 
36040000    261.92585    323.23376    264.21965   -5.2829244     7.231363    59.014116    40.153358 
36044000    276.54781    336.09491    279.66658   -5.8183247    6.0267344    56.428333    40.174935 
36048000    282.19541     323.6442    309.64112   -5.1860888    4.5809453    14.003082    40.185375 
36052000     273.2795    329.41626     274.1619   -5.4342323    6.5474858    55.254367    40.183707 
36056000    276.93607    321.22621    279.24468   -5.6347976    5.5303195    41.981534    40.185986 
36060000    264.62652    301.37417    287.13646   -4.0607539    6.0726721    14.237702    40.172581 
36064000    266.24661    310.38968    281.21396   -4.4694912    6.7521633     29.17572    40.175032 
36068000    268.66552    327.35014     277.5376   -5.9511371    6.1400347    49.812542    40.186507 
36072000     261.9174    304.10556     283.6323   -3.4195042    6.5604224    20.473254    40.193196 
36076000    269.08508    314.06059    276.72534   -4.9809264    7.2677519    37.335254    40.191093 
36080000    270.37672    319.34234    293.86105   -5.0322803     5.544703    25.481295    40.191324 
36084000      281.455    325.31763    286.57268   -6.1858813    5.6235344    38.744958    40.187973 
36088000    277.29823    333.44623    284.91751   -7.2764617    5.8377262    48.528722    40.181654 
36092000      272.808    300.42513    281.13068   -5.0147878    6.5434566    19.294445    40.183771 
36096000    278.57567    328.72792    294.67989   -5.8763146    5.9568236    34.048027    40.184111 
36100000    271.98258    314.37963    305.31084   -4.3119517    5.2586987    9.0687893    40.189769 
36104000    275.71533    316.79483    284.47135    -4.672394    6.3100787    32.323481    40.190665 
36108000    272.01221     312.7671    286.13316   -4.4982937    6.8300586    26.633935    40.188671 
36112000    272.76177     312.1223    286.28422    -4.894199    6.6992149    25.838078    40.188364 
36116000    272.91237    322.83606     270.3315    -4.690206    6.5189383    52.504564    40.198429 
36120000    263.06495    306.99277    270.22107   -4.1684594    6.8783141    36.771703    40.194299 
36124000    272.26493    300.30064     300.9566   -3.2803947     5.563441  -0.65596031    40.193201 
36128000    261.72485    293.58614    273.75873   -1.8341713    6.0658531    19.827411    40.185028 
36132000    268.56552    315.19273    279.14019   -4.6757957    5.7080636    36.052543    40.180123 
36136000     263.1666    327.18352    255.21184   -6.1738834    6.8527113    71.971672    40.182636 
36140000    267.63816    302.76258    289.36752   -3.7933418    6.0822628    13.395064    40.177208 
36144000    270.92778    323.58909    276.57882   -4.7838268    7.3392446    47.010271    40.193123 
36148000    270.91913    300.24187    291.16766   -3.0759918    5.4368449    9.0742065      40.1823 
36152000    276.78471    320.94773    289.79095   -6.0845715    5.7394772    31.156773    40.195258 
36156000    269.39377    314.48885    270.00298   -4.7981501     6.704239    44.485873    40.186618 
36160000    260.84218    312.36957    265.42653   -4.5181834    7.1871224    46.943041    40.181108 
36164000    271.24332    315.46221    292.09432   -4.5785185    7.0739042    23.367888    40.183005 
36168000    275.47779    301.88497    310.20941   -4.9007307    6.3404959   -8.3244456    40.174081 
36172000    269.79445    320.94094    285.25878   -3.8227337    5.9756053    35.682164    40.173672 
36176000     269.9808     325.5228    275.72497   -4.0910739    6.6576539    49.797832    40.171681 
36180000     263.0064    320.44159    273.13334   -5.5136725    6.1618247    47.308252    40.161803 
36184000    263.25795    304.00906    273.48085   -3.2674617    6.5022179    30.528202    40.165686 
36188000    271.43087    320.74715    280.62002     -3.65622     6.001099    40.127135    40.156813 
36192000    271.44214    310.16401    299.26749   -3.7445708    5.1518821    10.896518    40.161775 
36196000    263.19907     306.9868    267.73683   -2.2436016    6.8996608    39.249975    40.162196 
36200000    276.45817     318.6818    287.37243   -3.7102472    4.6852618    31.309366    40.159707 
36204000    273.11006    327.62662    291.95191   -5.1031144    4.9161324    35.674705    40.149789 
36208000    263.96221    305.40484    258.30214   -3.4293314    7.6003002    47.102694    40.137433 
36212000    273.85603    333.36698    286.96363   -4.3256059    7.2291005    46.403355    40.150281 
36216000    265.72302     307.0128    283.32096   -3.0696538     7.409705    23.691839    40.141087 
36220000    267.59737    324.44684    273.87304   -4.1151132     7.089761    50.573793    40.135102 
36224000    276.45894     343.4421    290.37675   -5.7190263    6.3045058    53.065349    40.139753 
36228000    269.63214    306.43968    270.61128   -4.1686179    6.6316735    35.828401     40.14246 
36232000    271.04914    325.93936    273.49442   -4.8816566    4.9850855    52.444942    40.146658 
36236000    276.50479    342.63193    278.66963   -5.1665233    5.8410989    63.962306    40.144567 
36240000    273.56846    324.81577    264.38824    -4.494744    6.0242318    60.427536    40.156227 
36244000    277.99088    345.98757    273.85969   -5.0971557    6.3000208    72.127881    40.161855 
36248000    270.36685    317.05232    278.01212   -3.1010174    6.9198623    39.040194    40.161893 
36252000    271.54664    335.82687    285.71639   -4.1563347    6.1099435    50.110479    40.162469 
36256000     266.2742    308.31842    274.55509    -1.941891    6.3531883    33.763328    40.167067 
36260000    277.15924    335.13469    284.51133   -4.1320396    5.0357082    50.623366    40.162673 
36264000    268.57723    323.80613    265.22457    -2.916066    7.2228641    58.581563    40.153532 
36268000    267.56451    329.14133    281.45412   -4.6281822    6.5077894    47.687204    40.159071 
36272000    265.34339    319.15233    273.83241   -3.0123722     7.219822    45.319919      40.1625 
36276000    272.12661    314.45341    296.99351   -3.8992957    5.7580271      17.4599     40.16467 
36280000    274.71706    325.17172    290.52171   -4.2902112    5.9778018    34.650018    40.169775 
36284000    264.08482    321.43811    286.07854   -4.7844582    7.0673048    35.359568    40.170572 
36288000    270.02075    321.31632     285.8368   -3.8007595    6.8477766    35.479522    40.165642 
36292000    256.70131    298.99646     270.6494   -3.6025866    6.9430655    28.347058    40.165962 
36296000     276.9421     327.8961    294.51724    -4.296548    7.2218994    33.378866    40.172495 
36300000    258.64928    311.54855    266.94914   -2.7116458    7.6362458    44.599403    40.167481 
36304000    259.49138    319.94071     267.7159     -4.96104    7.2998694    52.224815    40.172093 
36308000     271.5514     333.2419    290.64386   -5.7416377    7.1400605    42.598048    40.175821 
36312000     277.1975    332.57775    289.61479   -5.0841872    5.8201426    42.962957    40.182104 
36316000    264.06084    311.41539    285.28983    -4.183938    5.8447403    26.125563    40.182716 
36320000    263.40946    297.64009    268.09521   -3.5280401    6.2682533    29.544877    40.177458 
36324000    264.93478    323.39221    279.62935   -4.6017666    6.1604212    43.762863     40.17647 
36328000    272.73449    319.77189     277.5027   -4.4284766    6.2369302    42.269197    40.168112 
36332000    266.74635    309.69072    269.39332   -4.0942797    6.9106342    40.297395    40.158564 
36336000    270.17123    338.27501      262.361    -6.079774     7.405368    75.914015    40.150042 
36340000    268.41342    306.58402    278.90897   -5.2978082    5.9163203    27.675051    40.151623 
36344000    266.75647    309.37418    273.57431   -4.4326134    6.4624755    35.799869    40.144637 
36348000    265.57325    312.45077    274.71166   -4.3883804    6.2494771    37.739115    40.152518 
36352000    264.58248      316.142    271.01667   -5.2678395    7.6873152    45.125333    40.148407 
36356000    267.56724    308.32671    272.89877   -4.9425702    7.9772722     35.42794    40.156084 
36360000    266.69942    315.52518    282.63281   -5.5126251    7.8536819    32.892365    40.152751 
36364000    273.23035    338.21883    267.38652   -6.1332157    7.2690894    70.832306    40.153763 
36368000    268.85957    311.41741    279.73206   -3.8776115    6.2199543    31.685349    40.163623 
36372000    270.49696    318.61887    271.35259   -4.2621019    6.7711602    47.266273    40.172716 
36376000    265.66424    319.00143    266.19164   -4.7922682    7.1779538    52.809792    40.178139 
36380000     274.4112    307.51011    293.82308   -3.5395494    6.0996922    13.687027    40.186982 
36384000    274.30167    326.35188    287.65286    -4.240855    6.2463891    38.699013    40.186256 
36388000    278.11135    348.48544    285.74154   -4.7817897    6.0567465    62.743894    40.190612 
36392000    267.71506    304.44646    297.08567   -3.1146093    6.1610616    7.3607873    40.188997 
36396000    257.13957    312.94802    251.98376    -3.390727    9.0857679    60.964262    40.188224 
36400000    270.89625    327.82764    306.36429   -3.0929105    6.2979541    21.463348    40.187198 
36404000    269.81759    319.37294    303.11593   -2.7177221    6.1892932    16.257015    40.190357 
36408000     264.8567    312.50427    294.40125   -2.2885539    5.7063238    18.103015    40.188303 
36412000    272.54764    333.65161    276.38928   -3.1666378    7.0684354    57.262323    40.190684 
36416000    261.80826    309.28096    273.16776   -2.0710868    8.5088777    36.113206    40.198734 
36420000    262.34735    312.54701    269.82625    -2.492061    8.3330238    42.720762    40.201332 
36424000     269.5936    321.13956    272.97266   -3.5524394    7.3890907    48.166906    40.205935 
36428000    259.54031    318.36735    250.52014   -2.9080765    7.1536859    67.847209    40.210768 
36432000    266.78304    339.61792    292.50847   -4.1373729    7.0360018    47.109448     40.20938 
36436000    271.95541    332.52954    286.87823   -3.7757787    5.8977133    45.651308    40.215939 
36440000    265.74128    314.98059    292.52377   -4.1940669    7.2516837     22.45682    40.208814 
36444000    264.69057    310.00575    257.85964    -4.244069    8.0244139    52.146111     40.20341 
36448000    268.25792    318.07558    277.36574   -4.9274569    7.7445554    40.709842    40.198981 
36452000    279.29892     329.9914    290.30337   -5.0296383    6.5508726    39.688032    40.198126 
36456000    268.77341    332.22907    275.21285   -6.2037211     6.779479    57.016215    40.207271 
36460000    268.25703    317.83071    271.67812   -4.4608629    6.6104849    46.152585    40.208606 
36464000    263.63235    332.25859    259.04515   -4.9948072    7.5134234     73.21343    40.212805 
36468000     277.3964    332.83231    301.25405    -5.387799    5.4795697    31.578266     40.21472 
36472000    274.96704    320.78151     288.1729   -4.7022838    5.3891983    32.608608    40.207783 
36476000    262.20655    313.63188    272.10429   -3.2340874    5.9607227    41.527593    40.211328 
36480000    264.51544    287.78669    279.33005   -2.8118682    6.3741131    8.4566365    40.216821 
36484000    274.70466    336.29189    267.47627    -5.375231    7.7397595    68.815629    40.214738 
36488000    273.79343    329.43428    286.95018   -4.9198533     6.073568    42.484102    40.216759 
36492000    271.07254    318.09817    278.28235   -4.9487875    5.6594231    39.815818    40.215294 
36496000    267.62848    294.77562    274.30965   -4.0408761    5.9527265    20.465976    40.211716 
36500000    264.59998    301.62788     289.3459   -5.0672355    7.4169724    12.281984    40.207922 
36504000    266.28728     304.0391    272.96002   -3.9427094    7.4482025    31.079081    40.221391 
36508000    266.02719    297.80815    276.62818   -4.0341163    6.9339759    21.179972    40.217483 
36512000    270.00046    338.10036     271.3493   -4.4606863     7.332632    66.751058    40.218617 
36516000    274.06222    328.48789    284.32715   -4.6692085    6.4949956    44.160736    40.210428 
36520000    263.89558    328.40411     263.4311   -4.7043346    7.3475775     64.97301    40.219216 
36524000    276.71196    325.44353    278.08057   -5.5088323    7.4066308    47.362956    40.227335 
36528000      270.083    320.90325    294.95374   -4.9726204    5.6831985    25.949511    40.223176 
36532000    275.58795     317.7869    314.96703   -5.0096466    5.6317119    2.8198708    40.218458 
36536000    267.86881    312.80745    249.78595   -5.1273046    8.3197054    63.021495    40.218941 
36540000    269.08938    316.84339    278.98295   -4.1435594    6.9375926    37.860448    40.219435 
36544000    273.07901    349.74217    269.99836   -6.0407104    7.4649428    79.743814    40.224421 
36548000    256.47291    294.89811    282.33922   -4.5619557    6.6110994    12.558897    40.214436 
36552000    269.64719    310.91995    284.18952   -5.9190241    5.8182282    26.730432     40.20822 
36556000    266.08067    317.30507    266.76463   -4.7419398    7.6474136    50.540441    40.205194 
36560000    275.82756    323.81058    285.68668   -5.6089928    6.3336493    38.123898    40.209596 
36564000    272.25941    325.34511    284.03491   -6.0651582    6.7790006    41.310191    40.202882 
36568000    265.51079    299.26745    282.26881   -5.7380139    6.4929247    16.998637    40.190621 
36572000    268.67215    301.02447    307.13084   -4.6350469    5.2301621   -6.1063714    40.184017 
36576000    273.13719      324.394    289.04395   -6.3658462    6.9213598    35.350051    40.177702 
36580000    270.93366     329.0713    292.17502   -5.8788884    6.1937475    36.896279    40.186406 
36584000    272.89462    337.50306     274.3707    -7.632477     8.337566    63.132356    40.182468 
36588000    274.35012    327.47318    295.45273    -6.796988    7.5227983    32.020446    40.180621 
36592000    272.08641    330.47445    265.77835   -7.0842421    8.7959303    64.696109    40.177683 
36596000    277.78306    319.37714    315.99323   -7.0761386    5.5165024    3.3839125    40.170091 
36600000    268.46559    306.71104    271.57786    -6.349036    7.1643196    35.133181    40.171785 
36604000    270.51183    315.04971    306.34577   -6.3962977     6.556929    8.7039406    40.166332 
36608000    276.51244    331.38785    280.28025   -7.0541935    7.7382407    51.107595    40.165913 
36612000    257.06209    293.41019    263.09173   -5.4559235     9.363531    30.318459    40.160482 
36616000    266.69668    310.32956    277.18281   -5.5994053    8.1225776    33.146754     40.15913 
36620000    270.41898    321.41578    271.23038   -6.6205165    7.9705828    50.185393    40.150269 
36624000    268.87299    310.93245    278.25202    -6.557729    8.3838268    32.680428     40.14766 
36628000    271.69016    319.73332    270.77315   -6.6627008    8.0636057    48.960166    40.149477 
36632000    274.25979    306.94077    303.11376   -6.1546996    6.2112402    3.8270168      40.1558 
36636000    267.13789    314.76981    285.29587   -6.0071061    6.9832305     29.47394    40.151165 
36640000    272.40534    328.74254    285.07964   -7.5540538    8.1116548    43.662901    40.152728 
36644000    276.28978    333.82302    288.90093   -6.8888619    8.0404028    44.922089    40.154244 
36648000    272.91748     327.9464    265.70847   -6.7982684    9.0644203    62.237928    40.162626 
36652000    267.00065    304.42055    274.16485   -5.4433437    8.3476699    30.255699    40.173559 
36656000    264.77929    305.01613    275.69516    -4.908754    7.2570703    29.320966     40.17423 
36660000    269.22767    322.13057    287.77939   -6.2650681    7.4777258     34.35117      40.1684 
36664000    263.79299    329.47885    264.10215   -5.6070998    7.8588431    65.376701    40.173963 
36668000     258.6372    310.52855    262.89252   -5.2620053     9.364744    47.636029    40.170492 
36672000    272.45386    315.52738    299.91732   -5.0525346    6.1685281    15.610056    40.170143 
36676000    269.76684    316.08834    299.40848   -4.9988489    6.3458787    16.679859    40.173354 
36680000      267.029    316.69787    281.41712   -5.2817966    6.9574436    35.280744    40.174939 
36684000    268.67482    318.80447     265.1531   -6.0968079    7.7105478    53.651372      40.1751 
36688000    275.51403    305.93256    303.49514   -5.2663168    6.1753685    2.4374173    40.169564 
36692000    267.00525    307.54765     280.8698   -5.5224759    6.9563387     26.67786    40.169892 
36696000     262.2979    294.27832    263.68452   -5.1269299    8.2610403    30.593797    40.169675 
36700000    280.55773    344.66102    275.18088   -7.3583498    8.0640919    69.480142    40.174153 
36704000    267.94239    333.33917    280.20025   -7.7021456    7.6164542     53.13892    40.174072 
36708000    271.94593    335.59156    295.49178   -6.3713594    6.5003377    40.099787    40.180213 
36712000    265.96617    329.35908    275.04406   -6.1911226    9.4050166     54.31502    40.186487 
36716000    261.88669    317.53382    284.08377   -5.0048338    7.7352903    33.450052    40.191673 
36720000    268.95121    336.67527    287.80841   -6.0444476     7.826823    48.866863    40.194546 
36724000      258.906     289.7148    272.94207   -3.2624117    9.0859477    16.772736    40.192291 
36728000    257.74652    301.57059     278.2917   -4.4339497    8.2915258    23.278897    40.195088 
36732000    265.61804    313.36641    277.11477    -5.446762    8.7230137    36.251643    40.189899 
36736000    267.95138    301.58511    287.66803   -4.7260303    7.9609352    13.917077    40.191694 
36740000    270.85378    351.62097    275.75802    -7.943138    8.5438955    75.862956    40.191678 
36744000    265.66914    321.98996    269.22693   -6.0313485    8.6635843    52.763032    40.190781 
36748000    275.95779    348.18731    285.21429    -8.461116      7.80084    62.973019    40.195407 
36752000    270.01458    314.61892    264.25185   -5.5018266    8.7731391    50.367077    40.198157 
36756000     277.2227    346.85094    270.38175    -8.034765    8.4135667    76.469185    40.202695 
36760000    279.52979     337.9998      289.775   -7.3627546    7.6308728    48.224792    40.199233 
36764000    266.71877    311.68373    279.01741   -5.0478918    8.9055649    32.666319     40.20713 
36768000    269.96567    332.31109     278.7759   -6.5152131    9.2069623    53.535191    40.206996 
36772000    269.97858    323.71672    270.52572   -5.9343845    9.3573557    53.190999    40.197887 
36776000    277.97333    330.92556    287.42829   -6.4602097    7.6184961    43.497273    40.200921 
36780000    260.02962    313.10537     269.2686   -5.0419786    8.9039928    43.836773    40.201811 
36784000     260.7621     318.1109    264.85881   -5.4432562    8.9327582    53.252092    40.203463 
36788000    262.72538    305.80803    268.18432   -3.5921637    8.9077077    37.623705    40.197019 
36792000    262.45817    316.22836    268.16989   -3.7846662     8.825676     48.05847    40.192925 
36796000    260.69097    298.98406    268.95156   -3.6974142    8.9038429    30.032496    40.190864 
36800000      266.182     340.5192    259.63447   -4.7977154    8.3791555    80.884736    40.191825 
36804000    267.00345    320.46074    293.99143   -3.2546132    6.6485564    26.469309    40.197242 
36808000    269.02964    325.62589    275.15312   -5.3375306    8.4563468    50.472777    40.196082 
36812000    271.55235    331.01756    282.52058   -5.2607943      7.98133     48.49698    40.198495 
36816000    282.58862    344.78531    292.56228   -7.8867459    6.6916812    52.223035    40.190789 
36820000    262.90316    289.59685    274.67652   -4.5914024    6.7470227    14.920328    40.194468 
36824000    280.46937    330.43287    295.10936   -8.1352738    6.4965415    35.323511    40.191632 
36828000    275.43975     342.7224    283.93206   -6.9483952    7.0811644    58.790345    40.187235 
36832000    266.77482    323.22834    270.91238   -5.4070643    5.7565784    52.315964    40.192563 
36836000     263.7816    315.17905    284.22448   -5.4583325    6.6741126    30.954578    40.189896 
36840000    274.14847    314.44085    288.37369   -5.8132322    6.4689933    26.067168    40.192224 
36844000    271.60429    315.10163    273.11648   -5.5450703    6.4281308    41.985148    40.195451 
36848000    273.09728    337.24171    267.00712   -8.2049638    7.2005824    70.234589    40.194126 
36852000     267.2976    341.35272     268.3584   -7.0684408    7.4399248    72.994325    40.187429 
36856000     272.6451    326.34202    295.72382   -7.2530683    6.3255055    30.618201    40.188701 
36860000    271.55138    312.14544    294.52387   -6.7749626    6.7520719    17.621571    40.182179 
36864000    278.49776    314.86668     310.0926   -5.6087231    4.7940686    4.7740818    40.187133 
36868000    277.04092    330.47689    285.21455   -7.0331832    6.9097733    45.262339    40.185346 
36872000     269.3194    313.96255    274.72329   -5.9296381    6.8916726    39.239258    40.181326 
36876000    267.24526    322.72934    276.98582   -6.2219297    6.9154192    45.743518     40.18395 
36880000     279.9612    322.44629    294.87645   -5.7004159    5.3808773     27.56984    40.185586 
36884000    278.50045    335.34511    290.94396   -6.2686111    5.9382862    44.401158    40.180784 
36888000    269.44978    314.72957    291.27408   -5.5352221    6.0698829    23.455491    40.184078 
36892000    264.52911     297.7192    277.51924   -4.2899612     6.535057    20.199964    40.180942 
36896000     273.5391    305.78493    292.32105   -3.6892801    6.3388739    13.463881    40.176259 
36900000     270.4998    329.79305    288.97431    -6.402396    6.7357168    40.818736    40.170249 
36904000    270.08765    304.28394    297.68124   -5.6638656    6.0964224    6.6027015    40.167946 
36908000    274.68351    320.39286    268.12711   -6.0028979    7.3491981    52.265758    40.168331 
36912000    278.55469    317.25307    290.81446   -6.3012864    5.9628593    26.438608    40.169946 
36916000    266.76877    302.82918      278.305   -4.9130129    6.7675867    24.524188    40.168697 
36920000    270.96034    326.63268    275.89008   -7.0134847    6.1950572    50.742601    40.166635 
36924000    272.51661    332.04073    280.57638   -6.9062844    6.3998552    51.464349    40.166787 
36928000    267.76368    316.81084    272.16014   -5.6759248    6.6836828    44.650704    40.154621 
36932000    282.08558    371.92331    290.11789   -8.4646473    5.9767407    81.805425    40.153659 
36936000    266.85111    308.99801    286.54424   -5.5419547    5.7009498     22.45377    40.152278 
36940000    269.96562    307.43437    282.89788   -6.0498398    5.7626999    24.536493    40.162314 
36944000    280.74914    340.48342    286.12992   -8.4459107    6.2584129    54.353499    40.155599 
36948000    276.47364    327.00886    311.35545   -8.0691207     6.247113    15.653411    40.158969 
36952000    277.96885    322.70178    280.55412   -7.0214737    7.1237774    42.147662    40.153156 
36956000    274.54521    326.64644     286.2215   -8.7214641    4.8488063    40.424939    40.155221 
36960000    274.57486    303.84794    278.24051   -6.5761506    6.2259346    25.607434    40.154767 
36964000    274.72267    303.70987    290.19367   -5.3312371    5.1348599    13.516204    40.141415 
36968000    278.47869    332.54409    286.79457   -7.0221898    6.5766842    45.749524    40.140485 
36972000    280.09943    349.67081    283.51431    -6.152884    6.1851337    66.156497    40.134584 
36976000    272.58913     323.1151    275.35642   -6.1962054     6.278865    47.758689    40.131532 
36980000    272.93052    329.94051    280.06222   -5.7693035    6.0739541    49.878291    40.125067 
36984000     273.5091    327.66946    267.93671   -7.0729038     6.793193    59.732755    40.128168 
36988000    271.01401    308.98936    286.79068   -7.1126276    6.0468099    22.198686    40.137223 
36992000    272.04698    321.94592    278.61596   -6.3118356    6.6624692    43.329964    40.134079 
36996000    267.88657    321.62564    269.01999    -5.493371    6.3286892    52.605646    40.131056 
37000000    268.53168    324.96209    291.48266   -5.7633694    5.8394115    33.479429    40.122566 
37004000    274.44897    333.65775    277.32793   -5.2410841    6.9472064    56.329814    40.131697 
37008000    275.76669    340.88491    280.38802   -6.8370535    6.6070121     60.49689    40.134692 
37012000    263.29312    303.68096    253.78599   -5.3058188    7.4413095    49.894966    40.133603 
37016000    261.58538    288.51558    280.51938   -4.4718134    7.0467487    7.9961994    40.130531 
37020000    267.96033    321.28163    268.25005    -6.163278    7.2685394    53.031578    40.129009 
37024000    274.70707    335.72737    273.35868   -6.9697509    7.2826881    62.368686    40.130582 
37028000    270.06852    302.82769    279.47914   -4.0508027    6.6901931    23.348552     40.12951 
37032000    278.41614    332.24955    291.87227    -4.963285    5.5593548    40.377275    40.137363 
37036000    263.35264    296.92381    273.98004   -4.0796158    7.1285412     22.94377    40.137909 
37040000    274.33722    323.61831    276.09211   -5.6234915     7.163939    47.526198    40.145214 
37044000     267.2555    320.22778    266.64529   -4.9851947    7.9486837    53.582483    40.142827 
37048000     272.4167    326.14455     275.6029   -5.5618526    7.7406897    50.541652    40.138762 
37052000    270.36132    310.40585    281.81164   -5.4162819    7.1728726    28.594206    40.146392 
37056000    268.01746    323.76975    273.45701   -5.9988095    7.2347675    50.312743    40.146597 
37060000    270.03196    311.58027     296.0796   -4.8500737    6.5352554    15.500675    40.147673 
37064000    275.86021     335.5682    294.85081   -5.9457371    7.2456043    40.717391    40.145613 
37068000    276.90459    357.10027     284.0289   -7.6701489     7.421388    73.071365    40.155103 
37072000    269.38627     320.3214    272.96722   -5.3222966    8.3982918    47.354177    40.157031 
37076000    279.56177    335.24561    290.03719   -7.5378753    7.1864048    45.208425    40.153292 
37080000     269.8397    295.19267    307.37842   -4.1013131    6.8290419   -12.185745    40.155862 
37084000    268.93087    308.56715    291.51262   -4.3503015    7.1453781    17.054522    40.158381 
37088000    272.12556    335.55447    277.22116   -5.3494896     7.766079     58.33331      40.1589 
37092000    271.20878     321.8174    287.83514   -4.8617383    5.7792949    33.982262    40.154724 
37096000    260.83969    307.54707    263.54299   -4.6267901    7.6558336    44.004086    40.155174 
37100000    269.83205    312.01603    288.05203   -5.1339511    7.4341045    23.963996    40.151042 
37104000    271.65638    311.37945     301.8405   -4.9256397    6.4026521    9.5389525    40.144896 
37108000    277.09628    329.88914    281.34476   -7.0091175    6.9727069    48.544388    40.145068 
37112000    266.44756    298.05564    284.41512   -5.0335939    8.7748858    13.640519    40.149016 
37116000    267.29596     306.0535    287.41385   -3.8810082     7.583646    18.639652    40.146924 
37120000    278.79005    349.07281    291.99672   -6.5555671    6.9916767    57.076084    40.147127 
37124000    271.30996    315.79037    270.78703   -5.3249027    8.0114406    45.003332    40.142162 
37128000    279.82771    333.50988    291.55002   -5.6731014    5.5591649    41.959861    40.142258 
37132000    270.82935    327.87205    273.95543   -5.2728646    7.1943134    53.916622    40.141314 
37136000    277.95043      342.069    285.89585   -5.6660538    6.7937503    56.173151    40.134761 
37140000    268.72436    305.07924    294.44776   -3.3317656    5.9827208    10.631478    40.125095 
37144000    271.48587    346.97863    268.00863   -5.8767248    7.0272347    78.969993    40.133299 
37148000    261.21582    288.39086    266.95786   -3.7630316    6.7481118    21.433002    40.136206 
37152000    274.69852    322.73995    295.12734   -4.6523888    7.5311227    27.612614    40.139404 
37156000    264.25175    337.00685    258.63909   -6.2093963    7.3681939     78.36776    40.137405 
37160000    270.44462    360.52101     262.4548   -6.1412759    7.7711396    98.066207     40.14177 
37164000    270.59281    320.12129    295.58954   -4.6045103    6.2273545     24.53175    40.147879 
37168000    272.67881    303.98135    306.76162   -4.3394542    6.8487516   -2.7802713    40.148075 
37172000    265.95113    324.77798    284.05846   -5.5241675    7.3299142    40.719522    40.148639 
37176000    273.91733    325.48796    286.74366   -5.4287524    6.3240314    38.744301    40.149683 
37180000    270.71063    339.12168    269.89034   -7.2865287    6.9013971    69.231345    40.141764 
37184000    273.91863    330.20199    285.20694   -8.3057718    6.9926132    44.995055    40.139924 
37188000    273.59122    311.40621    273.04216   -6.2789402     7.074192    38.364045    40.138939 
37192000    265.72999    318.70703    276.47633   -5.9585482    7.7212645    42.230699    40.142197 
37196000    270.51535    348.33579    263.80923   -7.5363122    7.9752148    84.526559    40.139516 
37200000    275.27254    348.03802    269.02291   -8.1382537    8.0982635     79.01511    40.140019 
37204000    263.82325    318.47376    276.64314   -5.9690862    7.9123889    41.830617    40.144658 
37208000    270.55214    331.68987    273.74143   -6.9240319    7.0988323    57.948438    40.145941 
37212000    277.59265    321.03976    281.79985   -6.3153276    6.7188074    39.239912    40.140736 
37216000    280.88472    326.69857    293.13429   -6.8119084     5.148821    33.564284    40.146096 
37220000    272.28281    328.85919    274.43344   -7.0893747    6.7682735    54.425749    40.148665 
37224000     272.9776    338.72138    274.33608   -7.5582495     7.687032    64.385298    40.157476 
37228000    266.53062    334.57837    254.76193   -6.2207185    9.3529167    79.816443    40.163027 
37232000     276.0277     320.0976    285.84132   -5.5615799    6.9775418    34.256284    40.162812 
37236000    264.37866    309.72068    280.08791   -5.1051534     6.750283    29.632772    40.155806 
37240000    271.11734    324.45722    271.96139   -5.7263224    6.6376147    52.495826    40.163252 
37244000    266.42648    314.70503    275.67804   -4.7958795    6.7980656    39.026993    40.165207 
37248000    276.46629     336.6633    272.64894   -5.6548774    6.5511147    64.014365    40.163824 
37252000    272.23844    331.60217    273.17592   -5.8642254    7.9489942     58.42625    40.172233 
37256000    277.38959    318.83637    295.27734   -4.7970519    7.1840706    23.559028    40.168585 
37260000    267.06175    331.73264    265.90062   -6.3237883    6.5798597    65.832023    40.172262 
37264000    271.57895    331.88723    261.38362   -5.7542481    7.6895131    70.503612     40.16904 
37268000    264.30604    314.70818    255.89464   -4.5508079    7.6322664    58.813539    40.165956 
37272000    273.25582    316.06281    284.79125   -5.4990591    5.6009306    31.271568    40.162267 
37276000    276.23816    308.22873    300.40144    -6.256813    5.6054831    7.8272956    40.158459 
37280000    281.23355     331.3445     271.1152   -6.6856378     6.978212    60.229295    40.154314 
37284000     272.7796    318.86373    280.40213   -5.6685661      6.61534    38.461599    40.151818 
37288000    277.10628     341.2844    288.57395   -6.8501602    5.4114384    52.710441    40.154818 
37292000    279.34382    322.04849    289.29495   -6.8146257    5.5097797     32.75354    40.158047 
37296000      282.508    336.34609    291.37455   -5.8606785    5.6862319    44.971535    40.155706 
37300000    272.17224    332.39956    250.39245   -7.2438955    7.8156477    82.007111    40.156367 
37304000    266.46465    310.31573    263.94095   -4.7470159    6.9015295    46.374784    40.158855 
37308000     271.3108    306.50134    278.81526   -5.4271672    7.2624512    27.686084    40.155583 
37312000    270.41871    312.15639    266.15008   -5.4698519    7.1145958    46.006319    40.154068 
37316000    274.67683    321.40049    282.48748   -6.5510329    6.5098469     38.91302    40.151575 
37320000    270.94111    331.87039    274.68367   -7.0058452    8.6413024    57.186728    40.162892 
37324000    266.42795    305.46432    274.52019   -4.8717183    7.4259561    30.944126    40.165495 
37328000    267.80136      312.325    265.31475   -5.4377525    6.7776698    47.010259    40.166124 
37332000    281.86421     315.2507    285.76108   -5.5841652    5.2053614    29.489617    40.165289 
37336000    284.19072    359.31374    270.71069   -8.6379993     6.930392    88.603051    40.166631 
37340000    280.02037    337.83811      274.548    -7.452123    7.2408882    63.290113    40.175301 
37344000    270.59227    302.36557    272.90658   -6.5251139     7.289584    29.458985    40.176107 
37348000    270.39295     323.2116    283.46964   -7.1197335    6.9510052    39.741958    40.172522 
37352000    274.22922    300.42678    297.17046   -5.1465141    7.1089961    3.2563197    40.173826 
37356000    280.76446    320.53923    295.08473   -7.3037464    6.7377159    25.454495    40.173215 
37360000    265.94432    305.47004    282.00509   -6.2861959     6.697025    23.464954    40.178685 
37364000    267.81222    303.83166    290.16719   -6.4039852    6.6015719    13.664471    40.177306 
37368000    273.91838    331.88523    289.47499   -9.5511275    6.8677982    42.410241    40.179338 
37372000     286.1708    362.26267    283.26616    -9.006074    7.1935767    78.996507    40.186983 
37376000     268.2714    313.94696    270.05428    -5.855552    8.8570874    43.892685    40.185042 
37380000    272.48198    319.29551    287.78197   -6.2495156    6.0016429    31.513548    40.183151 
37384000    277.73052    327.91897    280.99149    -7.365785    7.0047265    46.927478    40.180156 
37388000    280.37764    326.41669    283.35686   -6.6975475    7.0617149    43.059829     40.17904 
37392000    260.38832    311.87348    266.66591   -6.3294569    8.5737223    45.207569    40.180276 
37396000    286.22751    339.63822    302.06366   -7.3410861    6.9349174    37.574558    40.184812 
37400000    281.29949    335.63286    302.00758   -7.4689547    6.8958267    33.625274    40.187611 
37404000    277.93387    326.03833    299.22007   -5.6355497    6.5425464    26.818266    40.188287 
37408000    268.80231    327.14773    273.21248   -6.2338807    8.3370054    53.935249    40.185204 
37412000    270.56369    319.90163     291.1931   -6.8621736    6.3850145    28.708537    40.186046 
37416000    277.09323     332.5645    291.68068   -5.3878001    5.8490895    40.883821    40.182817 
37420000    274.37349    327.08833    280.14085    -5.903022    7.1963105    46.947477    40.182561 
37424000    272.79385    329.12634    294.40889   -4.9549526    6.6779251    34.717451    40.187804 
37428000    268.50036    319.21567    283.13343   -5.0301768    7.2957645    36.082239    40.193412 
37432000    262.27331    302.65291    263.88288   -5.7576601    8.9055107    38.770026    40.194636 
37436000    271.70002    321.91177    295.11025     -5.97351    7.3214572    26.801521    40.196759 
37440000    268.27805    334.36938    281.42125   -6.0711354    8.1672172    52.948133    40.197637 
37444000    270.31312    322.55041    271.12983    -5.010521    8.4816476    51.420585      40.2026 
37448000    267.33099    329.60679    267.24138    -4.540437     8.741589    62.365417    40.203413 
37452000    259.93727    310.75077    268.66492   -4.7034805    8.7960787    42.085851    40.197864 
37456000     273.0687     344.7501    281.77836   -5.6293607     10.14367    62.971743    40.199319 
37460000    265.76402    313.30212    271.49747   -5.6633969    9.2978346     41.80465    40.194536 
37464000    266.41304     306.4995    284.09867   -5.1035402    8.5080354    22.400826    40.197002 
37468000    271.70742    333.74133    277.19952   -6.3586011    8.8504036    56.541801    40.198587 
37472000     259.9895    310.88977    272.04574   -4.9737641    9.1885478    38.844032    40.200851 
37476000     262.2258    312.72357    275.54465   -5.8651167    9.0634583    37.178917     40.18884 
37480000    264.76031    307.93524    285.36378   -5.0210272    8.8828332    22.571463    40.191573 
37484000     276.4609    329.56064    297.75897   -7.0429597    7.7805119    31.801674    40.185266 
37488000    270.52851    323.75416    278.53675   -5.6697746    8.9704309     45.21741    40.184718 
37492000     270.0882    313.46243    287.32589   -5.3168525    8.8829096     26.13654    40.187675 
37496000    271.14264    322.88254     277.8991   -6.2136694    8.1832725    44.983432      40.1883 
37500000    274.82103    323.44234    280.94209   -6.1742672    8.1473607    42.500252    40.193688 
37504000    275.51795    332.01851    285.55125   -6.9139274     6.948768    46.467253    40.189592 
37508000    275.31927    338.36415    283.19701   -6.4769558    7.2588543    55.167145    40.184764 
37512000    273.98332    323.34358    295.07296   -7.4232085    7.3251621    28.270617    40.183681 
37516000    276.06059    333.86535    313.77645   -7.1895888    6.3064846    20.088901    40.178058 
37520000     263.7782    295.19403    276.90377   -4.7039544    8.3966468    18.290261    40.179024 
37524000     274.3856    321.43908    292.29243    -6.480327     5.973574    29.146651    40.178548 
37528000    271.24832    317.99116    283.94266   -5.2345045    7.8857638    34.048498    40.174507 
37532000    275.09053    334.50801    288.42505   -7.5817079    8.5127686    46.082962    40.175111 
37536000    265.32758    320.76623    254.69039   -5.9743734     9.418463     66.07584     40.17415 
37540000    267.55418    305.47807    285.78257   -4.1046737     8.366882    19.695506    40.170719 
37544000    273.21227    326.08455    299.75181   -5.8177797    7.3613244    26.332746    40.166394 
37548000    264.90507    325.37949    268.17737   -6.5720117    8.3927286     57.20212    40.167593 
37552000     265.7498    324.96024    272.78032   -6.5874174    8.2487774    52.179912    40.168753 
37556000    258.63613    323.13136    252.95995   -5.3706438    10.139708    70.171416    40.170978 
37560000    256.22711    315.66222    256.87639   -5.5644004    10.438297    58.785831    40.167992 
37564000    271.41625    302.43961    299.81978   -3.7439029    7.6452185    2.6198329    40.165978 
37568000    265.35413    318.49763    283.25301   -4.9003625    9.9135681    35.244616    40.173837 
37572000    267.21536    308.24074    283.34077   -5.3499272    9.6096522     24.89997    40.175605 
37576000    274.20308    318.39509    271.39139   -5.3403862     9.375942    47.003706    40.177155 
37580000    267.75136    327.47357    275.24575   -5.9402482    9.7488324    52.227822    40.175255 
37584000    267.81505    319.20517     276.4118   -6.9090612    8.5220512    42.793373    40.182014 
37588000    275.17171     328.0241    299.94471   -6.6972561    7.5779721    28.079387     40.17702 
37592000    264.90537    303.94246    286.51667   -5.0413308    8.3759554    17.425791    40.172785 
37596000    281.43468    328.97466    294.69534   -6.7662788    8.1341268    34.279322     40.17637 
37600000     263.7748    318.29291    276.89256    -5.826847    7.6323479    41.400353    40.176547 
37604000    265.83086    311.21669    286.51102   -6.0634159    7.2216495    24.705666    40.174653 
37608000    263.06326    321.93214    259.94136   -5.9455774    9.2320529    61.990783     40.18212 
37612000    264.47136    327.29289    274.74658   -5.5143559    8.8180949      52.5463    40.179879 
37616000    279.46266     339.2891    319.50749   -6.6507919    6.1161271    19.781615    40.169063 
37620000    265.92248    303.26841    293.13159   -4.7094009     9.307377    10.136817    40.172696 
37624000    263.75442    320.88701    299.05757   -5.3684879    8.3671819    21.829437    40.169475 
37628000    265.28997    328.42713    289.73979   -5.5995757    7.6930747    38.687346    40.172828 
37632000    265.24439    330.31632    260.30286   -5.5509393    10.543141    70.013466    40.171881 
37636000    265.65843    324.47903     295.4433   -6.3667685    7.8776565     29.03573    40.172254 
37640000    265.61118    315.31356    271.75664     -5.65807    8.3638356     43.55692    40.176018 
37644000    267.48145      334.097    289.50416   -5.5738142    8.3204672    44.592837    40.179715 
37648000    270.78953    324.11538    283.21253   -5.5022712    8.9840279    40.902846    40.180348 
37652000    259.05631     315.7695    281.07667   -5.2504097     8.688609    34.692828    40.181815 
37656000     264.4542    311.17027    268.85187    -4.337893    8.7753736    42.318401    40.183701 
37660000    263.35993    315.82311    287.95268   -4.5478494    8.9120974    27.870421    40.180406 
37664000    264.17065    306.93912    277.99462   -4.5901367    9.5800917    28.944502    40.179601 
37668000    273.14621    343.05555    298.58139   -6.6844105    8.6154061    44.474157    40.185547 
37672000    260.95378    321.49973     274.0744   -5.1862537    9.4245125    47.425328    40.183334 
37676000    270.22881    328.56735     297.6858   -5.4469397    8.9406597    30.881559    40.181023 
37680000    266.59528    329.90773    277.36121   -3.9954284     9.998021     52.54652    40.178197 
37684000    261.28795    313.25544    293.40101    -4.612887    8.4094861    19.854422    40.178064 
37688000    263.16306    308.37963    264.37232    -3.086394    9.4847597    44.007309    40.179508 
37692000    270.60423    328.78047    275.80943   -5.1880711    7.8904671    52.971036    40.182628 
37696000    275.37069    340.65195    281.43191   -5.4789313    8.8253413    59.220034    40.184105 
37700000    269.60499    337.86411    280.43311   -6.3425218    8.8320559    57.431004    40.181351 
37704000    263.33509    305.91977    274.85434    -5.060302    8.6850502    31.065435    40.171098 
37708000    271.72352    329.95719    286.53982   -6.2428043     7.455751    43.417371    40.167563 
37712000    270.79821    322.40084    287.81415   -6.1436559    6.9015956    34.586684    40.163475 
37716000    280.00571     340.5455    296.03177   -7.4049802    6.8845654    44.513733    40.164143 
37720000    271.24398    328.93667    288.08211   -5.2423931    7.6707549    40.854565    40.164395 
37724000    272.02499    312.90077    292.74432   -4.4606802    7.2241661    20.156445    40.162182 
37728000    272.02009    331.51475    285.25874   -4.4094001    6.8169363    46.256012    40.164257 
37732000    277.94433    346.73082    291.06967   -5.3690033    7.7703389    55.661147    40.156983 
37736000    275.64193    335.97398     283.6235     -6.26945    7.5083693    52.350475    40.162158 
37740000    263.77821    297.88096    285.17164   -4.4219348    7.8127597    12.709321    40.165476 
37744000    270.55042    342.28104    278.07564   -7.0606407    9.0849703    64.205402      40.1667 
37748000    280.55745    341.28792    307.65293   -7.0904909    7.4171744    33.634995    40.167039 
37752000    273.37521    353.17154     279.2022   -7.4323456    8.6781444    73.969336    40.169361 
37756000    276.40944    338.97916    294.36903    -6.770935      8.29453     44.61013    40.171016 
37760000    263.29257    318.65888    263.72023   -5.2909228    8.1570817    54.938652    40.165653 
37764000    258.55202    350.23456    252.35536   -6.8053827    9.5102926    97.879196    40.167015 
37768000    269.17411    347.38779    268.80441   -6.1355018    8.3493205     78.58339    40.170435 
37772000    267.66343    327.53823      271.776   -6.3759969    8.9578481    55.762227    40.171621 
37776000     262.3349    314.69515    265.82804   -4.9766061    9.1716206    48.867109    40.175965 
37780000    266.58788    308.45181    289.59695   -5.9822903    7.6967576    18.854861    40.177387 
37784000    266.80508    329.74181    276.78685   -6.5189262    8.6089219    52.954959    40.181604 
37788000    269.79538    306.68364    269.98869   -5.5605553    9.5587899    36.694949    40.183135 
37792000    262.94032    301.17773    285.98175   -4.6983645     8.858989    15.195979    40.178911 
37796000    263.20848     310.1962    267.63872   -6.5794347    9.2363027    42.557476    40.178175 
37800000    267.86213    319.08215    292.08586    -5.990836    8.9045908     26.99629    40.177439 
37804000    269.28638    329.96947    263.55846   -6.7895546    10.092683    66.411008    40.173664 
37808000    267.63401    319.77538    281.03039   -6.8480859    9.9945186    38.744986    40.175238 
37812000    275.67689     327.7762    313.74245    -7.597258    7.2365831    14.033749    40.172271 
37816000    270.48277    328.29931     285.8145   -7.7020644    9.0621567    42.484804    40.169921 
37820000    272.92717    318.76139    283.62708   -5.6154201    8.9079055    35.134311     40.17115 
37824000    268.29228    300.40772    288.90435   -4.9279874    7.7993774     11.50337    40.168198 
37828000    260.54789    314.19342    261.26807   -4.6012955    8.6765177    52.925352    40.173239 
37832000    265.67976    331.69448    268.81369   -7.2298278    9.1377312    62.880791    40.169776 
37836000    261.02823    307.76689    264.56496   -6.7802083    10.013148    43.201925    40.172637 
37840000    277.14753    330.72389    292.51278   -8.2006043    8.4573782    38.211103    40.177917 
37844000    262.70138    311.95787    273.20736   -7.1754167    9.9223271     38.75051     40.17271 
37848000    273.62117    326.20623    266.17779   -8.7687029    9.8480546    60.028445    40.177556 
37852000    261.37641    318.52293    261.85136   -7.8716603    9.8098037    56.671578    40.183665 
37856000    269.81194    334.22746    272.96996   -8.4419056    8.4804979    61.257495    40.187767 
37860000    269.12721     310.9791    280.72191   -6.8431661    7.1090379    30.257186    40.182945 
37864000    272.80609    336.07693    279.11315   -7.6733042    7.1946372    56.963775    40.181753 
37868000     276.4685    320.72565     279.2793   -6.4845738    8.3479756    41.446358    40.182848 
37872000    265.36526    292.79583    279.72025   -5.3708797    7.7529374    13.075579    40.189642 
37876000    263.84205    279.09826    279.70666   -3.2317983    8.1738721  -0.60840125    40.187605 
37880000    271.42657    319.58696    292.77291   -5.8838013    7.0577391    26.814054    40.197947 
37884000    278.33853    336.06656    284.16569   -7.7701013    6.6927447    51.900869    40.198284 
37888000    270.79833    305.84782     267.5584   -6.2330291    8.6108552    38.289417    40.201287 
37892000    272.94919    333.04682    290.42457   -7.7411243     8.258851    42.622249    40.203375 
37896000    262.51628    311.01228    272.90929   -6.6170854    8.8041005    38.102998    40.206179 
37900000    267.82145    318.28012    267.73184   -5.6806015    8.3331817     50.54828    40.208305 
37904000    264.50251    296.66175    281.23321   -5.5525662    7.2712621    15.428541    40.207389 
37908000    272.32171    327.57301    284.68327   -6.0087212    7.0755798    42.889748    40.207587 
37912000      271.141    330.09879    273.59987   -7.3494171    7.2671281    56.498919     40.20403 
37916000    266.27926     326.1396    263.58176   -7.1631469     7.815286    62.557839    40.201133 
37920000    271.51511    318.14658    290.88526   -6.3700351    7.0636991    27.261319     40.19967 
37924000    264.96025    317.34065    284.91343   -6.7488152    7.8136587    32.427213    40.198619 
37928000     268.6744    333.07626    276.35753   -7.6233551     7.415853    56.718728    40.197635 
37932000    269.90784    296.44813    312.26799   -5.9741743    5.5236442   -15.819861    40.195061 
37936000    274.00049    313.94231    290.47401   -6.9575102    7.7068704    23.468302    40.190753 
37940000    270.72726    316.56226    280.59684   -6.5799256    7.2721296    35.965422    40.190414 
37944000    282.30632    331.58256    284.56202   -8.0692153    7.1273217     47.02054    40.188292 
37948000    269.35088    320.78386    280.04874    -6.226445    7.4926608    40.735119    40.186437 
37952000    278.14312    335.31394    285.39382   -7.4054778    6.7464579    49.920126    40.188094 
37956000     273.6963    309.07001     284.1118   -5.8647798     7.058833    24.958207    40.192673 
37960000     276.0729    329.93903    283.52016   -6.6963052    7.4628273    46.418876    40.193688 
37964000     265.1967    286.52181    280.59288   -5.1294825    7.2394285    5.9289325    40.197693 
37968000    272.93035    317.30921    256.38364   -7.8457026     8.329545    60.925572    40.199211 
37972000    274.32003    305.85059    309.46105   -6.7968306    6.3117844   -3.6104591    40.196288 
37976000    260.70542    298.95317    281.32009   -5.5406368    8.3401778    17.633087    40.191397 
37980000    271.43333    314.40374     275.6201    -6.313672    7.9543645     38.78364    40.190076 
37984000    271.71266    322.60832    284.28351    -6.328186    7.6217892    38.324809      40.1884 
37988000    268.35516    323.49959    281.55628    -6.926785    7.0428516    41.943318     40.18552 
37992000    272.24664    340.89398    269.88884   -7.5705673    8.0977276    71.005133    40.181733 
37996000    279.54644    338.93701    309.59886   -8.7551523    5.4672117    29.338152    40.182275 
38000000    265.81805    293.23784    281.91984   -6.3443017    7.6202483       11.318    40.177996 
38004000    268.23109    306.27712    291.50002   -7.4722502    7.3207184    14.777102    40.177464 
38008000    262.81218    306.31316    270.94309    -6.291698    7.5626543    35.370072    40.176722 
38012000     267.7505    317.00792    278.81414   -7.4396668    7.3614439     38.19378    40.173143 
38016000    267.79821    327.47262     279.3244   -6.6848637    6.5527277    48.148222    40.176801 
38020000     272.6181    300.18621    284.63054   -6.8614979    6.7149208    15.555664    40.179096 
38024000    268.79944    340.51576    271.48674    -8.118795    8.5512713    69.029026    40.182672 
38028000    270.22654    319.60695    270.43573   -6.7769146    7.7010643    49.171215    40.183365 
38032000    274.21332     344.5431    270.79192   -6.6375535    8.6944649    73.751177    40.180588 
38036000    275.07404    338.39383    275.88571   -7.7562603     7.950394    62.508123    40.181202 
38040000    266.50228    303.90591    282.21624   -5.3427483    7.1523942    21.689675    40.182092 
38044000    276.44086    340.98166    289.60559   -6.7898833    7.8834884    51.376062     40.18356 
38048000    269.39694    320.90663    258.40941   -6.6616461    8.6321856    62.497219    40.186652 
38052000    276.42904    327.99676    295.98153   -7.0869468    6.0406621     32.01523    40.186808 
38056000    275.74767    317.41076    277.64397   -6.4557219    7.5424551    39.766788    40.187183 
38060000     269.7162    309.51783    270.20193   -6.4633681    6.8020531    39.315897    40.184978 
38064000    268.16562     306.4323    270.87063   -6.7635519     7.730722    35.561675    40.192446 
38068000    272.66207    325.84488    258.01215   -7.8947922    8.1561158    67.832725    40.191186 
38072000    274.03343    320.70466    282.62742    -8.369236    7.2623084    38.077238     40.19209 
38076000    273.43432    330.62762    288.14239    -8.444761    5.7890055    42.485229    40.192905 
38080000      272.747    318.31051    282.57905   -5.9129326    6.0644399    35.731464    40.192052 
38084000     273.3461     334.0136    271.85346   -6.9832322    7.5353393    62.160145    40.189733 
38088000    270.90886    318.55056      275.416   -6.7021259    7.2813442    43.134555    40.190812 
38092000    273.08029    340.97568     269.7445   -7.9921651    7.6491847    71.231183    40.192101 
38096000    272.61266    305.55981    293.29595   -5.6957008    5.4592939    12.263857    40.190406 
38100000    272.26672    308.16215    285.37751   -6.2125789    6.4903008    22.784635    40.192547 
38104000    273.01787     304.1918    285.12674   -6.1996962    5.7147033    19.065058    40.194447 
38108000     275.9778       325.12    290.40715   -7.2362879    6.0984091    34.712856    40.195239 
38112000    277.37393    321.55001    290.55835    -7.148604    7.0463327    30.991661    40.195883 
38116000    270.55297    308.11717    297.77114   -7.4385434    6.1966666    10.346034    40.194929 
38120000    266.24958    324.90079     274.7982   -7.5300478    7.6572345    50.102599    40.196579 
38124000     274.6503    324.31341    282.04958   -6.5832397    7.2297432    42.263832    40.193957 
38128000    275.57172    330.50782    296.24221   -5.9613883    5.9904064    34.265614    40.196971 
38132000    258.20125    301.29406    271.20812   -3.8479857    7.7632429    30.085942    40.198759 
38136000    271.18618    324.85183    265.12387   -6.8189171     8.612147     59.72796    40.200328 
38140000    271.45592    342.40422    269.38664   -8.8665502    7.8794983    73.017584    40.203085 
38144000    270.38167    321.28496    271.23359   -7.5758491    7.7736485    50.051378    40.201302 
38148000    269.85367    320.32594    279.29155   -6.8855213     7.846325    41.034389    40.203205 
38152000    277.88225    335.28162    273.26192   -6.6798447    7.9702884    62.019703    40.206272 
38156000    269.55698    306.00812    287.21832   -5.8388323    6.5673769    18.789797     40.20816 
38160000      259.377    289.90533    276.87005   -5.4107953    6.7094629    13.035283     40.20735 
38164000    267.76817    291.77494    290.80832   -4.2229667     6.084411   0.96661462    40.209736 
38168000    269.49397    318.24142     294.4955   -5.8626565    6.7663249    23.745915    40.208508 
38172000    266.12586    306.38771    277.99515   -5.6964885    8.4789672    28.392562     40.20748 
38176000    279.29833    326.71355    297.16692   -6.1755603    6.9613519     29.54663    40.205772 
38180000    269.99645    327.53272    260.03148   -5.7447028    8.5930327    67.501236    40.208426 
38184000    272.17125    322.47718    277.78833   -7.3009349    7.0557383    44.688848    40.210697 
38188000    278.75754    344.35462    286.61747   -7.3596851    7.6447001     57.73715    40.211496 
38192000    271.85118    339.17958    266.91118   -6.8228045    8.0344849      72.2684    40.216353 
38196000    269.11217     302.6192    282.72925   -5.0851698    7.1627881    19.889949    40.219197 
38200000    269.60801    313.56847    279.43296   -6.1121302    6.5826684     34.13551    40.219479 
38204000    267.19706    309.08801    270.07963   -6.3014691    8.3419548    39.008379    40.218446 
38208000    277.92192    325.69549    297.91377   -6.3126422     6.176989    27.781721    40.220503 
38212000    270.12615     314.2819    277.19815   -7.6496979    8.8075255     37.08375    40.220901 
38216000    262.28023    306.44373     281.3697   -7.5417776    6.8226635    25.074036    40.213934 
38220000    272.13997    339.88639    273.37771   -8.3611208    8.3039762    66.508681     40.21666 
38224000    271.57071     311.6585    290.39734   -7.2081392    7.3410948    21.261158    40.214078 
38228000    269.85563    322.30883    264.72368   -6.1096142    9.3067582    57.585152     40.21543 
38232000     274.3878    347.57636    286.78053   -8.3371347    7.1882869    60.795831    40.214159 
38236000     275.1888    308.25513    303.01517   -7.5666081    8.2345888    5.2399568     40.21519 
38240000    270.41259    301.98079    282.44353   -8.3093311    8.8800289    19.537256    40.211881 
38244000    267.29488    319.47906     274.3529   -8.3119316     8.736923    45.126165    40.212937 
38248000    267.23711     310.8778    280.55043   -7.3954403     8.041982    30.327374    40.215056 
38252000    274.97213    326.79443    283.79478   -7.2571588     8.524482    42.999647    40.217824 
38256000    277.75613    319.29553    302.26512   -7.6918137    7.1683038     17.03041    40.219426 
38260000    276.36156    333.84582    269.52441   -8.1824465    8.9355565    64.321416    40.217262 
38264000    264.81877    294.48218     294.9389   -7.2390859    7.1059096  -0.45672292    40.217589 
38268000    278.43847    320.21778    303.30828   -6.9630914    8.1557223    16.909498     40.21541 
38272000    275.27213    345.20955    301.25623   -8.2747561    6.6732023    43.953312     40.21428 
38276000    276.73798    352.10258    278.85266   -9.1887505     8.242767    73.249923    40.217801 
38280000    267.33404     327.8218    264.95133   -8.4437305    9.2228586    62.870468    40.219617 
38284000    276.39503    330.24511    281.10384   -7.7787584    9.1767445    49.141269    40.223309 
38288000    267.08155    304.01609    284.36806   -5.6352848     10.06793    19.648037    40.218383 
38292000    272.57742      340.406    279.08797   -7.9088455    10.383638     61.31803    40.217829 
38296000    268.65463    301.53476    286.56075   -6.9442861    8.3958578    14.974013    40.215774 
38300000    269.84514    315.82789    277.74375   -6.5925934    8.0918879    38.084142    40.215787 
38304000     274.1461    327.28488    294.48516   -7.5242742    8.1062607    32.799713    40.223267 
38308000    267.02916    314.89622    293.67673   -6.4854117    8.1955534    21.219494    40.222828 
38312000    272.32939    338.04095     263.8529   -9.1886086    8.5571453    74.188051    40.227371 
38316000    266.95486    321.54649     275.7906   -7.6852834    7.7069423    45.755889    40.231033 
38320000    280.97428    316.75621    301.19223   -7.1873634    6.9536498    15.563974    40.233383 
38324000     278.9106    315.41201    275.83393   -6.8139864    8.4529822    39.578075    40.229749 
38328000    283.32027    334.49416    285.39161   -9.1361122    7.2136048    49.102547    40.230716 
38332000    278.29751    313.01678    294.16688   -7.4312725    7.0427588    18.849901    40.229721 
38336000    280.08962    353.98639    294.28952     -8.60905    7.6524781    59.696867    40.227046 
38340000    275.20465    333.05249    274.38917   -8.1987328     7.938385    58.663314     40.22114 
38344000    277.59869    329.34118    271.50453   -7.6703878    7.1812191    57.836651    40.225738 
38348000    273.44471    316.71275    281.06092   -7.0981686    7.8134281    35.651835    40.227604 
38352000    274.32477    328.34031    271.04759   -7.7853652    8.9528568    57.292727    40.231233 
38356000    265.78873    286.68735    266.84676    -5.503997    8.1144092    19.840594    40.232712 
38360000    283.00189    329.82837    300.01185   -6.7453989    7.2461001    29.816515    40.238907 
38364000     265.3467    295.41422    266.77974   -6.4048774    8.7721741    28.634483    40.240163 
38368000     278.1737    335.08487    303.31252   -7.1757317    7.5913491    31.772355    40.236503 
38372000    269.89057    335.83956    272.78872   -8.1150873    9.2042524    63.050846    40.231605 
38376000    271.22351    318.03132    284.51342   -6.9300181     9.227528    33.517892    40.232971 
38380000    264.65323    284.77056    290.45099   -5.7739994    8.9403718    -5.680432    40.227398 
38384000    269.98219    310.19136    292.61365   -6.5130701    7.5132269    17.577707    40.231838 
38388000    265.67781    330.61703    275.67301   -7.2586782    10.354647    54.944017    40.227859 
38392000    271.27308    303.97698    292.70083   -6.2798399    8.5711107    11.276154    40.222634 
38396000    262.08907    310.23774    272.84074   -6.6439156    9.6786672    37.396998     40.22339 
38400000    262.33026    303.94483    280.10727   -6.8148012    9.0766903    23.837559    40.223224 
38404000    269.56026    323.04547    270.08366   -7.6563435    9.4577824    52.961809    40.216708 
38408000    263.76435    297.66583    261.28246   -6.3952203    10.075552    36.383365    40.216304 
38412000    279.99034    324.92931    301.12515   -8.2667946    8.7947715    23.804164    40.218957 
38416000    277.91671    307.54434    287.90982   -9.3742188    8.5939302    19.634514    40.219367 
38420000    267.21652    303.89912    269.12095   -8.1572294    9.5392069    34.778173    40.219861 
38424000    255.44141    296.91808    250.45244   -6.5572082    10.282679    46.465643    40.219162 
38428000    278.22038    351.59161    276.67426   -10.351234    9.8539518    74.917346    40.219322 
38432000    269.16227    333.46856    277.38609   -9.2197344    8.4085477    56.082476    40.217484 
38436000    265.37512    318.48078    272.53866   -9.1894038    9.9094284    45.942118    40.213282 
38440000    264.81445    301.80309    263.46334   -7.4150928    10.647294    38.339742    40.213903 
38444000    268.82215    324.90524    277.15647   -7.8934193    9.8388829     47.74877    40.214874 
38448000    269.81766    312.19994    272.51742   -8.2670861    10.356222    39.682517    40.222802 
38452000    276.05679    334.32475     278.2872    -9.045057    10.893149    56.037547    40.223274 
38456000    265.98711    328.77838    277.16909   -8.6085363    9.8758826     51.60929    40.225537 
38460000    267.94064    327.33959    274.24412    -8.130445    10.383107    53.095468    40.224558 
38464000    274.13509    325.99744    295.27143   -8.7860228     8.951072    30.726016    40.226064 
38468000    271.05947    313.76313    294.42846   -8.6164968    8.7951373    19.334667    40.225215 
38472000     270.9727    310.33911    283.93979   -8.2714566    9.1462006    26.399317    40.226737 
38476000    274.57092    307.88715    297.27834   -7.1887202    8.1406335    10.608807    40.227165 
38480000    274.40735    315.42075    281.97194   -8.4654233    8.8180061    33.448809    40.226049 
38484000    280.69861    323.04942    302.99914     -8.96683    8.5728563    20.050284    40.223668 
38488000    275.36984    345.10365    271.01046   -8.8092316     9.182239    74.093192    40.221093 
38492000    271.33676    303.82111    288.38563   -7.5546567    9.3388723    15.435477    40.220752 
38496000     271.5002    331.46267    258.20222   -9.0830031    11.049984    73.260457    40.222338 
38500000    273.24994     309.5061    297.34797   -7.2376376    8.0036587    12.158139    40.219076 
38504000    264.63132    314.80443     269.5162   -8.4996273    10.161133    45.288233     40.21696 
38508000    269.57331    306.69421     269.2678   -7.5025538    9.2571174    37.426414    40.210206 
38512000    274.06621    327.80279    294.44988   -8.5077731    8.7949379    33.352904    40.206842 
38516000    265.35702    317.90133    263.27773   -7.2002505    9.8356285      54.6236    40.200766 
38520000    278.50158    348.43625    277.45564   -8.4828315    10.511544    70.980613     40.20093 
38524000    272.31198    324.51921    283.23186   -7.6614688    9.1313434    41.287354     40.19828 
38528000    274.51043    341.36462    283.12167   -8.2755217    9.7830325    58.242942    40.202082 
38532000    273.54491    324.11776    276.45568   -7.2770008    9.9952876    47.662083    40.200314 
38536000     279.5205    348.43521     276.5927   -9.5300787    10.238711    71.842502    40.200863 
38540000    276.44069    314.06943    298.51888   -7.5502668    8.9918876     15.55055     40.20551 
38544000    275.83182    326.00976    299.83013   -8.7441842    9.1825121     26.17963    40.205072 
38548000    274.68754    324.33418    288.38426   -9.3751341    9.0671593    35.949926    40.205813 
38552000    258.89788    304.98024    268.73898   -7.7824829    10.612003    36.241262     40.21096 
38556000     283.2071    333.73173    308.43584   -8.2498339    8.8339555    25.295886    40.210122 
38560000    277.28985    319.32824    299.50289   -8.3701184    8.4261566    19.825344    40.211256 
38564000    279.75566    349.25641    272.92105   -9.6323701    9.5305077    76.335353    40.209025 
38568000    272.97907    310.46117    275.28697   -9.1328864      9.33058      35.1742    40.214141 
38572000    276.46669    323.87079     284.5702   -9.0431191    8.9943147     39.30059    40.216315 
38576000    279.42114     324.6502    294.28852   -8.4926993    8.6984342    30.361676    40.215152 
38580000    269.40422    328.44323    268.74988   -8.6126027    10.050356    59.693352    40.213216 
38584000    275.73875    329.63952    270.96359   -9.3987365    10.075244    58.675932    40.212646 
38588000    272.13437    303.61554    285.09156   -9.7880758    8.8829287    18.523972    40.211606 
38592000    276.87007    340.54693    278.32168   -10.337209    9.6727692    62.225255    40.217383 
38596000    273.56183    312.77764    286.81465    -8.733079       8.6302    25.962993     40.21961 
38600000    266.79654    321.00045     258.4636    -7.766684    10.061216    62.536844    40.218339 
38604000    270.26431    297.43859    282.29656   -8.0240327    9.3507805    15.142027    40.215821 
38608000    276.20295    317.82852    293.88182   -7.9032421    9.8255953    23.946691    40.214251 
38612000    280.58602    298.57663    310.50648   -8.5264592    8.3555259   -11.929845    40.212007 
38616000    271.18791    317.55228    282.31782   -8.6347385    9.6479411    35.234468    40.210713 
38620000    277.42344    327.11531    300.94325    -8.828403    9.6051529    26.172064    40.209013 
38624000    278.29479    333.35759     276.4546   -9.4379112    10.236722    56.902985    40.212184 
38628000    272.18295    329.87319     268.0788   -9.2350459    9.6467649    61.794388    40.210344 
38632000    268.57044    298.68719    273.30799   -6.9996056    10.459897    25.379198    40.209368 
38636000    270.41139    324.64974    273.99546   -9.0166577    10.730008    50.654285     40.20899 
38640000    276.78346    338.64593    276.82234   -9.6105322    10.453974    61.823591    40.211005 
38644000    267.11823    316.92576    272.40646   -7.5822671    10.362184    44.519299    40.215236 
38648000    276.91518    340.57469    266.56921   -9.9896339     9.507215    74.005486    40.217369 
38652000    264.58624    314.37618    267.69916   -8.1643341    9.8515722    46.677027    40.218236 
38656000    281.31857     334.6536     292.5351   -10.013661    9.2072287    42.118496    40.215301 
38660000    273.62839    319.96804    262.88375   -9.0056739    9.7422771    57.084289    40.212935 
38664000    269.86535      312.299    283.12105   -8.0487137    9.3600007    29.177948    40.212326 
38668000    267.87001    310.47664    277.49985   -8.8785909    9.3320121    32.976782    40.214182 
38672000     270.3268    314.73922    273.97505   -9.5932602    10.128913    40.764169    40.216661 
38676000    274.69754    302.28586    299.94026   -8.4783905    8.3606789    2.3455964    40.216428 
38680000     269.3861    314.71979    270.24694   -9.3674591    10.605698    44.472851    40.214285 
38684000    280.80699    318.78412    288.25156   -9.5007649    9.1100518    30.532563    40.209831 
38688000    273.48856    330.68122    287.28722   -8.4167327    8.1904654    43.393998     40.21166 
38692000    269.76857    304.20829    283.90992   -8.0016662     9.097602    20.298365    40.214203 
38696000    272.94853    331.50248    280.05919   -9.3509543    9.2935118    51.443286    40.212834 
38700000    273.68756    322.61877     275.9389   -9.1512004    9.8710526    46.679869    40.215008 
38704000    270.87382    315.81246     280.3889   -9.0531773    8.3385162    35.423561    40.212956 
38708000    267.64377    309.94784    282.10881   -8.1237618    9.2385253    27.839027     40.21451 
38712000     269.0106    314.41612    287.94292   -8.4919662    8.7140124    26.473198    40.216809 
38716000    272.33752    316.93127    281.88894   -9.2826241    8.6816146    35.042338    40.215571 
38720000    267.52193    312.59733    283.29554   -8.8202948    9.5949158    29.301796    40.219132 
38724000    266.76003    305.53684    275.36312   -8.4593535    9.7258309     30.17372     40.21883 
38728000    274.10431    327.12285    285.43852   -9.4329207    9.4007492    41.684329    40.220482 
38732000    270.03716    328.79952    278.42004   -9.8343662    9.7785674    50.379474    40.218849 
38736000    281.98543    354.57915    282.63711   -10.687584    9.4403055    71.942039     40.21722 
38740000    273.97452    325.84613    281.03006   -8.4503502    10.223238    44.816064    40.214165 
38744000    264.24937    304.29484    268.99601   -7.9963481    10.612799    35.298822    40.215082 
38748000     273.0612    309.45215    282.25946   -8.1432409    9.8124597    27.192686    40.209566 
38752000    263.27777    319.77003    263.72058   -9.0459548    9.7992012    56.049453    40.209409 
38756000    278.25355     337.3168    286.40252   -9.8723402    9.6727231    50.914286    40.210974 
38760000    265.21277    302.32134    281.32857   -7.9718724    10.219371    20.992769    40.211975 
38764000    273.04482    322.76074    270.23593   -9.0322891    10.588866    52.524804    40.213949 
38768000    270.27628    316.42689    277.72944    -8.574846    10.008758     38.69745    40.213125 
38772000    266.28277    322.27523    273.09658   -8.7018622    10.232699     49.17865    40.213272 
38776000    269.65799     328.8163    278.78426   -8.9579654    10.709214    50.032037    40.208148 
38780000    275.78485    308.07885    298.33208   -8.1724465    10.385519    9.7467779    40.202744 
38784000    274.96795    324.72981    299.59452   -8.8729635    9.9881653    25.135293    40.201904 
38788000    266.59079    306.37484      279.417    -6.685558     9.605462    26.957841    40.203981 
38792000    266.46808    306.99174    271.19738   -8.0623837    10.120574    35.794359    40.203289 
38796000    273.98237    354.03939    271.99096   -10.537322    9.3798336    82.048423    40.207408 
38800000    278.02314    335.46076    288.71384   -9.1516433    8.8701809    46.746919    40.204294 
38804000    279.50514    336.21464    283.50886   -9.0515138    9.7096475    52.705784    40.203476 
38808000    277.32112    329.24206    285.90744   -9.3395063    8.7568914    43.334618    40.197658 
38812000    269.86681     318.8925    278.24384   -9.8655984     9.159847    40.648668     40.19617 
38816000    282.41629    337.24716    288.84472     -11.0916    8.3196694     48.40244    40.195119 
38820000    272.48051    335.50987    280.11627   -10.750137    9.7805575    55.393595    40.192812 
38824000    279.41945    315.35644    275.26791   -10.927989    9.1097175    40.088527    40.193575 
38828000    279.62301    325.97588    268.58178   -11.614285    9.4515564    57.394094    40.194737 
38832000    280.67049    313.79556    295.99374   -10.116604    7.4910457    17.801811    40.197789 
38836000    274.46151    326.12724    262.42215   -11.185255     8.858791    63.705095    40.199698 
38840000    282.25393    322.08371    295.67709    -9.259399    8.0500286    26.406619    40.196843 
38844000    282.88339    347.88836    285.57365   -11.751365    8.5231967    62.314707    40.195057 
38848000    272.92496    323.74599    285.88216   -9.5817506    8.4916238    37.863828    40.193438 
38852000    271.63231     319.9804    264.34249   -11.398831    9.4636223    55.637909    40.189794 
38856000     270.3979    288.99581    288.60921    -8.977862     8.993489   0.38660357    40.186032 
38860000    266.37539    303.67246    267.62752   -8.7779698    10.485371    36.044939    40.187221 
38864000    272.77998    313.40242    262.34186   -8.9612842    10.915234    51.060558    40.184782 
38868000    267.24046    312.99097    254.26584   -9.4758834    10.703655    58.725133    40.182855 
38872000    278.72854    322.61177    276.13281   -11.066388    9.0492313    46.478963    40.185436 
38876000     286.4429    316.50593    307.85698   -10.948929    8.2017679    8.6489428    40.178405 
38880000    283.67767    332.70786    293.31057   -10.898302    9.3509313    39.397288    40.179901 
38884000    280.37528    345.17011    272.66052   -11.880707    9.5449392    72.509581    40.173741 
38888000    272.55127    314.52841     271.1346   -10.299863    9.1072365    43.393819    40.175263 
38892000    280.18818     319.5725    279.43684   -10.247058    10.835838    40.135661    40.174896 
38896000     277.2455    301.89117    305.04767   -9.3255101    8.5121874   -3.1565048    40.170953 
38900000     278.5394    332.16646    302.58258   -10.237793    8.8418397    29.583881    40.169662 
38904000    276.42779    315.35351    281.91326    -8.578723    10.425683     33.44025    40.174895 
38908000    264.86967    310.90983    279.79227   -7.4598615    10.254598    31.117563    40.173744 
38912000    270.23688    313.95499    289.72523   -8.7059492    9.9768659    24.229757    40.174011 
38916000    277.89692    302.86641    309.59752   -7.9787947    9.0981138   -6.7311159     40.17263 
38920000    275.19335    314.37332    277.04759   -7.7824361    10.010758    37.325734    40.175374 
38924000    272.14173    315.33293    278.11551   -8.2690786    10.310962    37.217422    40.177892 
38928000    269.29168    300.30889    290.50853   -7.7202737    9.8271837    9.8003626    40.178592 
38932000    277.28792    315.48688    292.73534   -8.9581377    8.3677658    22.751543    40.175753 
38936000    272.95783    326.52264    279.24307   -9.4394465    10.068397    47.279562    40.171663 
38940000    275.06399    320.67496    263.75587   -8.6424806    10.975713    56.919093    40.169281 
38944000    269.31534    306.53604    297.02575   -8.8094624    9.1343094    9.5102892    40.169974 
38948000    275.58162    320.16586    282.24721   -8.9997923    10.675984    37.918647    40.169964 
38952000    267.50174    306.50699      260.825   -8.4772411    10.018402    45.681985    40.171239 
38956000    285.32533    359.22935    284.31863   -10.578166    7.7773826    74.910718    40.166348 
38960000     279.3297    342.33335    284.77512    -10.24144    8.9579324    57.558229     40.16574 
38964000    276.30818    324.76846     286.4989   -9.3915963    9.7591201    38.269567    40.167115 
38968000    279.74275    336.87896    278.06402   -9.7200936    10.743574    58.814934    40.167756 
38972000    276.52863    331.04164    278.43831   -10.568726    10.137995    52.603333    40.174151 
38976000    275.59474    323.18503    283.86141   -10.015119    9.0339194    39.323622    40.170186 
38980000    273.63223    309.11104    283.18085   -9.2804619    9.7093258    25.930195    40.171226 
38984000    272.39463    318.12431    276.88478   -9.3211891    9.1965495    41.239529    40.167161 
38988000    273.67058    310.02463    269.63821    -9.980721    8.9626565    40.386418      40.1658 
38992000    280.22424    316.83041    274.62788   -9.9818874      8.95062    42.202531    40.160705 
38996000    274.91576     326.5552    268.13841    -10.03012    8.7937483    58.416789     40.15989 
39000000    269.11993     307.3814    287.84654   -9.1135124    8.5287931    19.534852    40.158846 
39004000    273.51556    325.94164    262.46744   -8.9168801     9.585296    63.474199    40.160257 
39008000    277.75407    307.72442    294.21915   -8.9841716    8.8469423    13.505276    40.161397 
39012000    270.03416     305.7135    285.90284   -9.2121568    9.0140592     19.81066    40.164628 
39016000    273.08122    305.92859    279.25131   -8.4574528    9.2269255    26.677277    40.167446 
39020000    281.89167    337.01669    276.73902    -10.46604    10.050746    60.277671    40.164801 
39024000    279.01798    330.82083     274.4667   -10.077245    10.647646    56.354135    40.167838 
39028000    280.37805    333.24361    281.80512   -9.9748533    9.9642819    51.438492    40.163901 
39032000     275.3069    338.22548      274.816   -10.708519    9.7041194    63.409473    40.164306 
39036000    276.34441    311.47151    284.63237   -9.8234719    9.4054151    26.839148    40.161968 
39040000    284.10783    313.71029     295.8648   -10.138014    8.4009011    17.845497    40.158863 
39044000    277.20248     315.0939    270.44871   -10.940517    9.1591617    44.645194     40.16334 
39048000    281.64237    321.85679    284.76062   -9.7019476    8.9363517    37.096169    40.165009 
39052000    280.16169    314.02723    294.72131    -10.10562    8.2686451    19.305917    40.165308 
39056000    280.15911    319.24833    276.75287   -9.9691364    8.6755294    42.495455    40.167523 
39060000    282.37213    337.69179    275.95439   -10.765268    8.6283176    61.737403    40.171329 
39064000     265.3827    302.69966    263.68118   -8.2134222    9.3574617    39.018487    40.171418 
39068000    278.62971    345.07751    265.25233   -11.239415    8.4924336    79.825176    40.170123 
39072000    283.60069    326.54735    280.52132   -10.553346    8.0803897    46.026037    40.168965 
39076000    281.66406    325.51573    282.03524   -9.2243815    9.1247267    43.480495     40.16758 
39080000    278.67838    309.12678    295.80608   -10.102659    7.7245039    13.320704    40.167352 
39084000    277.25576    318.00712    285.19061   -10.159852    6.9155936    32.816513    40.165074 
39088000    269.55374     322.7429    266.74217   -10.860855    8.9202634     56.00073    40.164419 
39092000    280.62167    344.15805    275.31814   -11.846573    9.0462626    68.839907    40.166984 
39096000    284.48213    337.71167    291.97371   -11.130663    8.9748749     45.73796    40.167043 
39100000    272.91024    300.61198    289.67599   -9.2875467    9.0856265    10.935988    40.166558 
39104000    269.31716    315.31198    273.27104    -9.254544    10.838593     42.04094    40.168261 
39108000    283.89313    306.81849    296.97561    -9.051674    8.8398867    9.8428801    40.166248 
39112000    280.24363    328.31116    282.21913   -9.7316875    9.5980505    46.092033    40.160163 
39116000    280.98656    319.95371     285.1048   -9.8628979    9.0799589    34.848907    40.158619 
39120000    272.50192    325.42063    275.77173   -10.094231    9.1726828    49.648897    40.157461 
39124000    278.09174    346.64681    260.58639   -10.686261    10.477264    86.060416    40.159139 
39128000     269.7321    322.64242      273.691   -10.510789    10.213475    48.951415    40.158874 
39132000    278.46033    345.06375     279.8971   -10.438065    9.7725618    65.166651    40.156258 
39136000    276.93461     329.9954    287.51243   -10.704306    9.3263059    42.482965     40.15835 
39140000    267.15893    307.20578    267.00796   -8.9181759    10.467809    40.197823    40.158986 
39144000    262.47785    316.20966    251.52019   -8.9425064     10.57408    64.689472    40.164009 
39148000    273.50979    318.41833     281.9701   -9.9228034    9.8530457     36.44823    40.165902 
39152000     272.3309    315.47332    270.22053   -11.245199    10.974946    45.252784    40.165425 
39156000      268.026    332.73888    256.69352   -10.242918    11.177501     76.04536    40.166423 
39160000    268.09351    299.61852    288.55515   -8.6145223    10.175627    11.063373    40.166543 
39164000    279.20045    366.23298     265.7962   -12.462319     10.76488    100.43678    40.170987 
39168000    269.25697    310.73616     290.4859   -10.053062    9.8158148    20.250263    40.171696 
39172000    280.33907    340.65405    295.45759   -11.328764    10.367483    45.196464     40.16573 
39176000    269.38432    322.18666    277.30798   -9.8563577    11.738929    44.878684    40.167205 
39180000    280.36592    351.15937    290.45558   -12.004539    9.0128703     60.70379    40.169965 
39184000    272.27811    327.64731    279.43111   -10.236141    9.8567204    48.216201    40.166439 
39188000    271.70423     342.5952    259.89516   -11.553425    11.139738    82.700037    40.163604 
39192000    270.83705    317.42147    271.40881   -9.2338456    10.504315    46.012657    40.168172 
39196000     268.9816    323.90645    272.97876   -10.302518    11.397107    50.927689    40.167295 
39200000    269.77796     302.5959    300.47756   -9.5510614    8.9053967     2.118335    40.164965 
39204000    277.47757    329.89636    276.26479   -10.577175    10.612436    53.631569    40.163659 
39208000    271.93728      297.924    287.41682   -7.9803531    10.260241    10.507175    40.161615 
39212000    265.37605    297.14621    288.54516   -8.6515787    10.574184     8.601052    40.154988 
39216000    279.13009    333.22569    282.92924    -9.448981    9.9221891    50.296454    40.149638 
39220000    277.12851    316.72609    292.81033   -9.7553067    10.001062    23.915759    40.150031 
39224000    282.47955    345.81516    294.50798   -11.626215    9.0923439    51.307178    40.151468 
39228000    273.10958    307.38685    279.54834   -9.6497729    10.767697    27.838507    40.152668 
39232000    272.22866     325.2364     291.2296   -9.4527204    10.574682    34.006805    40.152993 
39236000    275.22253    329.97996    280.61402   -9.3061876    11.349026    49.365936    40.152339 
39240000     269.3965    319.18904    272.05966   -9.4339556    11.087716    47.129374    40.150407 
39244000    282.96262    337.48182    290.80266   -8.8880009    9.7248948    46.679159    40.147893 
39248000    272.65254    318.99326    306.74148   -9.4932507    9.6337826     12.25178    40.147976 
39252000    266.07448    328.09266    272.69476   -8.1889353    9.9983571    55.397899     40.15043 
39256000    268.82534    316.70521    280.19713    -8.250124    8.9711336    36.508074    40.153457 
39260000    273.58334    324.73526    287.98345   -8.7201434    8.8897386    36.751811    40.150628 
39264000    271.20628    324.19113     282.7469   -8.8746957     10.66877    41.444237    40.152452 
39268000    262.80359    305.19973    277.55477   -7.8082517    10.121606    27.644959    40.152237 
39272000    275.95495    328.68588    303.76009   -9.5882632    9.7526415    24.925793    40.151401 
39276000    265.90439    316.13874    275.05154   -8.4167995    11.338276    41.087202    40.154571 
39280000    265.75491    304.31972    283.30017   -7.6659091    11.064785    21.019552    40.154971 
39284000    272.64206    325.99657    280.51636   -9.3262196    9.5456667    45.480206    40.155968 
39288000     256.6468    308.06161    275.20307   -8.7916253     11.32687    32.858544    40.154496 
39292000    272.36684    336.40899    270.96771   -9.4898805    9.7901402    65.441282    40.156766 
39296000    266.02286    323.86067    270.10972   -8.3155489    10.482861    53.750954    40.155865 
39300000    265.87008    318.86034    272.40751   -8.7068581    10.874516    46.452836    40.155892 
39304000    278.88014    328.33417    301.66074   -9.3742327    9.8802372    26.673422    40.155412 
39308000    271.31568    320.97148    271.88371   -8.2545982    10.355817    49.087767    40.155885 
39312000    273.69268    309.94014    281.00036   -9.2180122    9.6121874    28.939776    40.155093 
39316000    278.25077    319.79096    295.89337   -10.303764    8.1227499    23.897588    40.156085 
39320000    270.78808     334.0507    251.56178   -10.726547    11.274606    82.488919    40.153147 
39324000    267.75003    313.00906    278.94631   -9.1752118    11.048425    34.062752    40.151731 
39328000    276.70875    343.60357    290.58373   -11.425874    10.094918    53.019843    40.150606 
39332000    268.99088     303.3656    288.05374   -8.6032448    10.321273    15.311859    40.151569 
39336000    263.39031    301.74448    265.08302   -9.0760249    11.468734    36.661461    40.150754 
39340000    266.44843    309.73727    263.33432    -10.04903    12.236018     46.40295    40.150024 
39344000    273.21961    333.12315    288.52636   -10.223304    10.561735    44.596793     40.15102 
39348000    270.35716    297.95794    285.18597   -8.0177846    9.9210898    12.771976     40.15078 
39352000    275.10839    343.53682    272.39328   -9.2483221     9.974662    71.143537    40.154069 
39356000    265.21429    325.40366    277.95565   -9.1908028    10.793262    47.448018    40.153413 
39360000    268.70628    312.80445    279.87461     -8.36043    10.291548    32.929835    40.153672 
39364000    275.21645    319.53351    276.41109   -8.3379205     9.950961    43.122426    40.150656 
39368000    269.30637    312.73468    271.47824   -9.9811793    11.065271    41.256441    40.150345 
39372000    273.54795    325.23825    271.05151   -10.692169    10.706433    54.186743    40.151054 
39376000    276.34007    332.73321    288.39041   -9.4368027    9.3492277    44.342799    40.147547 
39380000    269.81728    312.60805    280.45529   -8.9059337    10.304449    32.152764    40.148594 
39384000    274.71561    328.55477    267.71201   -9.0443681    10.919474    60.842757    40.148569 
39388000    271.90644    325.66199    270.69154   -8.5953687     10.48649    54.970454    40.146495 
39392000    260.87217     308.3783    272.26263   -9.5282824    10.618053    36.115671    40.149401 
39396000     266.5539    317.43071    273.98108   -9.5479016    11.659148    43.449636    40.148616 
39400000    274.76204    316.06141    285.85654    -9.842359    10.045941    30.204871    40.149778 
39404000    269.09895    328.93973    266.04264    -10.03474    10.785017    62.897094    40.151265 
39408000    264.54611    323.17333    248.58341   -10.117523    12.545873    74.589926    40.151598 
39412000    275.14346    309.98073    304.88336    -9.633387     9.687718    5.0973746    40.149067 
39416000    271.84706    320.93391    279.01466   -9.3521261    10.447413    41.919242    40.147834 
39420000    270.03849    325.19225    274.89101   -8.9742887    9.7493938    50.301246     40.14884 
39424000    284.11405    338.57004    289.97474   -8.6940989    8.5267259    48.595302    40.146619 
39428000    275.59401    315.83925    290.29919    -8.953736    8.5221102    25.540064    40.143895 
39432000    273.95061    322.86142    280.19872   -9.3388328    9.4701052    42.662698    40.145434 
39436000    272.47933    339.24868    265.20621   -10.310806    10.336541    74.042468    40.148988 
39440000     267.6238    321.41748    274.25024   -8.9443382    9.6545605    47.167238    40.149811 
39444000    282.37661    332.91812    312.77412   -10.547605    9.4299478    20.144001    40.156045 
39448000    270.17655    315.16067    288.00194   -8.9787188    10.757225    27.158731    40.158436 
39452000    273.89641    316.47923    289.84516   -9.5327925    9.5332745    26.634064    40.157813 
39456000    272.12253      316.596    289.34821   -9.1349207    10.251333    27.247792    40.160296 
39460000    274.76176    327.52713    281.57417   -8.6467934    11.112532    45.952964    40.158574 
39464000    270.22049    320.24015    282.32296   -8.5470034    10.626977    37.917188    40.158676 
39468000    265.48116     304.3529    270.91853   -7.6785844    10.775369    33.434376    40.158029 
39472000    271.59748    319.21535    272.34804   -9.4523963    10.629989    46.867309    40.158066 
39476000    275.61694    333.26457    289.75468   -9.7598368    10.294967    43.509893    40.157976 
39480000    267.20335    308.09457    261.42424   -8.1942786    11.945228    46.670339    40.159179 
39484000    269.62742    311.39203    285.44163    -8.924895    11.164806      25.9504    40.158351 
39488000    274.00787    306.30994    281.08263   -8.2187022     10.60914    25.227307    40.158653 
39492000    275.15601    325.71662    279.86855   -8.5218479    11.169485    45.848071    40.158056 
39496000    261.89988    308.81253    275.06334   -8.6838134    10.581428    33.749191     40.16117 
39500000    251.32159     274.1855    279.39952   -6.7450944    10.676594    -5.214019    40.161045 
39504000    270.42403    332.97418    272.98069   -9.6809569    9.8162144    59.993494     40.16113 
39508000    263.98564    324.08708    258.92118   -9.6708815    11.739245    65.165908    40.160985 
39512000    267.44826    319.08289    257.08197   -9.5628532    12.077479    62.000924    40.164403 
39516000    270.54429    312.60611    290.28101   -8.2462506      9.10119    22.325099     40.16045 
39520000    271.54095     309.6497    293.78756   -8.2901965    9.5933916    15.862143      40.1589 
39524000    266.71779    328.62769    275.92722   -10.058287    9.8438648    52.700474    40.162355 
39528000    267.43197    307.05317    306.22401   -9.3323991    10.813835   0.82916033    40.158391 
39532000    270.47831    324.10335     285.1832   -9.7627341    10.225165    38.920152    40.160961 
39536000    267.78464    299.68549    283.76263   -9.6634434    10.386566    15.922859    40.165307 
39540000    272.58633     332.1413    261.74987      -10.523    11.640347    70.391437    40.166471 
39544000    285.22338     336.7854    301.86056   -10.921275    8.7916665    34.924844    40.161068 
39548000    268.50261    318.33053     269.5607   -10.997354    11.317146    48.769836    40.157028 
39552000    272.21032    320.43977    294.13975   -9.2324844    10.224936    26.300028    40.153826 
39556000    269.98411    325.42652     285.2807   -9.4297461     10.26826    40.145818    40.152161 
39560000    265.71831    313.20892    278.49115   -9.5739187    9.7635619    34.717769     40.15269 
39564000    273.53242    314.11304    294.20362   -8.9369355    9.1745447    19.909418    40.151454 
39568000    274.17069    329.81712     278.9725   -10.326897    10.839755    50.844618    40.148919 
39572000    266.01033     306.3381    279.41411   -8.4715234    10.872492    26.923989    40.149185 
39576000     261.5642    300.83407    284.50606    -8.778942    11.795059    16.328007    40.145998 
39580000    279.98508    318.94154    301.53002   -10.871916    9.6316026    17.411523    40.149647 
39584000    278.02825     340.9195    282.85962   -11.630213    10.582124    58.059884     40.15127 
39588000    270.45597    311.24171    296.25841   -9.4720456    10.183939    14.983296    40.152496 
39592000    262.01742    291.97717    265.74863   -8.8350465    11.401292    26.228542    40.151981 
39596000    261.53748    292.23443    271.21769   -8.4065836    10.694892    21.016738    40.152805 
39600000    273.20685    348.72937    275.37399   -11.046604    11.614476    73.355384     40.15759 
39604000    273.73401    345.94458    270.08185   -10.504025    10.910846    75.862727    40.158828 
39608000    258.24901     309.2686    264.71632     -8.83548    11.553138    44.552275    40.159495 
39612000    278.04025    339.40583    289.77493   -9.9322436    9.1702728    49.630903    40.160909 
39616000    275.64514     317.0485    294.86374   -9.6093129    9.8531544    22.184765    40.161187 
39620000    270.39962    302.67735    282.33946   -9.6963597      10.6043    20.337885    40.162599 
39624000    280.19195    331.75821    297.86207   -9.9856592     10.27858    33.896136    40.159655 
39628000    272.79837    324.96996    274.51723   -9.8349585    10.884242    50.452731    40.156014 
39632000    272.45325    304.58712    279.70439   -8.7089607    10.487177    24.882732    40.158065 
39636000    272.32203    321.86963    278.58592    -10.68611    10.707889    43.283709    40.159994 
39640000    271.96432    329.23815    277.18964   -11.040301    10.314438    52.048505    40.160518 
39644000    272.82571    319.49461    282.43105    -9.536506    9.1457164    37.063557     40.16345 
39648000    273.00366    334.35982    278.00226   -10.340248    11.309372    56.357557     40.16727 
39652000    267.21862     317.6305    278.93848   -9.2946279    11.000936    38.692022    40.168997 
39656000    276.35886    324.27838    287.25063   -9.3165509    9.0990279    37.027755    40.170514 
39660000    269.71252    319.68502    272.93652   -9.6762613    10.106518    46.748497    40.170356 
39664000    279.03005    354.65554    305.48778   -11.150053    9.9468584    49.167759    40.175117 
39668000    268.51499    317.95242    280.67157   -8.5753211    11.264996    37.280855    40.174268 
39672000    266.48817    320.40149    274.22565   -8.5913352     11.58867    46.175841    40.175253 
39676000    273.73505     322.5701    279.26339   -9.7132735    11.122282    43.306716    40.178165 
39680000    270.28621    301.66924     292.8364   -8.7354855      10.9835    8.8328325    40.173632 
39684000    269.05764    327.42466     276.7621   -9.5017931    12.348699    50.662567    40.173411 
39688000    267.63602    306.23774    283.00352   -8.8573816    12.387052    23.234215     40.17353 
39692000     270.8733    342.34209    287.04273    -10.05597    10.582785    55.299369     40.16937 
39696000    271.57075    338.32652    261.13245   -10.713786    12.774344    77.194068    40.170889 
39700000    269.22623    324.28385    274.72051   -8.8219696    11.459759    49.563335    40.168907 
39704000    271.60979    317.81908    292.41766   -9.2455153    10.865507    25.401426    40.167743 
39708000    265.32453    300.90243    274.77089   -7.3885937     11.39913    26.131541    40.166749 
39712000    261.74818    301.37028    277.45151   -8.5088881     11.09993    23.918768    40.167716 
39716000    266.29761    305.58773     281.7463   -9.0665453     11.64152    23.841425    40.169006 
39720000    257.11559    301.44539    281.54398   -9.0031841     13.55441    19.901408    40.170907 
39724000    259.30379    318.72744    285.33507   -10.247989    12.543586    33.392366    40.171616 
39728000    262.41622    319.77839    281.44562   -9.7197074    12.032223    38.332773    40.173757 
39732000    267.48449    328.53596    288.30946   -8.6804872    10.781305    40.226503     40.17736 
39736000    263.70431    320.63855    255.10896   -8.5416877    12.497972     65.52959    40.177543 
39740000     255.0765    313.32118    262.26851   -8.2468272    13.557671    51.052667    40.175966 
39744000    264.64348    311.73302    292.89436   -6.7770938    11.071139     18.83866    40.175754 
39748000    268.18964    336.04712    290.27594   -9.3527662     11.82333     45.77118    40.178615 
39752000    265.24127    324.22633    286.01548   -8.2909676    11.082073    38.210843    40.180958 
39756000     272.8647    336.50078    279.43171   -9.2524676    11.645501    57.069072    40.182197 
39760000    260.73916    307.96641    278.09833   -8.5257418    11.599176    29.868083    40.179998 
39764000    270.04278    298.92999    291.32077   -7.2232791    11.546525    7.6092268    40.178881 
39768000    267.46885    312.28512    282.28184   -8.5262847    10.433428     30.00328    40.179547 
39772000    272.26057    324.86893    300.08621   -9.0248413    9.7031592    24.782729    40.178526 
39776000    260.69228    317.79891    269.15167   -8.0425761     11.89739    48.647246    40.176881 
39780000    277.71179    343.16775      278.555    -10.00108    12.246985    64.612753    40.174347 
39784000    255.13284     294.0334    269.72906   -6.7754302    11.952679    24.304341    40.172338 
39788000     264.0609    300.70118     286.2067   -8.8930731    10.616491    14.494482    40.171859 
39792000    266.73142    345.98377    282.30646   -10.033327    11.629853     63.67731    40.173285 
39796000    264.55297    315.80852    270.75515   -8.7928103    12.882181    45.053377    40.176292 
39800000      267.887    328.05937     261.8554   -9.1442142    11.977516    66.203975    40.173548 
39804000    273.83186    317.57799    308.05465   -7.5636503    10.357004    9.5233317    40.167629 
39808000    283.76122    336.25052    305.12572   -11.865086    9.3292817    31.124804    40.170102 
39812000    266.38901    300.96435     271.1372   -9.5268246    11.842268    29.827148     40.17408 
39816000    264.68353    283.78821    291.05054   -8.0245456    11.411155   -7.2623326    40.173057 
39820000    273.51214    320.04899    282.70209   -8.8971724    11.034103    37.346899     40.17197 
39824000    264.53913    300.64901    286.87951   -7.5488672     11.32835    13.769501    40.169619 
39828000     270.2515    328.52051    270.63261   -8.8951108    12.865146    57.887907    40.168756 
39832000    271.55651    352.23773    275.56084   -10.508866    12.841047    76.676885    40.171255 
39836000    279.38634    316.82464    286.82381   -9.8093838    11.721866    30.000825     40.17102 
39840000    261.44828    309.19508    273.77147   -7.8821005    11.458514    35.423609    40.172362 
39844000    268.98151    313.33459    288.15399   -8.0572251    10.585308    25.180599     40.17068 
39848000    271.52657    328.93397     277.2997   -8.3156964    11.465957    51.634272    40.171597 
39852000    264.77166    316.92484    270.61909   -8.2348133     11.09304    46.305745    40.172848 
39856000    265.29151    298.19726    278.63735    -6.701832    11.015856    19.559907    40.168938 
39860000    269.98217    332.39659    264.09301   -9.7124964    11.228446    68.303575    40.168335 
39864000    266.27505    293.88296    282.38232    -7.018438    10.485196     11.50064    40.164555 
39868000    275.83156    330.06259    293.42954   -8.1039813    9.7526541     36.63305    40.164046 
39872000    275.40317    320.27247     286.4122   -8.2437173    10.674992    33.860269    40.161614 
39876000     261.7474    309.70016    267.57391   -7.6360547    10.747489     42.12625    40.162155 
39880000    269.65083    306.22869    273.92443   -8.2663729    10.403078    32.304262    40.163434 
39884000    265.36468    312.27775    281.15155   -7.1275388    9.4633283    31.126196    40.159259 
39888000    273.72029    333.69097    292.32883   -8.2666884    10.559666    41.362139    40.158772 
39892000    274.17302    328.14856    285.81792   -9.5170449    10.548747    42.330639    40.158013 
39896000    264.32344     304.5155    284.19189     -9.19031    11.142341    20.323619    40.157024 
39900000    271.18886    347.92136    294.03875   -9.6974854    10.727104    53.882608    40.156218 
39904000    266.95231    312.22713    275.76258   -8.0684227    10.487642    36.464549    40.155545 
39908000    270.96319    301.88975    289.40847   -8.0085435    9.6192152    12.481278    40.155342 
39912000    272.54416    306.70436    305.64266   -8.3175959     9.832465    1.0616996    40.157982 
39916000    267.26353    304.86094     278.3915   -9.0591102    10.957724    26.469433    40.156029 
39920000    274.82205    347.94388    268.01058   -11.561409    10.513986    79.933305    40.158792 
39924000    283.18222    324.56825    292.21907   -10.598115    9.2494944    32.349183      40.1583 
39928000    278.14555    333.80837    274.57215   -10.906485     10.68029    59.236224    40.159628 
39932000    273.69325    310.55711    289.49594   -10.185936     11.23521    21.061165    40.157869 
39936000     269.0823    314.52584    265.83269   -10.269902    11.983354     48.69315     40.15487 
39940000    276.56037    327.07408    283.10584   -9.7386497    11.338241    43.968236    40.155273 
39944000    263.80791    317.04335    269.40446   -10.104274    12.246534    47.638895    40.160428 
39948000     277.6836    317.55485    298.50972   -9.2846025    11.469207    19.045123    40.161908 
39952000    274.55296    312.12112    285.18093   -9.2877688    11.693883     26.94019    40.161694 
39956000    265.44743    316.26841    263.77711   -9.4073854    11.261532    52.491304    40.164663 
39960000     277.0223    348.75119    263.86773   -10.992529    11.920514    84.883468    40.165368 
39964000    275.52314    336.65455    268.72003   -9.9432035    11.001332     67.93452    40.160475 
39968000    273.42526    318.80172    280.84664   -9.7280329    11.127726    37.955079    40.158363 
39972000    274.03555    332.46864    275.47647   -10.199604    11.016064     56.99217    40.158531 
39976000    276.99627    322.75745    307.84508   -9.3391986    9.4101389    14.912372    40.160901 
39980000     273.5298    310.48876    302.98583   -9.2535219    9.6526577    7.5029304      40.1646 
39984000    271.67735    312.22186    279.64652   -8.9572795    10.762578    32.575335     40.16521 
39988000    269.36996    323.69587    277.69772   -10.433557    10.102554    45.998149    40.170538 
39992000    264.30807    297.90166    266.84047   -8.9214512    11.544227    31.061191     40.17351 
39996000    262.32732    315.32411    269.73056    -9.494722    11.427612    45.593551    40.172183 
40000000    271.49981    326.18232    263.05884   -10.256676    10.596749    63.123479    40.169221 
40004000    270.59983    314.27974    294.31666   -10.107827    9.6048167    19.963088    40.166803 
40008000    255.07487    283.37693    266.10258   -8.6110164    11.269134    17.274348     40.16761 
40012000    278.66869    331.42932    292.74622   -10.438181    10.085222    38.683104    40.166417 
40016000    275.70463    349.33404    293.73175   -12.334827     9.352881    55.602291    40.169554 
40020000     272.3398    329.55757    263.03096   -11.265692    10.793158    66.526615    40.169723 
40024000    266.80831    311.30799    257.51201   -10.420469    11.256433    53.795977    40.168299 
40028000    275.41387    331.76362    269.14724   -10.939857    11.496353    62.616378    40.169964 
40032000    272.92637    303.95487    283.23232   -8.7051862    9.7713626    20.722548    40.166432 
40036000     267.8449    323.62131    268.31393   -9.6637658    10.418401    55.307384    40.163106 
40040000    271.89531    299.46814    292.83711   -9.3049194    9.9189971    6.6310252    40.163273 
40044000    275.87536    322.71081    293.67134   -10.501527    9.5659392    29.039472    40.166247 
40048000    276.29556    308.30717    285.62929   -9.8687078    10.240548    22.677884     40.16666 
40052000    275.14427    322.33063    287.13862   -10.148284    11.431785    35.192006     40.16886 
40056000    273.53914    305.12903    290.72319   -10.092611    10.414868     14.40584    40.170811 
40060000    273.10357    303.30011    289.85586   -8.5411961    10.171143    13.444254    40.169495 
40064000    278.25557    333.94098     294.4828   -10.239209    10.977642    39.458185    40.168981 
40068000    273.52459    328.07302     271.0958   -9.5398312    11.485273    56.977218    40.172406 
40072000    268.36333    325.03135     249.2098   -9.1264614     12.81863    75.821547    40.172157 
40076000    270.27219    324.38066    279.64045   -9.4510276    10.444856    44.740209    40.170889 
40080000    267.33689    335.24384    271.11813   -9.7146221    11.590493    64.125712    40.171706 
40084000     265.0557    331.30443    253.99856   -9.9795712    12.215143    77.305871    40.171005 
40088000    269.97969    315.91939     280.3414   -8.3960427    11.280521    35.577991    40.171767 
40092000    272.14767    302.63434    318.43571    -8.343234    10.024094   -15.801369    40.172368 
40096000    272.60565    321.87915    293.18247    -9.215578    10.004484    28.696676    40.172033 
40100000    266.04022    332.63263    277.78931   -9.1778719    11.280457     54.84332    40.172434 
40104000    270.38205    320.74916    284.60008   -8.3458884    10.936163     36.14908    40.174324 
40108000    270.02967    319.63454    280.71647   -9.1158336    11.503865    38.918062    40.176163 
40112000    253.55079    313.82048    260.78274   -8.0571854    12.554605    53.037742    40.178424 
40116000    265.23939    317.23102    271.15101   -7.9586401    11.310859     46.08001    40.181329 
40120000    263.46169    315.39332    278.42687   -8.9885682    11.696909    36.966447     40.18515 
40124000    265.48444    289.68607    296.15363   -7.8860903    10.605809   -6.4675663    40.184722 
40128000    272.27299    330.86146    284.81487   -10.154849    10.846344    46.046596    40.182469 
40132000    264.46149    327.36747    252.90003   -8.8363882    10.344344    74.467441    40.182554 
40136000    276.88526    321.63846    282.96265   -8.3950078    10.530055    38.675808    40.181283 
40140000    262.12379    330.53305    253.21219   -8.6057925    11.932922    77.320859    40.181402 
40144000    268.78745    333.33474    269.10718   -8.9039343    10.756005    64.227558    40.184315 
40148000    271.04905    317.57781    281.05422   -8.4468325    10.800214    36.523588    40.187922 
40152000    264.90103    321.24885    273.48035   -8.8846887    11.047917    47.768496     40.18877 
40156000    263.82655    314.44424    258.12379   -8.9358284    11.573442    56.320443    40.188293 
40160000    267.56881    311.43615     282.5801   -7.1091324    10.887328     28.85605    40.187878 
40164000    268.23653    319.68173    282.11078   -7.6980738    10.850692    37.570942    40.185666 
40168000    269.55921    316.50281    284.57811    -8.697359    9.9763513    31.924695    40.186259 
40172000    281.57115    336.98156    290.51517   -9.7453102    9.7374791    46.466388    40.188957 
40176000    271.69302     326.3993     260.0034   -8.4450298    11.200287      66.3959    40.187302 
40180000    268.34089    328.38162    298.88934   -9.5598658    9.2037291    29.492283     40.18715 
40184000    273.61043    345.40972    285.84864     -10.7773    10.292088    59.561084    40.187731 
40188000    260.53666    323.66555    265.61493   -8.4825838    12.488781    58.050623    40.188176 
40192000    261.94788    309.01315    273.54475   -9.0785441     10.89561    35.468401    40.188647 
40196000     270.9964    329.02866    274.79091   -10.196338    11.887878    54.237749    40.187965 
40200000    265.46884    328.59082    264.79101   -10.324129    10.795241    63.799814    40.190352 
40204000    273.94359     328.1467    288.21606   -8.9173244    10.494425    39.930639    40.188447 
40208000    272.94063     324.1875    278.21688   -9.9617522    9.9518397     45.97062    40.189079 
40212000    266.88503    319.67236    279.23292    -8.945632    9.9020843    40.439447    40.190321 
40216000    268.50439    305.86308    284.47018   -8.2823321    10.501559    21.392893    40.188892 
40220000    278.36388     345.9879    276.31534   -10.521333    10.565524    69.672558    40.191017 
40224000    261.79087    306.45625    267.30819   -9.1353048    11.380701    39.148056    40.189694 
40228000    273.79478    334.39677    291.65879   -10.726328    10.267116    42.737981    40.192283 
40232000    277.14052    326.21236    276.04659   -9.5683042    9.8074488    50.165769    40.195173 
40236000    258.67509     289.1844    261.95931   -9.0171919    10.285198    27.225088     40.19603 
40240000    271.01491    327.16244    267.11443   -10.376958    10.579568    60.048008    40.193723 
40244000    270.99195    326.01012    282.97989   -9.3966223    9.0280031    43.030227    40.197725 
40248000    271.14374    315.78906    286.41761   -9.1891096    9.3825043    29.371443    40.197163 
40252000    264.17456    296.29719    295.00316   -7.8160343    8.8066753    1.2940336    40.192558 
40256000      275.219    342.35342    271.61694   -10.370974    10.042397     70.73648    40.196185 
40260000    266.26683    304.38657    282.09469   -7.7050024     10.05294    22.291879    40.196092 
40264000    274.14365    300.43572    293.32062   -8.1989107    8.3809319     7.115104    40.197417 
40268000    276.34432    330.02103    277.55514   -10.327697    9.7520895    52.465885     40.19917 
40272000    281.86379    341.59067    298.22774   -10.607368    10.039412     43.36293    40.198704 
40276000    269.13538    293.03223    292.16781   -8.6509837    8.9105792   0.86442355     40.19916 
40280000    265.57736    307.24172    283.81496   -8.9049542    9.1438201    23.426758    40.199966 
40284000    281.68727    330.56204    297.35481   -10.141159    9.2615416    33.207229    40.200375 
40288000    277.90485    319.05423    295.67641   -9.2777504    8.8449838    23.377823    40.201108 
40292000     267.9334     314.7004    263.38433   -10.090076     10.57052    51.316072    40.199988 
40296000    278.74687    320.73047    287.21411   -9.9422765    9.6405663    33.516362    40.199861 
40300000    269.94158    305.85533    277.43817   -8.1552046    8.1961711    28.417161    40.200065 
40304000    268.24494    308.78508    268.23456   -9.6724637     8.639173    40.550521    40.193525 
40308000    278.09785    313.55598    292.76204    -9.273889     8.997883    20.793943    40.193606 
40312000    273.76484    346.82812       271.62   -10.250854    10.075524    75.208126     40.19605 
40316000    276.18437    308.84655    288.29681    -9.832246    8.9553759     20.54974    40.197466 
40320000    272.20339    318.75115     294.6121   -10.017518    8.5172314    24.139054    40.196965 
40324000    275.47292    324.59145    297.25274   -9.8784392    8.5141205    27.338708     40.19702 
40328000    283.90193    339.70402    291.58648    -11.24806    9.6475814    48.117538    40.196177 
40332000    275.94269    314.25868     282.7063   -9.4844082    8.6356456    31.552375    40.194202 
40336000    273.84786    319.87416    292.52425   -9.7211881    8.0138567    27.349906    40.195511 
40340000    261.11008      309.528    244.85357    -9.141764    10.970859    64.674422    40.194754 
40344000    269.21663    327.81125    255.04388   -10.173136     10.95904    72.767372    40.194541 
40348000    279.06939    327.29028    276.29149   -9.9603994    9.9253674    50.998782    40.193875 
40352000    271.30505    308.18575    277.60058   -8.8387158    9.7687425    30.585169    40.192267 
40356000    270.43625    317.51014    281.31594   -10.235912    9.2298926    36.194208    40.191407 
40360000    275.95624    308.29258    289.76801   -8.9153209    9.1937504    18.524573    40.194519 
40364000    277.43362     333.7391    290.09935   -10.684556    9.0994814    43.639747    40.192063 
40368000    272.21962    317.12024    268.75216    -9.967114    10.942495    48.368081    40.194605 
40372000    270.53105    324.92607    259.80789   -9.5108851    10.457119    65.118185    40.196282 
40376000    279.15738    324.54613    285.82429   -10.111988    7.9016655    38.721838    40.198024 
40380000    279.34483    334.46452     275.6205   -10.964614    10.373124    58.844014    40.199977 
40384000    273.25105    323.06487    276.47104   -8.5542844    9.8996024    46.593828    40.199181 
40388000    273.10462    304.48007    287.82018   -8.9842366     9.932017    16.659888    40.197703 
40392000    271.47294    311.52495     277.3785   -9.9903159    10.143309    34.146454    40.198252 
40396000    269.75329     330.6757    270.78091   -11.231308    9.9851874    59.894786    40.198867 
40400000    278.76241    312.44723    306.39119   -9.1582215    9.4131339    6.0560393    40.199316 
40404000    277.10807    334.86233    265.24575   -10.229067    10.917072    69.616575    40.204366 
40408000    278.97524    329.20093    281.51499   -10.282886    10.052897    47.685936    40.205505 
40412000    276.29213    330.77173    283.75829    -10.77703    9.4253423    47.013435    40.205553 
40416000    272.72409    324.81843    283.15268    -10.26173    9.3641605    41.665749    40.204342 
40420000    274.18322    312.30886     280.1813   -9.5762689    9.7400258    32.127558    40.202089 
40424000     276.6741    316.40599    280.79867   -9.0698613    9.5499748    35.607319    40.202778 
40428000    281.56198    331.30298    290.05068   -9.6424897    10.034922    41.252299    40.199738 
40432000    277.05443    319.55121    274.65157   -10.043524    9.2317314    44.899639    40.202881 
40436000    278.41475    327.65603    272.59018   -10.156307    9.9882031    55.065857    40.203211 
40440000     280.0215    340.06785    269.89477   -11.613231    10.064063    70.173081    40.206388 
40444000    270.36304    303.87131    285.54574   -10.505411    10.602601    18.325564    40.206401 
40448000    271.48604    322.21409    265.99761   -9.9300022    10.207019    56.216485    40.202776 
40452000    271.86301    326.37676    278.23655   -10.504043    9.4759172    48.140207    40.204301 
40456000    278.92454    348.05807    291.38414   -11.380502    10.032889    56.673935    40.205321 
40460000    277.12498    324.73879    293.12909   -10.977118    10.745702    31.609704    40.202055 
40464000    265.98121    302.69661     271.4409   -10.359356    11.146821    31.255708    40.202353 
40468000    273.59184    331.53375    273.18838   -11.436901    11.685026    58.345371    40.202357 
40472000    280.85224    343.66238    258.71151   -12.524098    12.466912     84.95087    40.202618 
40476000    270.09581    311.31176    278.99855   -10.155943    10.171676    32.313209    40.206406 
40480000    274.59546    321.74707    265.26428   -10.151634    10.356576    56.482793    40.206349 
40484000    270.97582    322.32971    284.28646   -9.8006963    9.2742058     38.04325     40.20546 
40488000    279.21891    331.23032    285.62827   -11.186146    9.7827033    45.602045     40.20598 
40492000    275.39549    308.58954    291.56285   -10.742422    9.3793377    17.026686    40.205158 
40496000    277.37349    314.00455    298.44157   -10.800843    10.284357    15.562982    40.203309 
40500000    264.72694    322.59465    262.39203   -10.164354    10.970165    60.202624    40.203083 
40504000    283.05929    333.40292    291.73402   -11.123781    10.403838    41.668896    40.202691 
40508000    271.72364    326.21734    277.66338   -10.507922    10.726945     48.55396    40.204022 
40512000     269.0673    337.25946    265.68859   -10.983347    10.207966    71.570868    40.201305 
40516000    273.69718    343.84029     274.8202   -10.478777    12.035228    69.020093    40.203415 
40520000    268.64241    326.69342    287.20065   -11.711273    10.878127    39.492762    40.202882 
40524000    272.84957    306.18355     304.3027   -8.8823369    10.273134    1.8808542    40.202442 
40528000    260.63413    306.77849    273.41172   -8.8213362    11.648003     33.36677     40.20213 
40532000    261.88519    306.55322    272.18822   -9.5071347     11.78045    34.364997    40.201998 
40536000    271.49026    318.27874    266.93286   -11.771398    11.813774    51.345876    40.200596 
40540000    270.96269    320.63477    278.58494   -10.572275    11.185437     42.04983    40.201296 
40544000    266.43401    320.70296    286.55034   -10.447474    10.731938     34.15262    40.205086 
40548000    271.48571    302.86991    286.68995   -10.054441    11.224563    16.179965    40.204842 
40552000    267.83796      307.939    271.85452   -9.9671431    12.253496    36.084482    40.202768 
40556000    269.10078    332.20028    271.60681   -11.150028    11.323363    60.593465    40.203707 
40560000    265.60511    304.30745    270.45872   -10.071534    11.317266     33.84873    40.199875 
40564000    277.65472    341.32436    286.49326   -11.772004    11.392639    54.831101    40.200247 
40568000    276.01908    326.46439    296.02285   -11.264056    10.059153    30.441544    40.200346 
40572000    269.93816     310.7519    291.65561   -10.707972     11.04552     19.09629    40.200421 
40576000    271.89038    331.11637    282.66717   -11.063897    12.188105    48.449206    40.202957 
40580000    272.61545    298.82334    292.44157   -9.6344517    10.971359    6.3817688     40.20048 
40584000    264.48417     306.6268    273.44138   -9.9717655    11.938936    33.185413    40.200125 
40588000    272.55333    321.98121    291.22945   -10.466787    10.656393    30.751761    40.201907 
40592000    257.50876    300.67787    255.82829   -8.9629289    12.790894    44.849581    40.204328 
40596000    272.95313    326.83256    291.90044   -11.729322    10.784101    34.932124    40.200543 
40600000    276.29981    349.97975    295.13307   -12.797964    10.777134    54.846678    40.199696 
40604000    269.24699     316.8141    278.16275   -10.417232    12.920299    38.651353    40.200155 
40608000    262.41207    314.50383    255.75328   -11.183249    14.272799    58.750552    40.197375 
40612000    278.15509     329.7424    286.63898   -11.274469    12.276168    43.103415    40.197971 
40616000    264.00421    314.18395    271.75287   -10.141768    13.897408    42.431081    40.198159 
40620000    260.35715    303.68326    263.44228   -8.8326851    13.283304    40.240975    40.196775 
40624000    275.92837    348.13337    270.57261   -11.672313    12.954004    77.560759    40.199281 
40628000    280.29581    324.30109      306.015   -9.9423851    10.766989    18.286098    40.199737 
40632000    260.77274    285.77591    277.28563   -10.660275    11.548037    8.4902787    40.196788 
40636000     268.7146    303.16542    282.43724   -11.001209    11.912277    20.728173     40.19166 
40640000    267.51502    320.47136      256.102   -12.510032    13.035585    64.369357    40.192494 
40644000    275.41026    336.64204    288.82875   -12.774467    11.479078    47.813288    40.189895 
40648000    272.12725    308.71916    286.07163   -10.417458    10.023776    22.647528    40.190126 
40652000    269.62921    315.93883    270.26291   -11.744607    11.244588    45.675917    40.187287 
40656000    274.17353    319.14778     291.9066   -11.465213    10.159047    27.241181    40.186882 
40660000     273.7433    316.29161    284.61538   -11.322456    10.681833    31.676232    40.184004 
40664000    270.90659    324.80429    271.72693   -11.102948    11.540054    53.077362    40.186249 
40668000    280.01805     339.2635    290.79617   -11.627573     10.62007    48.467327    40.184293 
40672000    270.32936    298.28267    298.09975   -9.7037893    11.146893   0.18292605    40.182306 
40676000    272.50387    315.88951    291.14053   -10.703628    10.824943    24.748984     40.18202 
40680000    269.20642     320.2454     264.6442   -11.004525    12.696582    55.601198    40.179682 
40684000    267.62092    329.73568    267.21066   -11.184033    12.326192    62.525019    40.179901 
40688000    271.88095     316.1049    272.75218   -9.7684673    12.438326     43.35272    40.181997 
40692000    269.34712    331.23639    267.69985   -11.926169    12.153552     63.53654    40.183338 
40696000    274.80077    300.40825    293.37379   -11.572918    11.088424     7.034468    40.183194 
40700000    270.72763    338.39063    270.70962   -12.656798    12.790666    67.681012    40.183077 
40704000    263.60204    300.89752    274.16833   -9.9051634    11.926735    26.729186     40.18398 
40708000    274.98364    314.24586    279.63842   -10.302831    10.378446    34.607436    40.185395 
40712000    276.90376    343.10819    282.66708   -10.795803    9.9149589    60.441114    40.186136 
40716000    276.18933    299.84527    279.88918   -10.029194    11.436387    19.956093    40.186406 
40720000    270.79646    316.24056    275.98903   -10.380918    11.460543    40.251529    40.187333 
40724000    270.77706     300.3279     293.6116    -9.329657    11.689066    6.7163052    40.187241 
40728000    273.83217    324.49389    270.29207   -10.836353    12.144361    54.201821    40.187799 
40732000    272.73185    312.81072    281.82727   -9.6420266    10.521328    30.983446    40.186517 
40736000    281.05028     347.2969    283.34053   -11.875745    11.501895    63.956377    40.186958 
40740000    278.60834    329.83137    291.93462   -10.941146    11.377829    37.896749    40.191035 
40744000    275.61633     335.2597     302.9218   -10.752841    10.505469    32.337899    40.192319 
40748000    281.14124    330.09102    289.64298   -10.652717    11.015896    40.448031    40.191281 
40752000    280.25558     328.7925    279.69622   -11.317009    10.403632     49.09628    40.190692 
40756000    265.94635    309.72847    284.17305   -11.077973    9.9259179    25.555415    40.188346 
40760000    270.92051    321.61302    300.86086   -11.047446    10.113351    20.752154    40.186248 
40764000    275.59598    328.06832    268.25903   -11.843251    11.494177    59.809284    40.187051 
40768000    271.22797    298.32992    283.69298    -9.613031    12.045955    14.636933    40.186087 
40772000    264.83139    319.97269    266.52185   -9.9907643    12.136176    53.450836    40.183617 
40776000    275.31634    321.06119      275.618   -10.417686    11.055693    45.443193    40.180531 
40780000    272.62367     327.8545    292.92721   -12.031184    11.546004    34.927286    40.178501 
40784000    279.27086    337.32722    283.51082   -12.212956    10.763419    53.816396    40.182564 
40788000    265.58684    290.41185    278.75356   -10.989666    11.490857    11.658291    40.185024 
40792000    264.14784    282.86396    260.61221   -9.6258044    12.719058    22.251751     40.18457 
40796000    275.20091    323.93306    287.40168   -11.292545    11.170306    36.531375     40.18541 
40800000    267.70059    317.70021    279.50118   -11.158146    10.819778    38.199029    40.186041 
40804000    273.56909    325.52975    267.43863   -11.272555    10.148406     58.09112    40.184336 
40808000     272.4226     317.2548    285.81303   -10.349688    10.162403     31.44177    40.182303 
40812000    271.66885    313.71182     273.8185   -9.7674885    11.771497    39.893324    40.181176 
40816000    272.60299    321.83953     261.4167    -11.37903    11.669059    60.422833     40.18293 
40820000    268.39882    315.26451     260.3561   -11.665625    12.153631    54.908405    40.184995 
40824000    267.76947    326.26052    263.39191   -10.779926    12.084814    62.868609    40.185873 
40828000    272.16498    330.28494    275.32616   -11.020694    11.183936    54.958787     40.18385 
40832000    282.33679    332.63657     289.8579   -10.441161    11.043493    42.778662    40.185863 
40836000    274.36934    321.49463    276.27419   -9.9972833    11.551543    45.220444    40.188826 
40840000    268.48648    325.30783    267.46558   -9.8974876    11.411663    57.842252    40.188782 
40844000    271.62599    331.59834     273.0656    -10.88378    11.534177    58.532743    40.189719 
40848000    278.18227    334.91619    292.44122   -11.901308    11.377485    42.474967    40.186754 
40852000    277.67707    326.92537    279.56119   -11.657187    11.414747    47.364182    40.188124 
40856000    282.70458    345.78368    280.24471   -12.747272    9.1609452    65.538971    40.184613 
40860000    282.86104    332.67071    284.91044   -12.139403    10.618354    47.760269    40.183814 
40864000    275.84847    313.31539    286.58023   -10.956278    10.122263    26.735158    40.182213 
40868000    282.14589    326.56823    310.43429   -12.082525     9.110838    16.133939    40.180003 
40872000     261.0325    312.51857    254.60504   -11.377925    12.339591    57.913533    40.179817 
40876000    273.56184    329.16085    292.22862   -10.174521    11.208228     36.93223    40.181352 
40880000    275.82311    326.43895    283.98728   -11.305131    11.058505    42.451671    40.183404 
40884000    273.13002    326.36793    280.35925      -11.441    11.008694    46.008678     40.18465 
40888000    267.12746    300.53074    281.30618   -10.531413    11.330126    19.224562     40.18289 
40892000     269.4044    297.70265    294.09434    -9.990969    11.574868    3.6083061    40.183198 
40896000    266.39571    305.24024    277.66881   -10.175811    12.561218    27.571432    40.183174 
40900000    282.13135    334.16684    304.85565   -10.155619     10.58694     29.31119    40.180185 
40904000     276.6267    332.10565    281.48057   -11.199974    13.141496    50.625077    40.181472 
40908000    267.01562    307.50945     276.2746   -9.3507375    12.126708    31.234851     40.17609 
40912000    276.76372    349.28731    273.58799   -12.379164     12.37795    75.699328    40.176949 
40916000    267.33768    311.59144    279.04276   -11.612803    13.059722     32.54868      40.1792 
40920000    273.41652    333.53592    285.74171   -12.558892    12.025819    47.794209    40.180303 
40924000    267.46474     307.8126      285.778   -10.278728    12.737921    22.034603    40.181646 
40928000    268.02484    311.45393    266.33466   -10.308357    13.342386    45.119269    40.184643 
40932000     270.4851    318.81695    276.17411   -11.223439      12.8111    42.642843    40.184512 
40936000    274.15482    317.54262    279.06585   -10.932643    12.476103     38.47677    40.184632 
40940000    272.29334    309.80046    290.86039   -10.691992    12.037955    18.940063    40.184888 
40944000    274.86516    323.47208    291.67689   -10.584865    11.790463    31.795185    40.185951 
40948000    277.19617    322.56203    312.71235   -10.837169    11.123083    9.8496821    40.186623 
40952000    275.70273    317.90191    277.35249     -11.4558    12.266368    40.549416    40.188528 
40956000    277.90904    303.44684     296.4379   -10.078589    10.377312    7.0089386    40.188016 
40960000    277.32665    330.37825    295.68873    -11.05702    11.386552    34.689516    40.187942 
40964000     280.1509     339.7766     284.0574   -10.931424    11.502793      55.7192    40.187431 
40968000    271.25097    332.91589    271.79899   -10.532632    11.491687      61.1169    40.189199 
40972000    274.75026    321.74055    277.99693    -9.704824    11.845696     43.74362    40.187747 
40976000    263.37518    321.96931     253.9246   -9.2933922     12.08492    68.044707    40.191088 
40980000    279.95546    331.81361    313.02156   -10.546859    9.8144836    18.792042    40.189083 
40984000    266.82051    326.05379    276.16032     -9.10685     11.58461    49.893472    40.192803 
40988000    268.01153    304.78804    270.64454   -11.196869     11.92043    34.143498    40.193173 
40992000     280.0151    335.32392    275.30345   -9.7187406    12.348395    60.020475    40.195613 
40996000    277.66207    337.99782    291.37878   -11.227881    11.468342    46.619042     40.19744 
41000000    279.39871    319.58174    298.90745   -10.515682    10.103191    20.674288    40.195783 
41004000    276.65293    326.50903    280.89985   -10.846355    10.968827    45.609189    40.196211 
41008000    269.95676    308.05353     296.2287   -9.5902696    9.2972478    11.824834    40.197145 
41012000    270.19429    302.38073    287.49334    -9.502672    9.4515425    14.887393    40.195581 
41016000    267.86839    328.92719    280.91198   -10.748872    12.023511     48.01521    40.195537 
41020000     270.4745    324.52997    289.05359    -9.603822    11.625047    35.476379    40.196332 
41024000    265.49154    304.94237    273.24092   -9.5753273    12.556307    31.701456    40.195217 
41028000    271.30105    314.17781    279.04197    -8.768321    11.930045    35.135834    40.194574 
41032000    269.02698    307.98293    266.74634   -9.9388649    11.777721    41.236589    40.193835 
41036000     274.1652    305.09674    294.59416   -9.2639088    11.261257    10.502585    40.194585 
41040000    270.01311    319.57051    279.41593   -10.647567    11.457467    40.154585    40.191995 
41044000    272.32286    347.77799    269.34247     -10.9765    11.305008    78.435527    40.194559 
41048000    277.95293    338.65035    274.12119   -10.437346    12.209895    64.529156    40.195481 
41052000    280.88421    328.72046    295.23333   -9.3579344    10.835581    33.487123    40.195545 
41056000    277.09531    354.47518    274.78963   -12.273773    11.445071    79.685546    40.198516 
41060000    269.68122    325.40065    274.36562   -10.001812    11.369388    51.035031      40.1961 
41064000    270.50574    328.36948    273.66547   -9.6520765     10.57275    54.704011    40.196964 
41068000    280.06855    339.33401    310.00357    -10.97144    8.7821068    29.330447    40.195293 
41072000    274.40684    325.52012        271.9   -11.281141    10.491428    53.620119    40.195269 
41076000    283.68315     351.8708    285.97418   -11.968242    10.801292    65.896619    40.197038 
41080000    270.31419    314.35453    283.26485     -9.61114    10.612622    31.089674    40.196039 
41084000    275.26566    325.38907    277.09029   -10.779692    10.434977    48.298775    40.197231 
41088000    273.74677    313.63392    276.94034   -10.780102    11.389583    36.693584    40.197384 
41092000    275.55512    321.30249    301.41141   -10.671997    10.164644    19.891082    40.196447 
41096000    260.52962    299.16809    252.71285    -10.78822    12.472347    46.455241    40.197661 
41100000    270.85125    323.58197    291.72042   -11.755179     11.16026    31.861547    40.198488 
41104000     276.0651    335.68391    291.95687   -12.260032     10.70256    43.727044    40.197437 
41108000    272.65581    313.15331    267.14927   -12.028724    11.277713    46.004039    40.195074 
41112000     274.5118    309.93957    275.78662   -11.805805    10.767826    34.152946    40.199079 
41116000    268.81448     308.8946    272.44378   -11.794437    11.165221    36.450818    40.201282 
41120000    265.14158    299.40966       246.63   -10.226132    12.958238    52.779656    40.201989 
41124000    277.45552    325.09432    271.02178   -10.887187     11.98882    54.072537    40.205552 
41128000    276.26194    309.87001    289.48572   -9.9432774    10.649785    20.384291    40.207926 
41132000    273.68254    317.04299     265.0137   -11.724236    11.851188    52.029284    40.206252 
41136000    286.28714    339.79639    279.51914   -11.745219    10.789167    60.277243     40.20513 
41140000    272.68761    322.85714    276.41604   -12.203912     10.62005    46.441102    40.204836 
41144000    273.73783    314.74288    276.71358   -11.044973    11.136086    38.029301    40.205785 
41148000    272.55174    319.70507    274.59231    -11.82887    11.375616    45.112753    40.209948 
41152000    271.76806    314.67825    277.47151   -11.065944    12.369368    37.206737     40.20999 
41156000     272.6454     339.1142    279.04437   -12.195416    12.897652    60.069826    40.210548 
41160000    273.48024    320.83805    279.76237   -12.227203    11.869771    41.075674    40.211546 
41164000    276.64067    335.67523    289.76103   -12.516282    10.843003    45.914205    40.213917 
41168000    274.10771     341.3806    269.49701   -11.504517    12.164682    71.883589    40.209233 
41172000    267.24643    309.63647     265.7193   -10.548385     12.48827     43.91717    40.211348 
41176000    276.85648    348.77109    274.64954   -12.459176    11.190137    74.121549    40.207834 
41180000    271.66882    307.81369    285.44038   -10.924958    11.694079    22.373318    40.207392 
41184000     278.4763    328.28998    301.63187   -11.057757    10.208823    26.658101    40.206742 
41188000    277.54007    311.72448    289.46752   -11.135511    11.195213    22.256964    40.208307 
41192000    284.12456    362.94225    285.63574   -12.349347    10.752728     77.30651    40.206259 
41196000    265.75515    309.27988    275.80978   -10.618225    12.079975      33.4701    40.206532 
41200000     281.7366     327.5821    293.69057   -10.269793    11.106433    33.891529    40.206078 
41204000    275.02886    324.82516    282.46174   -9.7941552    11.736917    42.363418    40.207209 
41208000    266.96186    310.78898    270.67655   -10.189245    12.534751    40.112431    40.206356 
41212000    272.80015    333.66048    269.45854   -12.552107     12.23378    64.201937     40.20784 
41216000    277.31667    310.52105    293.15279    -10.38708    10.938705    17.368251    40.209438 
41220000    281.94953    317.39044    281.48204    -10.58191    11.419556    35.908407    40.209103 
41224000    272.52074    310.79515    288.24172    -8.970481    11.140471     22.55343    40.210354 
41228000    264.70875    306.20935     288.7929   -9.9324059    12.018994    17.416451    40.209163 
41232000    273.88614    334.64015    287.34333   -11.532038    11.489502    47.296823    40.207866 
41236000    269.44548     295.2998    281.82655   -9.9968083    10.922359     13.47325    40.207511 
41240000    279.01234     315.8909    302.49885   -9.6582081    10.161952    13.392055    40.208191 
41244000    272.55666    328.89805    267.26041   -11.318523     11.51789    61.637643    40.205135 
41248000    274.15072    321.29138    293.37263   -10.917309    11.010675    27.918747    40.202876 
41252000    277.69247    326.23024    284.67882    -11.69448    11.596523    41.551417    40.202793 
41256000    267.28691    298.00842    285.06103   -9.5300545    10.757849    12.947392    40.202042 
41260000    275.37063    311.25572    279.43043    -11.11954    11.182165    31.825285    40.201218 
41264000    264.00969    307.38964    259.87593   -12.269634    12.555982    47.513704    40.199907 
41268000    274.52515    305.23044    286.29901   -10.478277    10.976587    18.931427    40.199667 
41272000    267.74439    308.72054    267.98882   -11.822122    11.369756    40.731723    40.198965 
41276000    274.00452    347.23687    256.11058   -13.141478    13.245149    91.126297     40.19956 
41280000    272.98233    333.90024    270.68264   -12.821207    11.674718    63.217607    40.202372 
41284000    270.09038    323.45249    258.92054    -12.53215    12.625811    64.531952    40.202157 
41288000    282.38302    324.69086    285.79899   -11.937696    10.599335    38.891872    40.200149 
41292000    285.97158    309.01293    290.87639   -11.256461    10.587858    18.136541    40.200037 
41296000    281.32966    308.62311    285.15224   -12.339757    10.079557    23.470874    40.201355 
41300000    280.67951    323.76788    278.68921   -11.424787    10.907677    45.078672      40.2028 
41304000    282.11912    318.86023    283.49018   -12.675241    10.574882    35.370046    40.203955 
41308000    274.64177    334.79588    276.78705   -14.056725    11.431641    58.008829    40.204274 
41312000    277.56868    317.57098    262.91936   -12.906104    11.833878     54.65162    40.205943 
41316000     287.0062    311.37406    292.44292   -12.967114    10.946157    18.931139    40.204674 
41320000    267.75991    306.00373    268.38577   -11.734702    11.223265    37.617961    40.204185 
41324000     272.9117    308.49237    284.27589   -11.553695    10.629974    24.216479    40.203727 
41328000     277.3079    308.69344    298.12775     -11.6026    9.9830368     10.56569    40.201743 
41332000    276.90174    325.12077    284.95045   -12.255737    10.449745    40.170311    40.203814 
41336000    279.73966    322.55756     288.7517    -12.59393    10.868305    33.805868    40.201627 
41340000    287.28893    324.24378    283.26603   -12.525401    10.135836    40.977747    40.200389 
41344000    272.55201    321.75321    250.96403   -13.265065    12.402545     70.78918    40.200149 
41348000    279.87293    332.32239    279.47424   -12.302044    10.224701    52.848155    40.202689 
41352000    279.40808    322.42225    269.75024   -12.982769    9.9068442    52.672012    40.200947 
41356000    281.12086    314.96936    279.87436   -12.216377    9.7534408    35.095003    40.202335 
41360000    282.80332    316.92824    282.83823   -13.357632    9.8749365    34.090013    40.205376 
41364000    283.03921     338.5283    280.23801   -13.100181    10.291764    58.290293    40.209157 
41368000    287.40633     362.0348    280.13569    -13.04556    10.160362    81.899114    40.208368 
41372000    283.07414    337.69915    270.00969    -14.40435     11.68859    67.689462    40.209328 
41376000    271.20521    293.53719    288.43085   -11.013224    10.807489    5.1063396     40.20822 
41380000    267.29214    305.84921    261.17674   -13.178032    11.991155    44.672466    40.209309 
41384000    279.73932    319.64321    283.37841   -12.999348    10.033992    36.264798    40.209393 
41388000    272.79749    320.74567     257.8003   -12.530355    12.120081    62.945375    40.207979 
41392000    275.95396     298.9841    285.01452   -12.014527    9.2213432     13.96958    40.205255 
41396000     271.7086    319.02398    262.33704   -12.783831    10.859556    56.686937    40.205112 
41400000    275.21326    307.40165     276.1422   -11.413361    10.350057    31.259453    40.203945 
41404000    290.61198    347.91465    275.51516   -12.572205    11.173643    72.399487    40.205395 
41408000    287.41166     336.0718    283.87739   -14.083009    10.154927    52.194413     40.20941 
41412000    279.02671    313.18035    282.35393   -12.226382    9.4622702    30.826414    40.211248 
41416000    273.42072    320.11498    270.98184   -12.277394    9.6238926    49.133134    40.211118 
41420000    279.67497    298.58372     285.4418   -11.327031    8.9232048    13.141919    40.206807 
41424000    277.37469      308.088    287.40328   -11.700863    9.5745974    20.684725    40.204811 
41428000    280.41425    326.96538    277.30894    -11.90993    10.305586    49.656443    40.204006 
41432000    276.87077    326.59529     284.1813    -12.30209    9.2446269     42.41399    40.206243 
41436000    276.53972     322.7338    281.27733   -11.258456    10.365267    41.456474    40.207677 
41440000     274.7488    317.78082     281.1035   -10.888714    9.9713292    36.677321    40.208726 
41444000    278.41041    342.15323    273.81672   -12.736385    9.3043809    68.336514    40.207682 
41448000    275.38067    319.85306    279.36488   -11.747261    9.3836597    40.488181    40.210623 
41452000    276.72639     316.8836     287.2622   -11.949314    10.558782    29.621394    40.210879 
41456000    283.92256     336.4742    286.34516   -12.211493    9.8076323    50.129034    40.212919 
41460000    278.65737    314.63314    278.17296   -11.458117    10.564037    36.460175    40.210871 
41464000    280.73839    324.27605    283.28508   -12.995223    9.9789057    40.990979     40.21012 
41468000    274.37575    320.55482    271.27201   -12.721625    9.5729015    49.282804    40.209157 
41472000    278.20382    312.11091    275.22024   -13.533501    10.311319    36.890668    40.209299 
41476000    278.24179    316.80039    277.93954   -13.956428    10.868749    38.860846    40.207502 
41480000    270.35228     308.5431    265.51852   -12.120246    11.640535    43.024575    40.211074 
41484000    280.65499     336.2836    286.68986   -12.208314    10.553326    49.593744    40.212102 
41488000    266.81554    287.97427    276.27524   -10.868462    11.383695    11.699031    40.207984 
41492000    270.73479    303.65614    273.65111   -11.823053    10.682076    30.005027    40.205021 
41496000    279.31359    336.63233    270.23959   -12.890844    10.881614    66.392733    40.205886 
41500000    285.41424    320.64503    284.05556   -13.234979    10.396121    36.589467     40.20602 
41504000    284.10903    320.45077    284.56241   -12.190225    10.691519    35.888363    40.204899 
41508000    272.52639    309.27236    284.39158   -11.864649    10.191432    24.880775    40.204605 
41512000    273.69129    310.37197    275.57525    -11.05342    11.056617     34.79672    40.205408 
41516000    273.46327    317.37382    275.70012   -13.200671    10.146645    41.673704    40.205838 
41520000     266.0787    303.11114    266.56666   -12.374777    11.630747    36.544482     40.20308 
41524000    277.59161    326.21582    279.66038   -12.766009    11.729259    46.555443    40.201361 
41528000    283.80598    330.77369    283.19808   -13.112387    10.438371    47.575613    40.202158 
41532000    274.96266    329.04788    281.69938   -11.922299    11.942028    47.348502    40.203013 
41536000    276.89947    333.30802    270.94291   -13.758915    11.755379    62.365112    40.203347 
41540000    279.74735    320.22806    293.65763   -12.725196    11.066486    26.570431    40.202657 
41544000    278.12444    317.56067    304.57709   -12.878087    10.886244    12.983577    40.203877 
41548000    262.29554    286.76108    278.82901   -10.520314    12.793399    7.9320718    40.198807 
41552000    270.94623    319.53238    274.67037   -12.802133    12.724194    44.862009    40.199517 
41556000    275.48406     321.9576    269.98481   -13.185455    13.773488     51.97279    40.199917 
41560000    277.08518    337.40544     268.6888     -13.7902    13.319914    68.716636    40.199617 
41564000    267.10794    314.48774    253.66595    -12.14876     14.07162    60.821794    40.200368 
41568000     278.8999    316.28661    288.41993   -11.757021    11.986045     27.86668    40.196517 
41572000    274.43847    338.90084    272.68668   -14.363095    13.073406    66.214151    40.194319 
41576000    280.00738    333.27761    272.99191   -13.710313    13.368635    60.285703    40.193326 
41580000    275.08436    308.12684     289.5286   -12.671326    12.143929    18.598245    40.192186 
41584000    281.26889    317.67871    310.72328   -12.005248    10.683052    6.9554236    40.192672 
41588000    274.18246    343.55141      250.183   -13.722127     13.89724    93.368415    40.192769 
41592000    265.60203     301.9775    270.96515   -11.739883      12.3543    31.012349    40.192228 
41596000    266.55518     317.6817    250.79582   -12.404752    14.004451    66.885879    40.195199 
41600000    264.94226    299.69135    275.33507   -12.581615    12.610088    24.356287    40.193889 
41604000     273.7959    323.33441     282.7344   -12.504151    13.380541    40.600013    40.194611 
41608000    269.03121    319.01206    286.29023   -10.834904    12.028775    32.721838    40.195167 
41612000    276.67961    346.62063    281.73815   -12.738439    11.703234    64.882478    40.197258 
41616000     270.6867    337.87972    259.13526   -12.008565    13.356039    78.744451    40.194002 
41620000    270.62538    321.95303    272.41749   -12.882651    13.072701    49.535537    40.193893 
41624000     268.3678    327.32671    271.08182   -11.594788    14.262536    56.244891    40.194577 
41628000    271.05949     309.4519    275.26391    -11.16389    14.130515    34.187994    40.192558 
41632000    278.57473    327.48049    297.10946   -12.898353    13.028411    30.371033    40.190598 
41636000    261.00463    306.10928    276.04025   -11.621382    13.682097    30.069026    40.188327 
41640000     272.2197    296.38586    305.82444   -10.332363    12.123352   -9.4385823    40.188638 
41644000    268.98102    334.15467    273.81678   -11.788986    13.973429    60.337886    40.190401 
41648000    274.19442    324.37326    285.79617   -12.422152    12.702223    38.577091    40.189989 
41652000    267.03215    311.46175    259.68568   -10.611414    14.100972    51.776064    40.192848 
41656000    274.79969    329.55777    284.21511   -11.904663    12.171622    45.342661     40.19415 
41660000    269.83252    304.70074    279.43371   -11.563406    12.842929    25.267028    40.193433 
41664000    270.74846    312.02277    304.08669   -11.832588    13.507381    7.9360824    40.192037 
41668000    272.40037    324.00216    288.50173   -12.396511    13.416596    35.500435    40.192353 
41672000    263.57229    294.83891    273.37868    -12.26295    13.690419    21.460234    40.193217 
41676000    272.36376    338.57671    270.39749    -14.33831     14.04081    68.179219    40.195452 
41680000    268.21106    328.91685    266.59709   -12.725562    13.691455    62.319762    40.194438 
41684000    272.49011     328.2239    283.95758   -12.204923    12.850378    44.266316    40.196505 
41688000    272.81317    332.95133    281.27571   -12.842055     13.48591    51.675623    40.198065 
41692000    279.31969    311.32894     306.2069   -12.804856    13.300549     5.122036     40.19752 
41696000    264.90074    309.06642    276.60125   -13.508957    14.221698    32.465173    40.198894 
41700000     275.3759    338.55093    277.04225   -13.771663     14.25693    61.508681    40.198776 
41704000    276.61012    342.57817    270.39697   -15.398173     14.20151    72.181203     40.19871 
41708000    273.48274    297.88253    286.31664   -12.196853    14.958997    11.565895    40.200648 
41712000    272.02341    304.84654    276.92265   -13.165612    14.097593    27.923888    40.199012 
41716000    275.44508     340.1618    286.21436   -13.927987    13.074989    53.947438    40.198773 
41720000     277.4908    330.54866    307.93745   -13.334483    12.563447     22.61121    40.200039 
41724000    271.83783    319.31898    275.80287   -13.264643    14.284209    43.516114    40.198434 
41728000    277.28429    342.83651    264.49627   -14.499456     13.52941    78.340233    40.202056 
41732000    281.60612    339.58949     278.1673   -14.468762    13.091148     61.42219    40.203106 
41736000    266.29419    306.46036    266.90003   -13.707069    13.912217    39.560323    40.203207 
41740000    278.21834    324.72238    270.69657   -13.329293    13.263141    54.025808    40.202804 
41744000    276.65538    314.20639    277.57027   -12.713134    12.571814    36.636125     40.20432 
41748000    281.70512    338.70281    294.15903   -13.662529    12.047549    44.543782     40.20409 
41752000    266.58104    313.21856    270.69837   -11.637283    13.394569    42.520194    40.203392 
41756000    274.01441    315.99462    271.84091   -12.743712    14.206649    44.153718    40.202197 
41760000    262.85381    321.51375    243.44372   -13.802993    15.959274    78.070034    40.200063 
41764000    262.93051    311.24174    268.79774   -13.712823    15.177855    42.444006    40.199811 
41768000    277.14216    338.05173    285.23605   -14.664226    13.943716    52.815676    40.198515 
41772000    276.52724    316.69711    291.85106    -13.33124    12.913956    24.846057    40.197014 
41776000    278.26063    326.92371    269.92008   -14.583495    14.386232    57.003631    40.195476 
41780000    276.29999      322.721    281.49118   -13.116058    13.643654    41.229817    40.196597 
41784000    280.12314    328.51334    288.73447   -13.965816    13.401437     39.77887    40.194027 
41788000     276.4068    334.16324     288.0526   -14.326291     13.77557    46.110646    40.194818 
41792000    271.12425    314.60509    289.58858   -12.411242    12.732119    25.016507    40.191887 
41796000    274.07125    306.09816    292.20068   -13.288218     13.41605    13.897482    40.191086 
41800000    269.61143    317.71025    271.12939   -11.293899    13.954573    46.580863    40.191298 
41804000    282.22681    325.26176    283.69332   -13.017806    13.885104    41.568445    40.192821 
41808000     269.7186    331.60008    268.03223   -14.449873    13.469507    63.567853    40.193035 
41812000    271.17133    312.86063    277.61469   -13.134954    15.079082    35.245939    40.191415 
41816000    267.60104    325.52487    261.42299   -13.802129    14.496148    64.101881    40.192101 
41820000    277.93537      335.791    289.84018   -13.748978     13.00087    45.950818    40.193292 
41824000    287.95337     336.1946    285.08271   -14.121515    13.470859     51.11189    40.191121 
41828000    275.78625    318.12364    274.90447   -12.901684    13.877584    43.219173    40.190402 
41832000    279.37564    322.84356    280.38329   -13.735475    13.336482    42.460271    40.192351 
41836000    280.55346    326.40284    292.08126   -14.367247    11.877344    34.321575    40.192375 
41840000    266.24068    304.93171    270.88715    -11.92247    12.776357    34.044558    40.191147 
41844000    271.58689    332.75427     281.8584   -13.182968    12.375768    50.895867     40.19027 
41848000    274.41697    324.07333    290.94617   -12.834326    12.733459    33.127169    40.190447 
41852000    265.94426    305.12994    269.54461   -11.899486    14.104428    35.585331    40.189445 
41856000    265.60755    301.02022    286.56494   -12.858837    13.924208    14.455281      40.1903 
41860000     268.1545    311.85075    276.27401   -13.207856     14.55401    35.576739    40.190383 
41864000    273.96414     328.8434    265.26485   -13.505482    13.793055    63.578548    40.190574 
41868000     276.7728    333.67128    284.13319   -13.788027    12.873991    49.538087     40.18864 
41872000    273.82238     325.5303    272.58054    -13.87987    13.232977    52.949765    40.188797 
41876000    278.11689    354.69374    277.67831   -15.478296    14.271369    77.015429    40.187731 
41880000    281.13459     339.6088    286.74852   -14.557298     14.08537    52.860276    40.190558 
41884000    274.68165    335.50086    263.37668   -14.464304    14.125069    72.124181    40.191091 
41888000    268.98173    312.69141    265.57886   -14.478231    15.828371    47.112552    40.191285 
41892000    270.97645    336.44776    251.51104    -15.65704     15.78555    84.936717    40.193609 
41896000    275.37344    342.29328    273.28225   -14.718187    14.977109    69.011035    40.195485 
41900000    275.25425    326.84895    272.62668   -14.965598    16.117926    54.222272    40.193468 
41904000    278.48742    355.51611    262.34457   -16.217057    15.367414    93.171539    40.194695 
41908000    280.59136    320.48892    295.66766   -14.866528    14.215945    24.821265    40.194763 
41912000     280.8105    332.80011      284.303    -14.57483    14.424775    48.497108     40.19542 
41916000    273.68293    336.62111    263.24721   -14.391434    16.024038    73.373896    40.196592 
41920000    280.93592    324.91094    292.63859   -13.861911     14.60006    32.272354    40.193859 
41924000    271.52824     332.4868    277.56966   -13.281384    13.878804    54.917137    40.193084 
41928000    271.42779    325.52527    285.51179   -13.534858    13.996149    40.013474    40.194695 
41932000    271.43347    327.48041    280.69087   -13.507548    13.583946    46.789543    40.193586 
41936000    274.07145    338.72243    279.08239   -15.169136     14.80057    59.640042    40.195718 
41940000    271.62822     327.7945    285.83096   -13.368773    13.760273    41.963536    40.196647 
41944000    281.14783    331.20491    297.94592   -13.702249    13.593532    33.258987    40.194838 
41948000    264.88848    318.32765    271.45115   -13.321741    14.681822    46.876497     40.19574 
41952000    275.18211    327.94557    271.46304    -13.82405     14.56003    56.482523    40.196901 
41956000     269.7832     310.9454    294.74269   -10.999666    13.674328    16.202708    40.200141 
41960000    271.94752    340.07541    277.89442   -13.702342    13.514627    62.180991    40.199353 
41964000     268.8747    336.29328    259.81653   -14.040996    14.161051    76.476751    40.198833 
41968000    273.85947    312.17835    291.16954   -12.080828    13.728799    21.008812    40.196779 
41972000    279.80837    326.31627    281.43643     -12.7049    14.183045    44.879834    40.195972 
41976000    270.22763    324.91527    278.21292   -12.972726    14.633242    46.702352    40.194317 
41980000    283.01912    334.55801     297.8203   -13.065968    13.584713    36.737708    40.195384 
41984000    266.65459    305.73973    289.20583   -12.014334    13.779032      16.5339    40.194481 
41988000    273.77669    325.55221    282.28185    -13.04635    13.109641    43.270351    40.193571 
41992000    275.29957    342.02635    275.00664   -15.057059    14.593866    67.019707    40.191381 
41996000    270.78714    299.96096    281.31113   -11.044979    14.597023    18.649832    40.191925 
42000000    284.84703    341.10158    319.82027   -13.698088    12.422391    21.281316    40.189857 
42004000    277.26136    327.94052    292.72384   -13.490226    13.243934    35.216688    40.190108 
42008000    260.01164    298.99854     278.4868   -11.792339    13.667497    20.511743    40.190341 
42012000    274.58577    310.26918    289.09534   -12.570918    14.246387    21.173837    40.188422 
42016000    270.43633    302.99923    305.26137   -12.568122    13.368109   -2.2621346     40.19085 
42020000    265.09717    287.92121    288.80409   -11.193413    13.604895  -0.88288122    40.191921 
42024000    279.39053    311.06408    299.83545   -13.441621    13.654265    11.228628    40.191414 
42028000    273.47865    332.27845    268.66691   -13.374597    14.655183    63.611538    40.192867 
42032000    272.90984    307.95716    299.06174   -12.331202    13.497578    8.8954218    40.191153 
42036000    280.82828    354.36311    270.97026   -14.728499    14.140821    83.392849    40.190617 
42040000    276.49219    322.84797    273.27059   -13.355242    13.832292    49.577385    40.192169 
42044000    274.26679    315.22662    296.74335   -13.624206      13.5188    18.483275    40.192293 
42048000    275.61548    341.16292    272.77537   -14.208899    14.989889    68.387548    40.191391 
42052000    271.89863    339.57094    289.61661   -14.304693    15.120586     49.95433    40.190153 
42056000    269.71428    303.80677    295.64443      -13.287    14.177303    8.1623386    40.188836 
42060000    274.92321    328.85731    282.82582   -15.363585    14.464277    46.031492    40.190332 
42064000    271.82142    312.34304    281.71239   -14.039055    13.901886    30.630654    40.189197 
42068000    282.17886    345.65265    302.95668   -15.354766    13.686304    42.695977    40.189748 
42072000    273.87301    319.22633    283.86487   -14.731319    14.696747    35.361455    40.189095 
42076000    287.96483    361.23681    301.87446   -14.982864    12.914007    59.362343    40.194706 
42080000    269.89502    314.13489    282.13341   -13.457439    13.955656    32.001477    40.195516 
42084000    276.11723     303.9228    300.39968   -12.920346    12.832595    3.5231127    40.198178 
42088000    272.90777    325.37617    280.55141    -13.92462    13.333569    44.824764    40.195783 
42092000    267.28453    308.42217    285.56971   -13.491099    13.698762    22.852456    40.197574 
42096000    267.94732    321.15094    245.72952   -14.185673    15.252219    75.421422    40.196432 
42100000    279.76901    321.97316    286.96056   -13.288633    13.013586    35.012592    40.197841 
42104000    274.09905    344.91524    276.83881   -14.420651    14.557497    68.076429    40.197301 
42108000    271.98084    318.91064    275.67785   -13.590679    14.312217    43.232787    40.201548 
42112000    269.01197    307.09464    278.35856    -12.22169    13.621524    28.736083    40.200642 
42116000     271.9714    316.88077    285.09963   -13.480294    13.754047    31.781136    40.201092 
42120000     269.4412    316.89386    283.14311   -12.203101    12.818719    33.750747     40.20276 
42124000    270.41412    301.85937    291.01862   -12.068799    12.147614    10.840749    40.200884 
42128000    267.39631    312.70332    279.48932   -11.805653    13.900275    33.213998    40.197344 
42132000    269.23309    308.38205    281.19044   -11.614728     13.08485    27.191606    40.195061 
42136000    269.55309    312.58548    287.43378   -12.665886    13.487898    25.151698    40.193352 
42140000    272.38318    299.81952    274.85313   -13.073533    13.186249     24.96639    40.191609 
42144000    265.40103    314.89531    272.04638   -12.736068    15.025853    42.848933    40.190996 
42148000     272.3053    331.84182    278.13532   -13.250048    13.706048    53.706508    40.191965 
42152000    272.99961    333.52048    278.91447   -12.580572    14.037135    54.606008    40.193457 
42156000    272.29675    317.34353    300.55529   -12.289318    13.155047    16.788234    40.192285 
42160000    270.66671    323.49415    270.80988   -12.183765    12.871843    52.684267    40.192042 
42164000    283.51072     338.3143    301.40722    -13.04777    11.721332    36.907072    40.193618 
42168000     279.4897    316.63063    304.73396   -11.081149    10.675064    11.896672    40.196834 
42172000    273.16665    319.38469    265.61674   -12.496174    14.007665    53.767957    40.197185 
42176000    280.76369    324.13215    304.04241   -13.840284     11.79365    20.089747    40.195117 
42180000    275.60768    332.54363     281.0624   -14.688822    12.395233     51.48123    40.196123 
42184000     264.3658    330.51938    261.43308   -14.391708     13.44472    69.086302    40.198565 
42188000    273.35257    316.18063    281.50982   -14.626519    12.392136    34.670804    40.197679 
42192000    278.42751      344.218    277.85148   -15.237874    13.260323    66.366518    40.197977 
42196000    278.96151    337.95536    278.77947   -15.664547    12.597969     59.17589    40.199304 
42200000    275.40915    296.31012    283.83243    -12.82877    12.960507    12.477691    40.197186 
42204000    276.73081    313.68098    298.87387   -14.185828    12.042443    14.807116    40.197071 
42208000    276.63544    336.57165    277.68952   -14.784721    13.792409    58.882135    40.199302 
42212000    269.99313    313.16447    271.29945   -11.909264    14.323885    41.865014    40.200495 
42216000    272.81276    306.67169    295.34024   -12.749304    12.796219    11.331446    40.199703 
42220000    267.58532    318.58339    274.85775   -12.686614    13.052909    43.725639    40.199268 
42224000    273.47432    323.96795    267.83845   -13.077746    14.033538    56.129505    40.199035 
42228000     283.5396    303.98612     309.6548   -11.971296    11.350667   -5.6686791    40.200945 
42232000    269.68565    313.05654    264.62528   -12.816076    13.808665    48.431255    40.203762 
42236000    270.43453    315.33832    272.17689   -13.840005     12.91998    43.161428    40.203512 
42240000    273.98095    316.48135    284.85502   -12.270751    11.915046    31.626327    40.203719 
42244000    280.59268    343.49694    258.98097   -14.824493    12.254518    84.515969    40.204234 
42248000    276.97505    318.50985    292.37168   -13.966196    12.868623    26.138167    40.203444 
42252000    287.49717     327.9403    304.88578    -13.68165    11.218849    23.054522    40.203595 
42256000    281.72781    327.67395    297.53329   -13.803181     11.46204    30.140661    40.203097 
42260000    273.16222     320.3423    269.54802   -13.637819    13.507225    50.794275    40.204112 
42264000    280.22439    324.11277    282.68333   -14.250237    12.796326    41.429441    40.203693 
42268000    274.39901    314.53847    281.16758   -13.903401    12.806963    33.370891    40.205698 
42272000    272.34189    301.43849    285.89525   -14.125081      13.2678    15.543241    40.205521 
42276000    273.03227    312.60862    268.72091   -12.526863    13.627462    43.887714    40.206163 
42280000    273.37636    311.02123    289.46343   -12.694286    11.878578      21.5578     40.20481 
42284000    274.01693    308.86214    272.52775   -12.860432    13.270632     36.33439    40.205862 
42288000    287.10224    312.78242     289.4786    -13.16179    12.802144    23.303818     40.20323 
42292000    274.47373    318.30716     261.0753   -14.354048    14.718242    57.231857    40.200581 
42296000    265.81712    307.19411    270.51668    -13.95496    14.373908    36.677429    40.201598 
42300000    275.26541    321.69609    269.32729   -13.421776    13.697596    52.368803    40.198346 
42304000    276.44265    312.28784    292.99626   -15.300426    12.338798    19.291582      40.1969 
42308000     273.1863    324.37827    255.63398   -14.751207    13.177511    68.744283    40.198046 
42312000    280.57798    317.80888    287.09733   -14.255528    12.999599    30.711546    40.196696 
42316000    269.93138    326.43557    253.61771   -13.957556    14.210094    72.817859    40.198219 
42320000    276.97671     321.9435    285.39904    -14.46936    12.333828    36.544465    40.197613 
42324000    264.87483    314.94951    260.29994   -13.695219    14.379551    54.649566    40.197982 
42328000    273.78662    309.89098    285.04879   -13.409801    12.960603    24.842184    40.198652 
42332000    279.31719    299.05662     294.6776   -12.779669    12.638133    4.3790183    40.198753 
42336000    279.78004    334.98976    288.00752   -14.574111    12.768813    46.982235    40.201068 
42340000    275.37991    317.51166    277.80212   -14.342696    13.550398    39.709543     40.19987 
42344000    286.83955    329.62369    291.59435   -13.559371    13.260712    38.029334    40.199121 
42348000    279.93909    333.05603    306.24474   -13.829973    12.532269    26.811283    40.198683 
42352000    271.33899    311.98335    275.70515    -12.12849    13.460572    36.278201    40.197901 
42356000    279.88688    322.19332    301.50941   -13.533851    12.442916    20.683904    40.195558 
42360000    273.60552    306.47579    283.22553    -12.42427     13.15486     23.25026    40.197505 
42364000    272.85313    345.31488    272.33033   -14.514709    13.407495    72.984548    40.197906 
42368000    278.07609    334.93924    283.66994   -14.509733    13.273262    51.269302    40.196554 
42372000    282.18426    339.37825    288.96411   -14.175473    13.005186    50.414146    40.198006 
42376000     272.7851    308.09869     270.8602    -14.06009    13.468901     37.23849    40.198466 
42380000    270.74323    322.61441    260.17842   -14.554188    13.313938    62.435995    40.198652 
42384000    277.04936    316.14694    292.30072   -12.801313    12.731499    23.846222    40.197996 
42388000    276.56706    297.15715    321.82718   -11.885156    10.813437    -24.67003    40.199858 
42392000    276.13524    329.55646    266.80749   -14.348529    13.413588    62.748969    40.199697 
42396000    268.16795    302.70358    276.92842   -14.380155    13.416251    25.775165    40.198443 
42400000    275.87878    330.34253    273.28537   -14.757493    13.897648    57.057165    40.198738 
42404000    275.79084    311.48633    287.57997   -14.195134    13.831089    23.906355    40.197173 
42408000    275.12433    342.01474     274.1704   -15.665474    15.021111    67.844343    40.195077 
42412000    279.29069    329.98641    293.56007   -14.711126     14.06668    36.426347    40.193211 
42416000    272.37271    333.96351    275.00777   -14.372624    14.829334    58.955744    40.192679 
42420000    271.21059    330.28864    288.96978   -14.476078    13.950596    41.318853    40.194537 
42424000    270.67048    320.19149    274.41621   -14.614771     15.10714    45.775275    40.192937 
42428000    275.24229    321.09044    296.02976   -14.071109    12.942429    25.060678    40.193349 
42432000    280.98196    337.63061    290.55004   -16.076217    14.785847     47.08057    40.190309 
42436000    282.21726    349.87417    284.64894   -14.945231    15.752522    65.225227    40.190014 
42440000    271.87493     321.0689    275.32618    -13.99621     14.87253    45.742724    40.187529 
42444000    272.56852    310.22177     277.6134   -13.988779     14.66253    32.608362    40.188451 
42448000    268.29249    303.89704    290.34987   -13.348349    14.623679    13.547169     40.18632 
42452000    270.79677    324.32834    270.59316    -14.15675    15.324443    53.735178    40.185807 
42456000    266.61409    320.63183    267.71519   -14.504984    15.991926    52.916636    40.184972 
42460000    272.59052    324.57464    280.14349   -13.832112     13.86388    44.431157    40.183139 
42464000     278.5877    333.86453    283.11228   -15.680798    15.021685    50.752256    40.180733 
42468000    279.86162    329.55982    289.80894   -15.533464    15.426195    39.750874     40.17856 
42472000    261.51974    301.74128    273.65541   -13.101709    16.043179    28.085871    40.182323 
42476000      274.655    314.93574    273.80122   -13.803878     15.07883    41.134516    40.182786 
42480000    276.74837    340.29478    265.27427   -15.164341    16.378022    75.020513    40.181737 
42484000    283.28643    341.58177    291.48799   -16.856155    14.860484    50.093773    40.183598 
42488000     271.5005     334.9714    275.03135   -15.327824    15.431347    59.940047    40.182016 
42492000    276.05508    329.85108    257.04932   -15.534418    15.635569    72.801764    40.182756 
42496000    272.75284    304.07044    282.89796   -14.872147    13.837629    21.172474    40.181567 
42500000    268.91375    296.29665     294.0289   -12.911122    13.996444    2.2677564    40.181729 
42504000    283.70203    358.28181    279.71379   -14.991934    14.827613    78.568028    40.182076 
42508000    274.48932    336.92747     284.0166   -14.880039    14.596624    52.910866    40.181291 
42512000    266.97269    295.32597    290.80195   -13.928189    14.720152    4.5240267    40.181326 
42516000    270.67462    319.96682    282.31383   -13.697806    13.915443    37.652986    40.181532 
42520000    274.20906     333.3975    282.13577   -14.665308    15.526454    51.261723    40.180578 
42524000    263.98688     307.3603    265.46734   -14.949185    16.101463    41.892957    40.179601 
42528000    271.18369    335.10017    256.18221   -15.739094    14.971053    78.917967    40.181917 
42532000    274.80178    314.09457    279.56016   -14.634136    14.546089     34.53441    40.183228 
42536000    271.86181    307.65499    287.47191   -13.236693    15.240399    20.183077    40.183879 
42540000    260.04704    302.99524    271.99847   -14.378433    14.880142    30.996773    40.183122 
42544000    284.13453    348.98288    281.86732   -15.529631    14.979677    67.115565    40.181811 
42548000    271.64264    311.70522    280.80505   -13.406228    15.783971    30.900172     40.18115 
42552000    267.65304    331.06554    267.31845   -14.370768     16.40816    63.747088     40.18333 
42556000    265.09624    310.86516    257.92685   -12.987102    15.385361     52.93831    40.183204 
42560000    275.90604    326.20122    282.32951   -14.774546    14.480389    43.871706    40.183711 
42564000    281.01164    331.89615    293.53769   -14.712664    14.371445    38.358456    40.185145 
42568000    269.48061    308.88388    302.40635   -13.540542    13.999658    6.4775389    40.187351 
42572000    272.58728    313.05594     291.6989   -14.277203    13.936726    21.357045    40.186341 
42576000    275.58962    331.36687    284.32088   -14.240375    14.140667    47.045992    40.186186 
42580000    278.70882    319.40316    299.97026   -14.558651     13.49441    19.432901    40.187291 
42584000    274.80448    299.95807    302.28646   -14.696246    12.925981   -2.3283849    40.185955 
42588000    275.66388    323.17954    291.58473   -13.788807    13.393465    31.594805    40.187171 
42592000    282.38217    335.72303    298.70584    -15.21479    13.659796    37.017192    40.185659 
42596000    279.20224    345.10541     287.3528   -14.774989    14.321828    57.752611    40.183769 
42600000    279.97912    340.07072    287.63356   -15.840296    14.780934     52.43716    40.183041 
42604000    280.07779    340.34248    278.89663   -15.196437    15.325574    61.445852    40.184159 
42608000    268.26252    297.08007    288.58152   -14.015549    14.480189     8.498554    40.183348 
42612000    270.61786    294.29335    287.52608   -14.366791    16.599642    6.7672698    40.183559 
42616000    278.90082    325.42977    292.76041   -15.117426    15.022488    32.669355    40.187175 
42620000    276.33705    328.36804    293.25253   -14.973956    14.675166    35.115512    40.185639 
42624000    268.86077    305.28341    286.90848   -13.629959    14.566142    18.374933    40.185536 
42628000    268.96328    323.03134    266.56888   -15.781224    15.412881    56.462458    40.185381 
42632000    277.30109    320.20709    290.97398   -15.863364      15.3332    29.233116    40.185338 
42636000    273.42111    327.29268    281.44816   -14.807493    15.696473    45.844519    40.183809 
42640000    276.32358     321.1007    289.48309   -13.189728    15.561613    31.617618    40.181925 
42644000    268.14338    306.39732    281.38355   -13.825206    15.543763    25.013777    40.182731 
42648000    278.86071    342.98173    279.22281   -15.279876    15.394084    63.758923    40.183731 
42652000    273.19709    298.65469    294.81888   -12.235143    14.689906     3.835805    40.183272 
42656000    269.97554    328.68494    270.37776   -14.597621    15.843909    58.307178    40.182865 
42660000    277.23504    306.21718    283.98839   -12.957332    14.256572    22.228798    40.180345 
42664000    267.52066    310.22241     270.1522   -13.642563    16.221009    40.070211    40.179668 
42668000    269.01034     314.3543    265.00088   -12.731731    16.393879    49.353413    40.179507 
42672000    280.72727    348.70838    285.34291   -14.234182    14.707094    63.365475    40.182791 
42676000    273.12041    314.63735    302.43476   -12.490385    14.042845    12.202597    40.186125 
42680000    268.88674    324.42346     276.0413   -13.305398    14.886922     48.38216    40.185971 
42684000    278.93856    325.53799     278.8947   -14.381032    15.014886    46.643285    40.184431 
42688000    271.89081    310.54579     294.9991   -13.491455     14.62048    15.546691    40.184601 
42692000    263.52383    296.75366     274.8669    -13.60702     15.86332    21.886765    40.186638 
42696000    278.29981    342.17753    281.59356   -16.211728    15.063059    60.583974    40.190128 
42700000     269.3438    315.56542    267.65639   -13.225005    14.836569    47.909026     40.19022 
42704000    268.17835    304.03846    272.16992   -13.199226    15.863287    31.868535    40.191397 
42708000    272.02302    310.90762     275.1699   -14.313817    15.433013    35.737722    40.190706 
42712000    271.59353    313.70772    284.39551   -14.358209    13.861249    29.312208    40.188542 
42716000    278.28431    343.83293    278.58138   -16.026669    15.291694    65.251549    40.187621 
42720000    277.37341    311.07554    292.11096   -13.616191    13.901554    18.964582     40.18499 
42724000    278.60573    330.02807    280.78146   -16.506227    14.915695    49.246611    40.183605 
42728000    277.07694    319.88115    279.20131   -15.722554    14.902239    40.679841    40.181786 
42732000    281.21067    329.53529    294.11542   -16.307596    13.665943    35.419869    40.181653 
42736000    274.59138    308.37087    281.99727   -14.254004    14.090507    26.373594    40.179957 
42740000     285.8706    346.79252    285.92638   -16.786737    14.199762    60.866139    40.180147 
42744000    269.33595    320.61437    267.00203    -14.85859    15.251464    53.612347    40.180728 
42748000    279.42869    330.97313    291.92504   -16.754374    14.538302    39.048097    40.181684 
42752000    276.88193    332.68738    280.59344   -15.500783    14.449198    52.093941    40.182304 
42756000    274.17115    310.78516    298.96031   -13.586976    14.125995    11.824847    40.181329 
42760000    270.42096    322.35783    272.89997   -15.515617     15.13011    49.457862    40.180747 
42764000    276.97518    328.35506    272.50588   -15.658922    15.036087    55.849174    40.178571 
42768000    286.78992    355.50791    295.22528   -16.061072    15.365222    60.282635    40.177013 
42772000    273.82876    322.67368    280.70822   -15.464086    15.437168    41.965453    40.177802 
42776000    267.27042    298.14032    278.54405    -12.81375     15.50998    19.596269    40.177912 
42780000     284.5139    330.37335    294.99703   -16.391613    12.978523    35.376326    40.178985 
42784000    272.12414    313.95763    265.23061    -15.34069    15.356048    48.727024    40.178977 
42788000    283.73878    331.39279    286.53023   -15.674457    14.633664    44.862555    40.179964 
42792000    288.00865    324.21174    321.00402   -16.881526    12.499698    3.2077246    40.179639 
42796000    280.91236    340.00768    289.76677   -16.711583    13.980169     50.24091    40.180487 
42800000    279.00712    311.36764    282.18672   -15.690388    14.141748     29.18092    40.180897 
42804000    281.28291    317.82082    294.06648   -15.490101    13.337018    23.754346    40.182679 
42808000    281.27164    321.08815    285.27331   -17.278625    14.382411    35.814841    40.180866 
42812000    287.39056    310.44778    307.30713   -15.540906     12.73199    3.1406509    40.178329 
42816000    283.80623    325.89636    301.41936   -17.104164    13.959772    24.477003    40.178613 
42820000    278.16027    324.08677    289.04091   -16.577923    14.975721    35.045858    40.178803 
42824000    272.85803    323.65069    267.12669   -16.084138    15.402253    56.523993    40.179279 
42828000    281.80658    321.21568    292.60131   -15.312514    14.107639    28.614371    40.178357 
42832000    279.64892    337.61937    273.96088   -16.524984    14.921287    63.658489    40.179226 
42836000     274.0165    318.42747     273.8968   -16.684171    15.660843    44.530678    40.177145 
42840000    269.00271    310.62825    252.63214   -16.797893    15.753284    57.996106    40.177925 
42844000    280.84546    330.12147    272.71831   -17.381123    15.654365    57.403156    40.178638 
42848000    275.85276    323.10474    295.61882   -17.098935    15.582343    27.485916    40.177519 
42852000    267.52922    310.17993    264.00366   -15.888591     17.16604    46.176275    40.177881 
42856000     275.8573    305.91065      280.534   -16.521484    16.640011    25.376652    40.178523 
42860000    276.42031    322.46982    278.99526   -16.044415    16.467048    43.474559    40.179195 
42864000    271.18179    327.21026    254.99677   -17.499117    17.717821    72.213489    40.180107 
42868000    273.21345    319.93874    296.30487   -15.736083    15.673955     23.63387    40.180188 
42872000    279.17809     335.7368    289.86658     -16.5089    14.324206    45.870218    40.179789 
42876000    275.62846    311.26556    278.20894   -15.697724     15.64002    33.056622     40.17803 
42880000    273.87365    305.78401    286.90596   -14.955724    14.195687    18.878043    40.176973 
42884000    273.07275    316.34116    281.07665   -16.274317    16.018797     35.26451    40.180202 
42888000    267.65507     310.0481    274.27568   -16.290767    16.637738    35.772418    40.178737 
42892000    272.33665    324.62972    287.91774   -14.148537    16.712497    36.711976    40.178845 
42896000    267.16821     338.6716    271.20504   -16.068082    16.453969     67.46656    40.181546 
42900000    268.30821    308.16025    293.30897   -15.521728     16.11961    14.851283    40.181638 
42904000    268.52418    318.84695     276.4185   -15.747312    17.532448    42.428456    40.182223 
42908000    268.91511    317.31512    264.42255   -16.289824    17.376371    52.892572    40.182305 
42912000    266.74438     314.8565    275.86318   -16.723658    17.589825     38.99332    40.180993 
42916000    271.63991    311.81747    278.63976   -16.105566     16.83772    33.177703    40.180423 
42920000    278.50693    332.11341    285.43415    -16.66887    16.183206     46.67926    40.180536 
42924000    272.24505    311.40488    282.13928   -15.065708    15.282696    29.265598      40.1807 
42928000     274.7598    324.34363     279.1796   -15.018439    16.882814    45.164025    40.181768 
42932000    278.11633    334.33508    302.67234   -16.686959    16.555779    31.662737    40.180471 
42936000    267.26203    304.27262    268.28338    -16.10687    16.316819    35.989245    40.179875 
42940000    270.17956     314.4247    280.60647   -15.739618    16.163986    33.818229    40.179599 
42944000    268.98222    324.43842     278.2784   -15.607452    16.435059    46.160018    40.180345 
42948000    266.11321    300.70611    267.03977   -15.428374    17.611616    33.666334    40.180293 
42952000     274.4626     326.8963    283.59226   -16.620419    17.644447    43.304039    40.179363 
42956000    269.75187    319.44224     294.8882    -16.33101    16.505624    24.554046    40.178334 
42960000    268.13785    311.17144    272.87043   -16.378138    17.668692    38.301008     40.17983 
42964000    262.49187    307.75559    261.34543   -15.905423    17.695758    46.410163    40.178542 
42968000    273.17627    299.24933    297.66409   -15.492337    16.396032    1.5852373    40.180201 
42972000    275.24929    339.91258    279.46373   -17.522485    16.727202    60.448848    40.179596 
42976000    281.07022    335.59019    280.71625   -17.345822    17.857815    54.873945    40.178881 
42980000    271.05977    297.01084    282.30255    -16.91532    16.511447    14.708292    40.178421 
42984000    271.54184    318.62763    259.91552   -16.623348    17.903358    58.712111    40.179317 
42988000    276.87437    331.29012    285.12822   -17.140895     16.62163    46.161893    40.180664 
42992000    278.87699    345.66851    280.00592   -18.458319    17.138932    65.662586    40.181243 
42996000    274.76763    326.56102    281.91643   -17.201673     16.68162    44.644586    40.180793 
43000000    277.11353    311.34394    285.36213   -16.118212    16.866657     25.98181    40.182006 
43004000    285.96568    340.28801    280.72633    -16.58429    17.266864    59.561681    40.182839 
43008000     275.2112    325.52474    278.69787    -16.92545    15.715835    46.826862    40.182889 
43012000    281.24556    319.38921    287.23358   -16.658958    15.938535    32.155631    40.179197 
43016000    282.12252    317.70376    302.30875    -16.25327    14.488655    15.395013    40.181326 
43020000    271.76084    333.17454    266.78768   -17.674845    16.814715    66.386865    40.181813 
43024000    265.63151    305.94866    271.61565   -15.570994    16.285701     34.33301    40.183454 
43028000    271.60202    313.41528    276.55185   -15.872531    16.032552    36.863437    40.184516 
43032000    278.36416    331.88307    292.33857   -16.779713    14.948646    39.544506     40.18501 
43036000    280.73025    352.03525    264.65248     -19.4523    17.162364    87.382774    40.185745 
43040000    277.19867     307.5111    275.55865   -16.534074    16.323244    31.952443    40.185561 
43044000    273.53017    317.32777    270.75421   -17.641067    16.358216    46.573555    40.186214 
43048000    282.95366    359.55627    278.57483   -18.363448    16.425595    80.981435     40.18801 
43052000    274.54647    316.71475    284.74514   -16.692795    17.687605    31.969612    40.185594 
43056000    271.03162    329.40634    272.00167   -18.378984    17.627314    57.404666    40.188665 
43060000    280.17986    343.04177    282.08881   -19.273299    16.965158    60.952962    40.189748 
43064000    264.43278    300.09298    270.58138   -17.152677    18.981241    29.511603    40.189488 
43068000    278.36365    325.63813     292.9272   -17.970673     16.83741    32.710932    40.191023 
43072000    274.71072    312.21824    280.03457   -17.583208    17.404559    32.183669    40.193472 
43076000    272.27267    322.28846    266.45011   -17.139759    17.248049    55.838353    40.195185 
43080000    276.53861    316.06089    271.30999   -17.981226    17.978754      44.7509    40.194088 
43084000    272.15336    335.90162     269.0025   -19.419316    18.557003    66.899123     40.19334 
43088000    279.34171    329.61724    293.64538     -18.6168    16.655871    35.971862    40.193071 
43092000    281.31579    311.67704     309.9782   -16.355158     15.80769    1.6988391    40.193554 
43096000     274.7655    315.37469    289.79136   -17.059923    17.054252    25.583337    40.192945 
43100000    271.50074    307.57158     281.8897   -17.059445    16.398651     25.68188    40.192929 
43104000    285.06657    355.23378    286.56123   -19.916758    16.458915    68.672554    40.192831 
43108000    269.85967    315.63209    281.02705   -16.917537    16.394777    34.605039    40.192628 
43112000    288.98611    350.53586    290.50767   -20.099783    15.714732    60.028196    40.191922 
43116000    274.99845    327.96803    253.28267   -18.549413    18.544936    74.685356    40.191467 
43120000    281.99962    322.22593     289.6242   -19.726973    16.756393    32.601724    40.189308 
43124000    274.56195    328.51419     286.5993   -18.289181    15.902453    41.914891    40.188348 
43128000    286.08468    332.38805    294.45259   -18.827363    17.519543    37.935467    40.187714 
43132000    277.31158    304.11725    286.69161   -17.891927    16.806947    17.425639    40.187656 
43136000    275.44165    304.34999    273.36339   -18.005001    17.460406    30.986596    40.187619 
43140000    271.99023     300.1694    277.16019   -17.298663    17.151083    23.009206    40.186332 
43144000    272.64985    317.18808    277.13619    -17.84732    17.568005    40.051891    40.187878 
43148000    269.68611    311.18627    253.37002   -17.200589    18.553299    57.816251    40.187993 
43152000    284.94971    345.31922    303.62265   -19.716927    14.724503    41.696563     40.18675 
43156000    273.59614    326.44821    270.89724   -19.131437     17.44118    55.550968    40.185306 
43160000    269.31992    299.53762    272.99383    -17.56089    17.726472    26.543793    40.186695 
43164000    272.57617    316.78217    273.67782   -17.458676    17.391946    43.104349     40.18652 
43168000    270.82366     318.7943    273.02219   -16.161496    17.161681    45.772102    40.185839 
43172000    265.63027    316.01634    266.40789    -16.25689    17.476273    49.608442    40.185258 
43176000    264.83159    331.91279    250.86577   -16.821361    18.657202    81.047017    40.186841 
43180000    271.29483    320.54706     299.2974   -15.809294    15.093535     21.24966    40.187389 
43184000    272.91799    301.72725    288.19467   -16.634954    16.083818    13.532582    40.186033 
43188000    275.71917    335.78613    277.85927   -16.760729    16.598841    57.926865    40.184205 
43192000    278.89551     344.7047    285.87506   -17.707805    15.903523    58.829644    40.183637 
43196000    276.32356    303.50766    282.14597   -15.040687    16.069764     21.36169     40.18125 
43200000    273.06904    340.28491    276.23728   -17.933826    16.599904    64.047632     40.18124 
43204000    286.67301    339.59755    282.25041   -18.189255    16.227012    57.347137    40.181702 
43208000    274.38738    342.94831    272.04592   -18.584446    17.569707    70.902391    40.183081 
43212000     283.3009    337.02347    285.85931   -18.795531    16.430779     51.16416    40.183975 
43216000    277.59878    319.09086    283.53671   -18.669932    16.238812    35.554154    40.183306 
43220000    275.13426    307.53468     295.0595   -17.266705    14.802682    12.475174    40.183287 
43224000    272.00115    308.95957    272.18331   -16.526472    16.772338     36.77626    40.182454 
43228000    280.49757    327.43689    289.95455   -18.512923    16.025651    37.482343    40.182848 
43232000    270.03586    323.15032    267.03852   -17.168412    17.566665    56.111801    40.183561 
43236000    279.03114    334.77326     268.6561    -18.00912    17.461702    66.117162    40.187106 
43240000    273.28663    306.61098    279.06392    -16.11924    16.565833    27.547052    40.188571 
43244000    270.87121    320.26414      271.868   -16.466528    16.811708    48.396138    40.188164 
43248000    277.30584      320.619    285.79082   -15.841872    16.804083    34.828179    40.185554 
43252000    267.67077    319.77869    285.10444   -16.746571    16.462697    34.674249    40.185803 
43256000    282.09622    329.04863     296.1429   -17.787184    16.225443    32.905734    40.185531 
43260000    270.34182    317.76062    281.57477   -15.369284    16.342421    36.185851    40.186269 
43264000     264.8844    296.63772    271.51448   -15.777576    17.171266    25.123234    40.187607 
43268000    266.82263    310.70273    264.91971   -15.443657    16.614341    45.783014    40.187242 
43272000    268.40556    293.07308      273.381   -16.424928    16.837861    19.692086    40.187838 
43276000    275.82465    324.57327    282.66034   -16.519967    16.889258    41.912928    40.188057 
43280000    271.83198    309.35498    277.15707    -16.60041    16.948816    32.197905    40.190016 
43284000    272.43111    324.29597     261.7721    -17.46815    18.561919    62.523872    40.189208 
43288000    279.34318    316.94351    287.32581   -17.055541    16.631772    29.617693    40.187143 
43292000     282.3973    315.36192    304.11223   -16.963647     15.43835     11.24969    40.189306 
43296000    274.20246    313.96708    283.05721   -16.221674    16.018347     30.90987    40.189575 
43300000    281.27602    300.31644    292.47755   -16.941519    15.111141    7.8388909    40.190813 
43304000    278.22319    330.53749    281.02201   -16.633365    16.937575    49.515479    40.190976 
43308000    277.30151     324.2423     295.8976   -17.990386     14.57624    28.344707    40.188824 
43312000    264.25215    281.96271    286.57965   -15.378851    16.090526   -4.6169384    40.187183 
43316000    276.07314    312.39444     270.0142   -16.716877    16.976898    42.380236    40.186287 
43320000    279.05417    339.10227    273.20027   -18.041432    17.007697    65.902009    40.184959 
43324000    276.54281    317.90509    265.45674   -17.494016    17.991624    52.448351    40.187141 
43328000    266.26734    316.10552    252.46299   -16.913314    17.251205    63.642524    40.186485 
43332000    276.28716     347.3288    275.51055    -18.19031      16.1593    71.818248    40.185672 
43336000    278.21035    319.23816    291.39401    -17.43495    15.471747    27.844149    40.186413 
43340000    280.66668    336.16327    295.45749   -18.629941    15.208611    40.705775    40.187093 
43344000    280.58849    322.80022    287.34878   -17.433653     16.42154    35.451439    40.186998 
43348000    278.35974    321.92469    296.04703   -17.635303    16.794176    25.877664    40.187693 
43352000    278.64394    325.95933    283.74656   -17.132154     16.83763    42.212775    40.188902 
43356000    272.41108    315.76583    273.40342   -16.704511    17.136009    42.362416    40.186666 
43360000    279.23283    328.08007    292.85516   -17.676265    16.233214    35.224908    40.185091 
43364000    280.84429    310.39489    291.72923   -16.279368    15.925612    18.665659    40.184637 
43368000     258.3324     289.5147    276.23944   -15.697704    16.969398    13.275259      40.1851 
43372000    283.06729    338.53098    291.40972   -19.049878      16.8292    47.121256    40.184698 
43376000    276.28228    322.03712    299.44967    -17.51924    17.321707    22.587449     40.18404 
43380000    270.96826    311.70768    289.35421   -16.255144    15.970063    22.353469    40.186058 
43384000    280.88905    337.78896    293.53309    -19.66227    16.899415    44.255867    40.185691 
43388000    273.96931    301.68255    286.92006   -17.957941    17.330075    14.762494    40.185182 
43392000    279.23571    332.74894    279.94924   -18.946027    16.383142    52.799705    40.186912 
43396000    270.68032    323.86745    282.41561   -17.801805    16.549031    41.451839    40.188884 
43400000    276.78643    282.68795    310.80241   -15.441225    15.385689   -28.114465    40.187245 
43404000    273.83872    312.71337    276.34648   -17.745044    17.425367    36.366887    40.188478 
43408000    274.22158     322.7093    259.34644   -18.563761     17.81282    63.362858    40.189537 
43412000    278.35436    329.08838    277.19574   -17.886396    17.352859    51.892645    40.188811 
43416000    279.91632     320.1586    273.51206   -17.738528    16.973914     46.64654    40.187322 
43420000    276.68093    344.20638    277.57455   -18.699362    17.107928    66.631827    40.186826 
43424000    263.43719    309.83317    256.82689   -17.270499    17.559641    53.006274    40.187244 
43428000    277.08218    321.93566    301.26981   -17.921767    15.558205    20.665847    40.184775 
43432000    274.43429    310.14887    279.24576   -17.404284    17.968329    30.903113    40.186623 
43436000    280.87537    338.60344    275.60352   -17.609823    18.170884    62.999923    40.187413 
43440000    292.18389    373.98679    307.11759   -20.023966    16.841291    66.869199     40.19018 
43444000     280.1847    335.39163    278.05303   -18.258401    17.012594      57.3386    40.191192 
43448000    281.63159    333.37506    290.12834   -18.517703    15.375052    43.246723    40.189792 
43452000    266.24765    314.84618    275.55567   -17.414248    17.541923    39.290511        40.19 
43456000    279.02667    352.14017    283.01837   -18.172056     16.94557    69.121806    40.190071 
43460000     271.4441    313.41692    293.20613   -18.309237    15.947157    20.210788    40.189911 
43464000    271.29895    327.66249    285.77328   -17.502594    16.293985    41.889209    40.189472 
43468000    276.31698    314.14593     288.9331   -17.509733    16.866981     25.21283    40.191818 
43472000    279.05892    309.63716    280.48359   -16.496737    17.854529    29.153571    40.192139 
43476000    273.16459    312.15837    284.98342   -16.816742    17.543077    27.174942    40.191126 
43480000    285.92142     348.8394    274.26736   -18.606569    16.723081    74.572037    40.189963 
43484000    274.47418    308.81644     305.4605   -17.286397    15.668784    3.3559332    40.187504 
43488000    275.36609    308.77493    300.17162   -15.582908    16.329814    8.6033114    40.189415 
43492000    277.67264    310.72141    276.96445   -17.164764    17.612223     33.75696      40.1902 
43496000    272.56143    318.12316    280.16704   -17.360812    17.207242    37.956119    40.190742 
43500000    274.07689    317.20674     291.9685   -17.531875    16.962747    25.238231      40.1904 
43504000    285.17058    327.19493    294.56774   -18.531886    17.283247    32.627183    40.190607 
43508000    278.92769    337.76468    288.66094   -19.208067    15.898784     49.10374    40.191239 
43512000    278.57007    343.17886    264.00226   -18.951907      17.6925    79.176599    40.191518 
43516000    272.32519     321.5415    285.76128   -17.587137     15.47182    35.780215    40.190315 
43520000    273.85606     310.6481    288.92102   -17.258524    16.915543    21.727076    40.191048 
43524000    279.43357    319.77317    287.77799   -17.330468     15.89206    31.995174    40.191719 
43528000    274.83051    328.99747    248.81945    -18.14041    18.083836     80.17802    40.192764 
43532000    281.45323    323.21681    291.81663   -18.956328    15.387162    31.400182    40.189576 
43536000    275.21196    323.67677    277.98509   -18.328875    16.922644     45.69168    40.191524 
43540000     282.6763    319.46989     295.3271   -18.946012    15.824483    24.142792    40.191336 
43544000    272.55194    314.41422    280.15917   -17.282503    16.488212    34.255048    40.190885 
43548000    270.66301    318.02558    267.57388   -17.799764    17.475389    50.451694    40.189414 
43552000    277.30355     324.9479     276.9046   -18.267629    16.231837      48.0433    40.190594 
43556000     292.7097     331.3839    305.89187   -19.784055    15.754482    25.492033    40.190219 
43560000    270.73296     301.0879    272.62731    -17.89438    17.144158    28.460589    40.190084 
43564000    267.07243    309.78761      277.829   -19.463505    18.562808    31.958618    40.191008 
43568000     282.3374    315.00054    276.26844   -18.186605    17.175902    38.732101    40.188579 
43572000    285.67945    330.53068     286.4047   -19.411315    16.968329    44.125975      40.1903 
43576000    279.27457    325.24558    284.44848   -19.756311    16.420664    40.797093    40.190611 
43580000    279.49149    327.78986    285.18533   -19.881203    16.384013    42.604527    40.189059 
43584000    284.15383     337.0983    280.41956   -19.812514    17.703667    56.678735    40.191708 
43588000    277.27611    321.70674    280.73351   -19.915631    17.087333    40.973229    40.193527 
43592000    277.94948    310.82888     305.1506   -19.912562    15.612045    5.6782815    40.192175 
43596000    289.16213    322.77475    297.82376   -19.147455    16.628349    24.950987    40.191337 
43600000    275.77979      326.368    280.28278   -18.281704    17.254218    46.085214    40.194218 
43604000    274.69242    326.84314     250.0839   -19.329727    19.257269    76.759231    40.195726 
43608000    270.05403    311.26203    256.07586   -18.046697    17.878399    55.186173    40.197568 
43612000    277.13189    307.46601    282.81548   -17.942137    16.839684     24.65053    40.196814 
43616000    280.03635     331.0618    293.83011   -19.094469    16.365263     37.23168    40.197051 
43620000    282.06072    346.38775    272.38649   -20.081245    17.805271    74.001264    40.197575 
43624000    284.20313    348.17292    287.91895   -20.830015    16.503797    60.253965     40.19621 
43628000    275.80949    322.57535    268.15227   -18.896127    17.835531    54.423078    40.196343 
43632000    280.66848    326.91938    283.39774   -18.974975    17.604156    43.521632    40.196072 
43636000    273.13165    313.32599    271.05569   -19.654431    18.333061    42.270296    40.198038 
43640000    277.02159    309.43802    291.91778   -18.505923    17.064633    17.520237    40.198077 
43644000     282.4769     329.5312     283.8074    -20.13923    16.679119      45.7238    40.196877 
43648000    273.31187     290.0306    289.99157    -17.28603    16.781347  0.039032218    40.195747 
43652000    269.29698     312.7019    271.72135   -18.630175    18.445236    40.980544    40.197851 
43656000    284.45478    328.90443    291.68392    -20.26336    17.757528    37.220509    40.198968 
43660000    277.15298    336.72134    269.26854   -18.961594    18.192208    67.452803     40.19743 
43664000    273.86787     327.3904    270.68638    -19.05798    18.632585    56.704024    40.198502 
43668000    268.23646    325.38836    272.13881   -18.073629    18.611136    53.249544    40.198403 
43672000    281.87248    336.71544    282.26065   -19.777023    19.043053    54.454791    40.198575 
43676000    274.33118    337.97824    273.04295   -19.275612    19.218593     64.93529    40.199407 
43680000    265.48393    303.26194    275.00732   -17.253052     18.77762     28.25462    40.198701 
43684000    281.70752     345.8307    268.49107   -19.808836    18.785967    77.339631    40.200302 
43688000    279.00074    326.01972    281.29582   -19.915639    17.537469    44.723907    40.200066 
43692000    276.84933    320.36492    287.35307   -18.718698    18.910531    33.011847    40.200042 
43696000    271.45847    334.74572    266.51926   -19.075616    18.653864    68.226456    40.200649 
43700000    274.34768    310.00479    286.20987   -18.548057    18.898565    23.794923     40.20125 
43704000    273.34059    310.65991    278.63425   -18.807086    19.413642     32.02566    40.201327 
43708000    268.99249    315.01669    274.16977   -18.161022    19.726431    40.846918    40.201329 
43712000    281.37366    325.43564    285.93071   -19.563661    18.955247    39.504929    40.202412 
43716000    285.78767    345.66126    290.51495   -20.667955    17.876627    55.146314    40.199487 
43720000    278.01766    313.98937    289.48188   -17.617907      16.9266    24.507495    40.196977 
43724000    281.75958    337.92947    292.31268   -19.241359    16.841837    45.616795    40.196187 
43728000    280.52301     318.2527    292.22602   -17.975506    16.073215    26.026677    40.193929 
43732000    270.71872    324.97203    271.71517   -18.374509    17.144919    53.256856    40.194116 
43736000    279.32842     317.2431    290.16664   -17.759448    15.658498     27.07646      40.1953 
43740000    274.55549    326.39075    277.42187   -18.340625    17.244561    48.968881    40.196686 
43744000    275.94021    335.19557    269.80784   -18.092089    18.491578    65.387723    40.197572 
43748000    285.72189    339.71608    290.73677   -19.676954    17.399989     48.97931    40.197987 
43752000    269.87502    314.36734    285.61059   -18.784489    18.310325    28.756743    40.199483 
43756000    269.78885    318.58395    276.04196   -19.528816    19.009932    42.541991    40.200124 
43760000    270.70729    313.25596     285.6016   -17.570616    17.148829    27.654358    40.197647 
43764000    274.02437    343.78808    255.29822   -20.218193    19.173156    88.489853    40.198133 
43768000    278.45415    321.79396    284.82432   -19.376308    19.205604    36.969646    40.197762 
43772000    277.25205    327.50385    269.77775   -20.145802    18.738826    57.726102    40.197265 
43776000    273.90659    329.13174    258.76087   -19.960906    19.511083    70.370872     40.19804 
43780000    279.90361    332.73987    278.55117   -19.398479    18.882649      54.1887    40.197938 
43784000    274.00563    293.98022    279.39211   -17.722453    19.059467    14.588112    40.198059 
43788000    273.45367    324.37932    261.86673   -19.328259    19.374602    62.512583    40.200286 
43792000     279.3055      323.975     274.3503   -18.830754    18.955333      49.6247    40.200967 
43796000    272.59797    317.19867    280.39522   -19.315837    19.026852    36.803447    40.202392 
43800000    273.01233     324.0957    268.28631   -19.889741    19.114229    55.809391    40.203226 
43804000     278.3963    323.42235    280.79469   -18.916248    18.521804     42.62766    40.202757 
43808000     279.0779     336.8595    263.69326   -18.767225    18.814335    73.166234    40.202658 
43812000    271.66086    320.61267    282.59023   -19.832183    17.162122    38.022443    40.203372 
43816000    279.19565     340.2994    282.75978   -20.322775    18.042514     57.53962    40.202351 
43820000     278.2526    325.53764    284.02304   -19.468778    17.926018      41.5146    40.203436 
43824000     273.6607    317.14371    275.93262   -18.481198    19.194398    41.211091    40.205092 
43828000    271.40182    312.36959      279.483   -17.759262    17.767588    32.886586    40.207269 
43832000    269.98576    304.60058    254.36471   -17.466335    19.839627    50.235867    40.208111 
43836000    270.70668    339.07843    261.87077   -20.008969    18.997838    77.207665     40.21117 
43840000    275.78971    342.90412    269.70857    -19.68895    18.309533    73.195551     40.21057 
43844000    273.63662    316.37701    280.97487   -18.767402    18.525641     35.40214    40.209367 
43848000    280.26381    347.36624    280.51586   -19.808991    18.218567    66.850376    40.207699 
43852000    276.55027    343.65889    262.90569    -19.71617    18.439463    80.753197    40.207248 
43856000    276.56295     313.9963    282.11832   -18.425639    17.564197    31.877982    40.207721 
43860000    287.27268    318.09422    298.37621   -20.003689    18.374291    19.718015    40.209047 
43864000    268.60021    299.50919    273.78695   -18.644051    18.832579    25.722236    40.208517 
43868000    272.24106    328.10405    259.30256   -20.784384    19.786498    68.801488    40.209071 
43872000    266.47755    304.29465    279.12347   -18.987203     18.70778     25.17118    40.209613 
43876000    283.31494    327.87114    280.75123   -20.588484    18.885691    47.119908    40.209774 
43880000    283.37205    342.47266    284.95637   -20.550813    19.629485    57.516283     40.21002 
43884000    273.25083    302.10526     293.2089   -18.680143    18.563618    8.8963629    40.210343 
43888000    283.32911     341.5678    277.87344   -20.694436    18.434316    63.694361    40.211104 
43892000    289.47851    352.57383    301.07046   -20.673229     16.94058    51.503367     40.21095 
43896000     275.0084    336.26631    262.17515   -20.400104    18.458149    74.091162    40.210732 
43900000    272.15611    295.09533    288.56938   -18.223864    18.450222    6.5259551    40.210286 
43904000    282.23459    310.76828    291.86447   -19.145424    17.023707    18.903813    40.208564 
43908000    275.11276    310.61543    279.75432   -19.723903    18.368095    30.861103    40.205513 
43912000    273.10917    314.26406    268.78187     -18.7464    19.456481    45.482194     40.20619 
43916000    265.37359    306.06331    276.56191   -18.503203    18.629407    29.501398    40.205817 
43920000    282.02241    336.27647    281.81612   -19.891607    19.207386    54.460351    40.205027 
43924000    277.93048    314.21603    304.59682   -18.826056    18.528116    9.6192056    40.204532 
43928000    273.92691    320.19978    275.19208   -19.514941    19.473921    45.007695    40.204555 
43932000    271.14742    312.70946    267.43334   -18.465848    18.702792    45.276121    40.204696 
43936000      270.576    315.10669    270.43476   -19.452802    19.309651    44.671938    40.204569 
43940000    273.68748    310.97563      270.504   -19.887832    19.120665    40.471625    40.205589 
43944000    281.12165    322.34272    283.41124   -19.677755    18.186222    38.931478    40.205736 
43948000    271.04883    293.58566    275.91551   -17.164689    18.675604    17.670157    40.206499 
43952000    277.01335    312.60848    295.13642   -19.109335    17.787556    17.472066    40.204882 
43956000    271.35916    307.14291    270.61121   -19.497371    19.570736    36.531693    40.205188 
43960000    269.54092    313.75483    283.72307   -18.608434    19.652204    30.031764    40.205899 
43964000    262.13914    305.62982    270.26062   -18.456381    20.306592    35.369202    40.205965 
43968000    270.80962    311.86868     278.1404   -18.454465    19.403515    33.728277    40.208808 
43972000    273.18455    301.15946    287.13311   -18.521888    18.800143    14.026349      40.2072 
43976000    271.19264    309.40621    290.59978   -18.513952    19.546405    18.806436    40.207732 
43980000    283.13177    338.65122    290.22551   -19.943337    19.802043    48.425715     40.20585 
43984000    271.33492    304.27706    270.32306    -20.03972    19.210069    33.954001    40.205762 
43988000    272.94132    327.22802    282.18142   -19.361899    18.448611    45.046599    40.205747 
43992000    271.81503    335.63291     266.6707   -20.196572    19.387224    68.962212    40.207332 
43996000    275.59169    328.98511    264.12753   -20.164511    19.193954    64.857578    40.207153 
44000000    277.99459    318.90796    283.33666   -19.375403    17.341709    35.571303    40.205945 
44004000    283.32408    345.38381    266.70634   -21.343691    18.761109    78.677469    40.207114 
44008000    282.53056    315.76543    296.77236   -19.862991    17.925267    18.993064    40.207259 
44012000     276.3556    306.77219    284.30229   -19.865189    17.542768      22.4699    40.207872 
44016000    277.65954    333.67846    271.42915   -20.094777    17.259631    62.249312    40.207602 
44020000    276.61132    323.92094    272.81936   -19.662693    17.312366    51.101584    40.207389 
44024000    279.16912    313.63414    284.63922    -20.35907    16.958761    28.994925    40.205742 
44028000    276.70492    300.05353    291.31224   -19.706308    18.065023    8.7412851    40.206425 
44032000    274.76435    310.40792    278.73697   -19.919529    18.454644    31.670942    40.207965 
44036000    275.06707    312.91459    268.88994   -20.281992    17.794613    44.024644    40.206054 
44040000    281.33891    313.02048    278.76653    -20.17216     16.94511    34.253956    40.204228 
44044000    279.84892    323.85542    287.78848   -20.056535    16.676368    36.066944    40.201465 
44048000    285.37889     332.5172    301.90534   -22.448475    16.973877    30.611854     40.20239 
44052000    269.86267    290.71019     284.2069    -20.11118    17.100683    6.5032925    40.202145 
44056000    284.66303    320.96848    300.57946   -20.271774    16.214759    20.389011    40.202948 
44060000    278.60505     316.5704    284.52647   -20.096295    17.933068    32.043925    40.202206 
44064000    264.88088     298.8731    268.59415   -19.293194    19.265256    30.278943    40.200563 
44068000    280.26596    313.90574    274.41909   -19.985235    18.930714    39.486649    40.200954 
44072000    279.15001    323.73369    292.18651   -19.443508    18.073639    31.547176    40.200133 
44076000    278.11779    325.05309    280.57531    -21.33939    17.333492    44.477773    40.198939 
44080000    289.77404    351.15373    299.50789   -22.018172    17.313329    51.645839    40.200366 
44084000    276.19229     326.5866    274.43154   -19.303002    18.605845    52.155069    40.199859 
44088000    274.60413    314.91672    272.52366   -19.723485     18.99112    42.393058    40.198304 
44092000    281.26485    335.38646    287.74683   -18.916496    19.072847    47.639632    40.199521 
44096000    267.84244    310.14307    268.30225   -18.463541    18.803862    41.840826    40.198715 
44100000    278.11897    327.47308    279.01487   -18.165368    18.741913    48.458219    40.198314 
44104000     275.7355    329.34023    269.74873   -16.947662    19.025098    59.591501    40.198111 
44108000    278.80779    329.04033    301.88399   -19.177662    17.538015    27.156338    40.196879 
44112000    270.36541    300.36747    284.33463   -17.634969    18.480947    16.032842    40.196617 
44116000     284.0999    337.82456    290.90447   -19.367803    17.759207     46.92009    40.196556 
44120000     274.1653    315.63033    281.57508   -18.272596    17.713455    34.055257    40.197382 
44124000    268.03421    306.84962    272.97124   -18.667015    19.039689    33.878385    40.197314 
44128000    264.11942    299.51551    271.45555   -18.230409    18.824524    28.059955    40.195664 
44132000    276.54159     331.5728     286.3221   -18.756472    18.280834    45.250706    40.195611 
44136000    268.91274    300.33411    284.80566   -17.300095     18.08136     15.52845    40.195871 
44140000    280.39308    325.75077    284.58861   -19.009017    18.212291    41.162163    40.196912 
44144000    279.28509    313.03752    282.04177   -19.636935    18.933728    30.995752    40.196647 
44148000    274.08918    325.83466    281.24119   -18.162118    18.257663    44.593469    40.195036 
44152000    269.50068    297.01655    305.28572   -16.907506     17.38211   -8.2691696    40.194659 
44156000    277.02534    328.19027    276.85223   -17.859247     18.74763    51.338045    40.194141 
44160000    273.05126    338.00645    280.91676   -18.860243    18.254178    57.089692     40.19504 
44164000    276.94272    330.22335    270.54406   -17.947128     18.87217    59.679288    40.196021 
44168000    269.34356    330.71379    257.28053   -18.631677     20.71533    73.433257    40.196386 
44172000    271.25333    315.66789    280.04859   -17.742629    19.334246    35.619296    40.195307 
44176000     271.5604    327.16596    270.98854   -18.976985     19.19149     56.17742    40.193969 
44180000    265.75355    322.56013    278.85539   -19.197202    19.904089    43.704745    40.194377 
44184000     272.9883    300.77866     293.9279    -18.15223    18.410535    6.8507588    40.192125 
44188000     275.6588    321.82631    281.74828   -19.883535    19.117018    40.078034    40.190684 
44192000    268.83663    305.33447    280.38178   -18.674051    18.855375    24.952696    40.190503 
44196000    275.48091    311.57959    286.78536    -18.73332     19.74699    24.794238    40.189889 
44200000    273.03864    329.53688    275.96697   -19.400147    19.714361    53.569906    40.190736 
44204000    267.68458    311.92765    270.02066   -17.635072    18.890683    41.906994    40.191265 
44208000    278.55898     329.8296     289.3945   -20.021616    18.050442    40.435107    40.191965 
44212000    271.40239    315.51808     269.4038   -18.869832    18.372462    46.114285    40.190355 
44216000    272.41006    310.77204    273.75466   -18.751598    18.459615    37.017382    40.191109 
44220000     268.2305    304.26625    279.03585   -18.407125    18.646315    25.230393    40.190249 
44224000    273.60182    327.22777    279.97211   -18.757227    19.074787    47.255655    40.191013 
44228000    275.47075    346.93511    267.79506   -19.624556    19.724016    79.140052    40.191797 
44232000    274.65174    317.05115    294.12429   -17.506313    18.619319     22.92685    40.190859 
44236000    264.31816    315.70038    258.39202   -17.162511    20.470114    57.308361    40.189908 
44240000    274.09416    335.66135    278.82934   -19.178266    17.961976    56.832016    40.191193 
44244000    268.31469    308.79076    282.68755   -17.859244    18.693445    26.103217    40.190804 
44248000    269.84898    312.36018    272.53185   -17.938813    19.803705    39.828332     40.18933 
44252000    277.60891    331.54442    280.42896   -18.639805    18.793957    51.115464    40.188526 
44256000    273.41536    315.21698    282.66777   -17.277627    18.501768    32.549219    40.187685 
44260000    277.69571    330.63873    296.32809   -16.957926    17.163551    34.310647    40.186361 
44264000    268.76944    320.91987    269.32024   -17.474617    18.889165     51.59963    40.186082 
44268000     278.9111    329.40534     287.8816    -18.14381    18.359851    41.523738    40.186514 
44272000    276.78711    331.74315     291.8104   -18.661671    17.842054    39.932742    40.186205 
44276000    268.17951    319.16241    267.83652   -18.403359    19.173252     51.32589    40.185983 
44280000     270.2636    313.47329    277.63788   -18.144371    18.215545    35.835417    40.186764 
44284000    274.77665    345.37459    268.06062   -19.957025    19.560695    77.313969    40.188595 
44288000    271.66853    324.21212     287.1032   -17.021106    19.232991     37.10892    40.187485 
44292000    264.45056    308.41774    275.04631   -16.772352    19.263765    33.371436    40.187722 
44296000    267.26878    306.44298    290.32551   -16.392189    18.266976    16.117471    40.188898 
44300000     277.3165    323.60704    297.41996   -16.761331     16.66157    26.187083    40.189791 
44304000    270.81707    339.86108    283.87652   -17.300238    18.246977    55.984559    40.190684 
44308000    268.21732    314.55993    282.09589   -15.859358    17.725895    32.464038    40.192831 
44312000    273.31648    333.47323    274.09367   -18.449762    18.687114    59.379553     40.19223 
44316000    270.47414     322.9352    279.46589   -17.282767    19.034027    43.469316    40.191202 
44320000    278.14197    346.56516    282.49144   -17.473239    19.032758    64.073716     40.19223 
44324000    275.53987    318.96152    280.50426    -16.18092    18.527944    38.457263     40.19015 
44328000     271.5304    316.85967     299.3221   -15.933755    17.334889     17.53757     40.19196 
44332000    263.09276    313.40007    263.60512   -15.583613    19.250835    49.794946    40.190694 
44336000    268.49117     296.1079    286.57084   -16.050511    17.635429    9.5370618    40.190527 
44340000    270.30407    322.97589    262.84687   -17.649238    18.742028    60.129018    40.189717 
44344000    277.09288    334.39437     269.1228   -18.033665    18.822002    65.271571    40.188275 
44348000    269.51193    306.55746    267.24596   -17.239066    19.822348    39.311504    40.188148 
44352000      269.433    310.03032    280.18497   -16.742623    18.741007    29.845354    40.188505 
44356000    280.36375    330.49232    298.16726   -18.174448    17.623024    32.325063    40.188229 
44360000    273.08725    319.84824    274.02188   -17.286719     18.99871    45.826359    40.186916 
44364000    266.58179    317.32019    281.83153   -16.957286    18.784346    35.488661    40.185075 
44368000    273.07185    328.24822    281.99128   -17.503522    18.943255    46.256946     40.18358 
44372000    273.13349    310.33856    299.52887   -17.150459    17.376363     10.80969     40.18175 
44376000    267.56407     320.4822    270.57783   -17.340292    19.210641     49.90437    40.183642 
44380000    271.05844    327.22213    277.15463   -17.844879    17.946348      50.0675     40.18433 
44384000     274.4773    338.46176    275.87427   -18.001926    18.310937      62.5875    40.183833 
44388000    274.26315    321.43278    275.81097   -17.980266    18.831429    45.621808    40.182725 
44392000    275.66194    323.23006    288.26699   -17.517395    18.516475    34.963072    40.181731 
44396000    274.93747      332.382    280.98343   -18.878469     18.93317    51.398574     40.18108 
44400000    270.28939    311.53512    286.63105   -17.915067    17.632676     24.90407    40.182803 
44404000    275.95529    317.94871    294.88683    -20.15281    17.685244    23.061885    40.184295 
44408000    268.98034    327.66266    269.31169   -19.539474    19.488448    58.350961    40.185691 
44412000    276.17602    337.78795    263.36337   -20.298941    20.152456    74.424581    40.186321 
44416000    274.91567    309.37816    286.08838    -17.82315    19.405451    23.289774    40.185063 
44420000    278.05508    329.58369    295.88494   -18.805386    18.819547    33.698751    40.185174 
44424000    279.52046    342.46575    290.50701   -19.697344    17.880522    51.958738    40.185011 
44428000    274.60749    316.30695    274.49499   -18.006859    18.472813    41.811954    40.183722 
44432000    271.75805    316.54509    299.20048   -17.907914    17.851149    17.344609    40.181735 
44436000    283.20228    344.14075    275.60403   -20.406257     18.48318    68.536716    40.180998 
44440000    274.84577    350.27907    265.11935   -20.763313    20.162015    85.159717    40.181671 
44444000    274.90726    326.80804    277.60416   -18.822143    19.280934    49.203878    40.182365 
44448000    269.93467    319.96366    255.79138   -18.448639    21.424643    64.172281    40.184394 
44452000    289.05837    350.59832    293.51958   -19.785199    19.093665    57.078739    40.182951 
44456000    273.54377    327.79354    269.15857   -19.091266    19.528927    58.634972    40.182288 
44460000    275.32446    309.35082    279.23225   -18.393623    19.527001    30.118569    40.182496 
44464000    274.20077    304.07329    283.64027   -19.019065    18.072355    20.433014    40.179331 
44468000    262.90332    283.30336    284.13491   -16.828401    19.351139  -0.83155072     40.17813 
44472000    279.62986     340.4551    276.54381   -20.292202    20.427372    63.911296    40.177385 
44476000    275.43543    328.26122    287.55008   -19.418884    18.325451    40.711141    40.179823 
44480000    278.06575    331.58933    287.91381   -19.682275    19.403249    43.675525     40.17907 
44484000    270.77138    322.77665    272.44835   -19.331057    20.085039    50.328302    40.182144 
44488000    268.54738    341.57508    245.72978   -20.800538    19.503216    95.845304     40.18169 
44492000    281.34513    332.89957    289.97077   -20.211758    17.975521    42.928796    40.184135 
44496000    286.01468    330.88265    296.25509   -20.070627    17.186803    34.627562    40.182763 
44500000    274.39691    303.26162    298.58092   -18.073539    17.699532     4.680703    40.182633 
44504000    270.83672    296.18686    271.46576   -18.562869    18.375155    24.721097    40.179552 
44508000    274.96075    331.30902    285.08157   -19.668908    18.747651     46.22745    40.180218 
44512000    285.49721    331.89879    301.94344   -20.719613    17.490943    29.955349    40.180401 
44516000    279.82203    328.88159    277.70811   -19.990788    17.618291    51.173484    40.180788 
44520000    278.49153    333.45365    278.10434   -19.663935    19.182247    55.349309    40.180069 
44524000    281.33133    338.69647    289.40138   -18.987533    18.730652    49.295081    40.179387 
44528000       287.93    346.13221    281.46033   -20.452076    17.652662    64.671879    40.178295 
44532000    274.95547    332.51996      269.942   -18.639067    19.154573    62.577958    40.180158 
44536000    283.14865    337.96503    285.42828   -19.668589    17.578497    52.536748    40.178933 
44540000    275.54425    305.66507     291.5315   -18.614491    17.511606    14.133577    40.177239 
44544000    275.07455    306.61656    300.29581    -18.25548    17.730242    6.3207569    40.175941 
44548000    278.68794    327.70556    280.92444   -19.935866    18.538295    46.781118    40.175057 
44552000    272.92171    289.41354    303.89743   -17.581159    17.509173   -14.483886    40.175271 
44556000    284.97071    341.84709    284.14236   -19.673083    18.878957     57.70473    40.173699 
44560000    270.92896    300.17571    272.79731   -17.002026    19.207635    27.378402    40.173184 
44564000    274.65343    323.99644    277.82702   -19.496762    19.294616    46.169415    40.172382 
44568000    277.01247    317.71899    289.95042    -18.79998    18.436728    27.768566    40.172181 
44572000    260.32661    313.68555    253.87179   -18.529703    19.471492    59.813761    40.173083 
44576000     286.7425    348.73585    291.16424    -20.37206    18.015915    57.571613    40.172023 
44580000    273.68254    319.69791    277.25472   -20.331266    18.528732    42.443189    40.172029 
44584000    272.53574    321.62506    271.22778   -19.366804    18.019098    50.397284    40.172221 
44588000    269.50278    312.36422    267.95795   -18.811681    19.674874     44.40627    40.172897 
44592000    276.26416    335.01895    283.16259   -19.683758    19.070177    51.856358    40.173401 
44596000    276.56203      345.931    266.15565   -20.490688    20.628901    79.775353    40.172683 
44600000    281.05218    343.78965     277.7018   -20.808659    19.135191    66.087847    40.174379 
44604000    277.74615    312.65545    304.33907   -18.643349    17.944166    8.3163802    40.172636 
44608000    267.01459    307.34569    275.71708   -17.642549    19.520133    31.628614    40.172583 
44612000    271.14777    320.38439    285.78025   -19.406832    19.293527     34.60414    40.172301 
44616000    272.14095    301.23845    293.52416   -19.080501    20.656244    7.7142927     40.17236 
44620000    274.40942    318.96831    273.07738   -19.294511    20.303699    45.890927      40.1723 
44624000    282.24867    341.14984    310.34541   -21.044913    18.613312    30.804428    40.172298 
44628000    268.09874    320.33586    275.78238   -20.598799    21.266688    44.553481    40.172983 
44632000    272.09184    317.21026    288.92476    -19.91199    20.163931    28.285499    40.174789 
44636000    275.87108    321.25362    267.51169   -20.202282    21.185282    53.741933    40.176086 
44640000    267.22714     307.7037    265.70661   -19.414499    21.694705    41.997092    40.175636 
44644000    272.66562    313.86437      290.028   -19.637562    20.001579    23.836367    40.174295 
44648000    282.06203    324.95637    295.63294   -20.651981    19.777061    29.323427     40.17445 
44652000    275.16944    335.00624    274.19345   -20.405463    20.081942    60.812795    40.173618 
44656000    279.45034     333.9146    284.97868   -21.321229     19.59845    48.935924    40.174301 
44660000    266.70182    330.68525    263.63912   -19.586411    20.786271    67.046135     40.17446 
44664000    269.99722    303.69173    277.89469   -17.989706    20.353368    25.797044    40.175121 
44668000    274.75107    327.65973    282.10564   -21.359153    19.686708    45.554092    40.174957 
44672000    260.03192     304.8108    256.38038   -20.123778    21.618188    48.430423    40.174627 
44676000    269.42206    313.47572     270.5345   -20.196955    20.277494     42.94122    40.173355 
44680000    272.03199    310.26089    278.05714   -20.441825    20.592086    32.203751    40.173005 
44684000    278.11128    313.05764    278.32926   -19.935483    19.478979    34.728379    40.170788 
44688000    272.51798    326.79831    283.26536   -20.351129    19.500549    43.532946    40.172807 
44692000    265.92445    285.36213    282.81219   -18.230045    19.981657     2.549941    40.171087 
44696000    276.53457    319.92038     290.6224   -19.814096    19.978044    29.297972    40.170752 
44700000    271.57801    318.09691    273.37814   -19.245603    20.645929    44.718769     40.17032 
44704000    276.49217    323.37396    286.98211   -19.948117    19.444468    36.391847    40.171017 
44708000    268.21464    327.67068    274.07866   -18.801523    20.463927    53.592021    40.171471 
44712000    280.89195     334.4343     292.8613   -21.043494    20.877353    41.573002    40.174199 
44716000    270.39697    315.73187    292.74443    -19.63677    20.107411    22.987436    40.173359 
44720000    274.43447     295.3793    288.74145   -18.424632     20.31231    6.6378476    40.173127 
44724000    275.10289    324.80198    282.44579   -20.849722    20.604769    42.356189    40.172277 
44728000    270.68259    330.57784    273.18996   -20.889503    20.642197    57.387874    40.170874 
44732000    274.61783    313.28284    259.57599   -21.666933     21.59941    53.706852    40.169647 
44736000    281.10001     339.8684    287.52067   -21.443058    19.772687    52.347728     40.17147 
44740000    270.52681    307.04353    285.86504   -20.216307     20.29341    21.178489     40.17021 
44744000    281.41303    319.87767    291.82702   -21.392681    20.581348     28.05065    40.171084 
44748000    278.42577    320.53526    279.24157   -20.005505    19.851305    41.293692    40.170791 
44752000    284.01969    332.30865    299.16336   -20.796725    19.963419    33.145291    40.171206 
44756000    278.95752    330.26095    279.58042   -20.677802    21.075906    50.680535    40.171431 
44760000    275.67596    338.17643    267.20418   -21.469329    21.042209    70.972253    40.173257 
44764000    275.05206    331.12427    269.84425   -21.195484    20.313353    61.280023    40.174975 
44768000    279.19981    335.33824    285.61325   -21.231691    19.998141    49.724988     40.17364 
44772000    272.30891    312.77843    279.44412   -19.933421     20.04855    33.334305     40.17225 
44776000    275.78023     310.0717    275.57929   -20.811382    19.251414    34.492415    40.172832 
44780000    276.61184    325.90123    273.05723   -20.116924    20.094215    52.844001    40.174514 
44784000    274.38291    317.88294    293.69724    -20.49744    19.056593    24.185699    40.175373 
44788000    274.85574    311.46725    283.71836   -19.629967    19.254742    27.748884    40.176814 
44792000    279.77805    324.71351    289.66927   -21.007847    19.962599     35.04424    40.177425 
44796000    280.52641    321.47631    299.88423   -20.785154    18.874478    21.592079    40.177057 
44800000    280.34567     323.9019    285.53392   -21.677582    18.277548     38.36798    40.177129 
44804000    270.59126     289.4833    263.71991    -20.25381    20.488245    25.763381    40.176545 
44808000    274.89997    296.07427    294.65362   -21.773839    19.499727     1.420648    40.176725 
44812000    285.83275    321.38477    298.19678   -21.443977    19.846647    23.187991    40.178913 
44816000    274.84641    330.18505    279.59581   -21.790974    19.214704    50.589243    40.179738 
44820000    268.56945    303.16403    280.77105   -20.032515    19.892554     22.39298    40.180252 
44824000    270.46661    310.02716    284.16847   -21.482569    19.806349    25.858682    40.178918 
44828000    288.55351    307.12659    309.26723   -22.136788    18.972224   -2.1406346    40.178034 
44832000    269.46508     309.9318    275.50934    -21.42255    20.244412    34.422458    40.177247 
44836000     283.8868    338.25431    279.77986   -21.325363    21.080064    58.474448    40.178871 
44840000    272.91227    298.24203    283.74834   -19.608879     19.83218    14.493693    40.180459 
44844000    283.89798    351.39032    287.71469   -21.959428    18.709348     63.67563    40.180324 
44848000    264.90439    309.70142    269.39895   -19.777181    20.174566     40.30247    40.179777 
44852000    281.16965     352.6764    283.90515   -22.618936     19.13073    68.771247    40.180449 
44856000    274.57226    322.94853     275.4532    -21.13095    20.233471    47.495335    40.181003 
44860000    267.29127    308.95789     271.2163   -20.577022    20.303569    37.741596    40.181211 
44864000    283.80653    347.84708    296.54306   -21.619066    18.848635    51.304022    40.180481 
44868000    267.67677    314.77596    265.74527    -20.28291    21.071802    49.030686    40.181389 
44872000    270.94655    310.27693    290.10962   -20.519735     19.45731    20.167308    40.183108 
44876000     277.8652    348.68621    273.43872   -22.006561    20.404727     75.24749    40.185627 
44880000    272.18071     310.1742    268.93809   -19.021613    20.399962    41.236109     40.18553 
44884000    276.39329    337.55726    266.93488   -21.477707     20.40653     70.62238    40.185924 
44888000    275.12909    320.01833    278.64362   -19.292747    20.651704     41.37471    40.188276 
44892000     270.0685    312.42013     283.6852   -19.460905    19.587991    28.734931    40.187654 
44896000    275.44292    335.38999    266.49492   -21.290827    20.950471    68.895063     40.18852 
44900000    269.05857     314.3282    272.02557   -20.556278    20.543227    42.302637    40.187334 
44904000    268.87579    308.33671    277.57222   -19.836032    20.027358    30.764494    40.186704 
44908000    269.69962    322.36516    261.65639   -20.668515    21.445613    60.708766    40.188796 
44912000     270.2652    315.06268    261.82458   -20.325142    20.878247    53.238095    40.188742 
44916000    284.96102    374.58456    270.88555   -22.816763    20.752157    103.69901    40.190512 
44920000    277.44897    314.59484    290.38667    -20.92867    21.099729    24.208168    40.190517 
44924000    280.59453    334.38492    297.19191   -22.131929    20.142744    37.193006    40.190409 
44928000    273.61411     310.2477    285.22676   -19.489449    20.652457    25.020932    40.189659 
44932000    275.14329    317.67687    281.59296   -21.122428    19.597039    36.083917    40.189585 
44936000    276.52318    333.12088    282.10673    -20.88948    20.521634    51.014143    40.190303 
44940000    272.42931    333.34926    269.86759   -21.385511    20.684402    63.481671    40.190925 
44944000    279.96984    339.57074    263.86524   -21.913595    20.585353    75.705507    40.190519 
44948000    279.36607    341.35192    269.92232   -22.168757    20.365019    71.429599    40.190726 
44952000    284.40303    331.40325    294.04299   -20.280367    20.124521     37.36026    40.190204 
44956000     277.0115    332.71286    282.05188   -20.441772    20.577646     50.66098     40.19131 
44960000    280.37176    317.03957    299.46779   -20.747685    20.006084     17.57178    40.192773 
44964000    266.29055    308.41775    283.11229   -19.430114    20.471548     25.30546     40.19197 
44968000     276.7554    309.44665    299.12538   -19.841822    20.813457    10.321273    40.190622 
44972000    276.67103    306.02757    301.85764   -20.143516     19.82865    4.1699384    40.190505 
44976000    279.68253    311.31976    264.07884   -21.150506    21.327031    47.240917    40.191046 
44980000    280.72044    343.43913    288.28741   -21.679288    20.428964    55.151721    40.189064 
44984000    269.12415    290.07161    289.72291   -20.106239    19.914397   0.34870706    40.185784 
44988000    276.02296    324.21645    280.77767    -20.67176    20.360691    43.438783    40.184756 
44992000    280.11159    335.01151    275.59324   -20.447541    20.865443    59.418269    40.185718 
44996000    285.50936    317.64786    300.49101   -21.688939    20.215878    17.156853    40.186856 
45000000     275.3591    325.79241    260.65932   -23.635552    22.812912    65.133096    40.186786 
45004000    284.73737    325.63184    295.56407   -23.699939    21.346029    30.067775    40.185477 
45008000    271.27373    297.05856    272.11443    -23.75535    21.426841    24.944132    40.187486 
45012000    282.28927    336.38884    270.54431   -23.359949     20.68578    65.844529     40.18806 
45016000    270.74782    313.14172    268.52398   -22.342105    20.996499     44.61774    40.188442 
45020000    276.10539    324.46819    279.00189    -22.09277    20.997539    45.466304    40.188948 
45024000    278.09351    320.41731    293.48716   -21.960713    20.422235    26.930151    40.186759 
45028000    273.55607    304.24464    295.13868   -20.206546    21.116883    9.1059543    40.187912 
45032000    270.67212    315.39932    281.26126   -20.729525    21.516523     34.13806    40.189241 
45036000    276.63403    320.92387    266.66132   -20.190156     21.66019    54.262555    40.189538 
45040000    266.93643    299.24169     270.0805   -20.417658    21.936848     29.16119    40.188668 
45044000    276.14352    306.17287    282.91677   -21.312758    19.848119    23.256108    40.186753 
45048000    284.67881    350.81631    282.56816   -22.391883    21.188084    68.248142    40.187666 
45052000    269.22244    306.23593    265.29028   -20.550558    21.149208    40.945656    40.188229 
45056000    282.47814     331.5651    292.26148   -22.039252    19.925742    39.303619    40.191078 
45060000    277.85361    295.48777    306.74138    -19.98625    19.409942   -11.253613    40.189799 
45064000    272.92413    311.85812    277.75085   -21.524685    21.193866    34.107271    40.190031 
45068000    276.33546    318.08074    293.00716   -21.327485    20.049775    25.073583    40.189227 
45072000    275.05838    318.40748     290.4887   -21.825084    20.694997     27.91878    40.189381 
45076000    277.70879     315.4308    292.42552   -21.694031    21.183782    23.005285    40.190682 
45080000    278.29279    313.69508    285.23435   -20.695515    20.678618    28.460731    40.190131 
45084000    279.19539    342.39144    272.97153   -21.066104    21.605127    69.419911     40.19118 
45088000    268.19563    312.64221    276.40675   -20.617002    20.526449    36.235458    40.191504 
45092000    270.78771    327.67016    251.42042   -23.080984    22.801898    76.249742    40.191874 
45096000    275.05455    310.49131    285.74735   -21.255866    20.562832    24.743956    40.191507 
45100000    272.47501    316.08004    285.17742   -22.073885     21.23227    30.902615    40.191857 
45104000    275.16291    315.23722      281.782   -20.756537    20.484293     33.45522    40.191584 
45108000    269.80266    283.45849    285.26652   -18.840852    20.661386   -1.8080316    40.189879 
45112000    268.46223    294.39795    289.87052   -19.483381    21.349638    4.5274265    40.187828 
45116000     268.5402    302.40851    277.06603   -21.040312    21.830415     25.34248     40.18605 
45120000    283.72544    320.35714    301.63783   -20.607729    20.770164    18.719309    40.187369 
45124000    278.91349    320.52757    286.64668   -21.388968    20.561516    33.880892     40.18851 
45128000    285.49748    351.28653    288.39126   -23.388977    20.847378    62.895268    40.189931 
45132000    279.10201     328.7169    291.25034   -21.815993    21.515219     37.46656    40.189701 
45136000    276.31739    314.52152    280.52339   -21.315027    21.456784    33.998126    40.188535 
45140000    287.13967    342.10518    283.20391   -22.092627    20.497815    58.901266    40.189769 
45144000    267.94883    313.32673    279.60157   -20.745138    21.212063    33.725154    40.189659 
45148000    276.39805    319.87184    286.78476   -21.286513    21.135233    33.087087    40.189169 
45152000    274.69471     347.0491     264.7608     -22.8396    22.458515    82.288303     40.19005 
45156000    275.94149    327.08388    289.46921   -19.799187    20.718238    37.614673    40.190574 
45160000    274.73943    308.28189    297.44143   -20.262806    19.859281    10.840456    40.191124 
45164000    266.39781     307.3723    268.50935   -20.450836    21.214853    38.862948    40.192912 
45168000    272.03611    327.67676    279.36538   -21.891176    21.441938     48.31138    40.193278 
45172000    270.34002      319.252    270.81852   -21.393656    21.635331    48.433474    40.192931 
45176000    282.48795    331.76308    299.98325   -22.886304    19.595279    31.779836    40.192643 
45180000    276.02516    333.57677    257.97361   -21.508396    21.578579    75.603156    40.192467 
45184000    281.92442    347.61216    273.26902   -21.937996    21.311638    74.343131    40.191436 
45188000    270.95887    314.34218    273.20138   -19.796593    20.960602    41.140804    40.190396 
45192000    275.31394    322.62582    279.56176    -21.91382    19.978347    43.064056    40.190214 
45196000    266.53439    329.40475    261.09191   -21.930017     21.39931    68.312832     40.19111 
45200000    271.42549     293.6783    289.59388   -20.974637    20.502989     4.084424     40.19096 
45204000    279.96076    329.89341    291.75831   -20.468786    19.548251    38.135097    40.191685 
45208000    282.46614    312.17501    289.10905    -20.39516    20.181237    23.065961    40.192205 
45212000    274.68973    304.99285    299.19923    -21.34142    20.185632    5.7936171    40.192692 
45216000    276.08713    324.38564     272.0427   -21.963135    21.241461    52.342946    40.191217 
45220000    271.59611    300.06709    276.97955   -21.835646    21.393699    23.087541    40.192026 
45224000    276.60597    338.67555    279.64629   -22.430967    20.584032     59.02926    40.192288 
45228000    285.61352     335.1988    296.88595   -22.413661    20.169193    38.312855    40.193279 
45232000    273.21316    348.39396    277.11214    -21.81999    20.646096    71.281825    40.194978 
45236000    273.49438     322.2304    274.12999   -22.540123    20.483105    48.100413    40.195342 
45240000    269.89267    319.18388    272.03579   -22.341577    21.448796    47.148095    40.193283 
45244000    281.31627    330.16613    270.19504   -22.022018    21.240019    59.971092    40.192691 
45248000    284.35642    336.17912     297.3843   -21.974936    19.148666    38.794818    40.193564 
45252000    276.14287    309.34504    291.93402   -21.163217    20.042316    17.411023    40.193732 
45256000    273.70842    300.50312    290.21823   -20.812392    21.069101    10.284888    40.194188 
45260000    284.02553    326.90789    298.07203   -21.278404    20.647088    28.835867    40.195458 
45264000    272.45507    328.65376    262.58431   -23.043204    21.558646    66.069448    40.196965 
45268000    272.82155    319.64135    281.59688   -21.618251     20.95365    38.044467    40.196268 
45272000    279.01098    324.39029     283.7895   -22.381965    20.823309    40.600797    40.195209 
45276000    275.92001    332.80741    268.99665   -22.594166    21.301817    63.810754    40.194239 
45280000    278.88425    321.56984    290.33153   -21.253423    21.303041    31.238306    40.194469 
45284000     274.9932    326.07874    256.56246    -21.52896    22.326259    69.516282    40.194248 
45288000    274.53175    303.80626     303.9338   -22.566208    19.895903  -0.12754341    40.194783 
45292000    277.38651    333.72116    291.35294   -22.949058     21.01074    42.368222    40.194347 
45296000    278.49688     326.7098    283.02087   -22.863006    21.056952    43.688927    40.194013 
45300000    279.83243     320.7587    284.64364   -21.049276    21.075894     36.11506     40.19296 
45304000    279.21059    319.68973    297.28391   -21.314945    21.212563    22.405813    40.192338 
45308000    272.33241     317.1141    273.33627   -21.833133    22.296802    43.777829    40.193725 
45312000    272.81058    333.82915    264.31181   -22.255533    22.901705    69.517339    40.192163 
45316000    267.51308    292.32029    280.37922   -20.020791    22.176854    11.941069    40.194626 
45320000    281.93893    334.17481    305.78399   -21.524007    19.405964    28.390815    40.194197 
45324000    283.22109    327.65349    291.02908   -21.570345    20.367289    36.624411    40.194126 
45328000    266.26351    327.61926    261.65648   -22.016145    21.383463    65.962778    40.196467 
45332000    272.56929    309.90371    279.19515   -21.302854    20.764906    30.708562    40.196528 
45336000    276.54735      321.138    283.78652   -20.502109    20.687816    37.351478    40.196594 
45340000    281.33724    329.14913    296.50672   -20.430178     20.31161    32.642412    40.195211 
45344000    270.06823    300.15005    268.85863   -20.255096    21.192196    31.291416    40.194184 
45348000    270.82549    313.96377    272.60146   -21.152328    22.081332    41.362318    40.194811 
45352000    271.97063    309.23531    271.79493   -21.214976    22.147661    37.440377    40.196382 
45356000    269.60555    305.73243    291.14683    -22.11477    21.064482    14.585605     40.19741 
45360000    275.72076    317.86969    298.88054   -21.091591    20.672783    18.989147    40.199454 
45364000    272.30735     314.8534     286.7879   -21.824687    20.916975    28.065507    40.199019 
45368000    278.62239    342.46512    280.10777   -22.198715    22.513224    62.357352    40.198389 
45372000    281.71516    332.90144    284.98322   -20.574239    21.930281    47.918214    40.198585 
45376000    280.71667    347.22337    281.82196   -21.552777    21.270955    65.401413    40.198898 
45380000    278.97552    332.25282    293.76225   -21.049028    20.683536    38.490571    40.197549 
45384000    281.83553    353.77069    289.12573   -21.545678     20.64008    64.644958    40.198677 
45388000     277.4939    338.93411    260.27879   -22.721246     22.69592     78.65532    40.199928 
45392000    270.05987    318.75502    274.19577   -21.506835    21.430495     44.55925    40.201125 
45396000    278.98638     327.7868    277.92359   -21.851334    21.390366     49.86321    40.200959 
45400000     272.3355    320.60229     271.2676   -23.445705    22.699977     49.33469    40.201535 
45404000    278.84993    331.38756    280.95905   -23.651355    22.039198    50.428509    40.201549 
45408000     272.0731    304.34181    283.25593   -22.732181    22.610141    21.085885    40.202018 
45412000    268.15962    322.22568    277.83952   -23.008343    23.786167    44.386165     40.20259 
45416000    267.04607    323.17489    265.90205   -21.656024     23.87922    57.272847    40.202537 
45420000    271.47021    336.45744    265.16895   -21.990126    23.665566     71.28849    40.202412 
45424000    274.87044     333.3693    284.78709   -22.201863    22.571251    48.582214     40.20243 
45428000    273.71022    306.36362    293.85518   -21.020627    21.453048    12.508445    40.202506 
45432000    284.79328    336.68835    306.66478   -22.997037    21.638448    30.023568    40.204181 
45436000    271.34752    307.03796    307.64858    -21.06708    22.375505  -0.61062192    40.205438 
45440000    271.02914    336.91981    288.03374   -23.718599    22.143444    48.886072    40.204467 
45444000    276.87806    325.36131    282.44063   -22.452566    23.434948    42.920674    40.205242 
45448000    272.22716     336.0433    285.93326   -22.214957    22.391063    50.110043    40.206224 
45452000    269.69443    328.04562    264.44214    -22.44122    23.185786    63.603486    40.204203 
45456000    266.30344    320.94637    279.26817   -22.526436    23.079537      41.6782    40.203247 
45460000    283.99784    353.94394    293.72102   -24.161908    22.442655     60.22292    40.201935 
45464000    262.70759    287.02342       287.16   -19.899014    21.879182  -0.13657829    40.200045 
45468000    261.82181    321.79187    257.45823   -22.468895    24.700593    64.333641    40.200088 
45472000    284.66673    354.97968    301.52548   -23.066778    21.838222    53.454198    40.199954 
45476000    270.07663    323.24711    265.79271    -22.24878    23.068869    57.454396    40.200492 
45480000    268.78768    314.97802    283.29571   -22.106391    22.575396    31.682311    40.199837 
45484000    271.88586    321.41121    273.53192   -21.892258    23.671857    47.879293    40.200251 
45488000    262.20532    294.95484    273.17133   -19.572391    23.751529     21.78351    40.199079 
45492000    282.25389    349.16534    288.88381    -23.07796    21.221617    60.281535    40.199254 
45496000    274.69632     341.1968    283.12166    -22.55051    21.380218    58.075135    40.198293 
45500000     273.3377    325.78398    297.21637   -22.190292    22.210146    28.567605    40.197739 
45504000    278.15229    320.25528    298.45849   -21.670051    21.514249    21.796786    40.197099 
45508000    266.29016    316.41582    259.89233   -21.706698    23.796069    56.523486    40.196896 
45512000    261.61244    330.36555     242.7974   -21.943909    23.978533    87.568146    40.195773 
45516000    273.77366    321.38067    272.13568   -21.539375    23.021884    49.244993    40.197229 
45520000    273.63751    319.05895    286.99264   -21.196975    22.995822    32.066308    40.197981 
45524000     267.0875    322.93639    287.18698   -21.318344    23.106449    35.749411    40.198586 
45528000    284.59858    328.87215    306.21987   -22.660125      22.3052    22.652284    40.197405 
45532000    263.89823     305.3803    272.50352    -20.48392    22.634391    32.876776    40.197812 
45536000    261.75473    315.11292     282.0477   -22.027326    23.031171    33.065217       40.197 
45540000    269.24456    326.91026    269.82799   -21.864471    23.992758    57.082273    40.197541 
45544000    275.93224    339.25994    289.54613   -22.150464    23.247682    49.713803    40.197029 
45548000    269.37459     318.2912    295.96803   -21.588518    23.357028    22.323169    40.197397 
45552000    264.89712     305.4657    278.48798   -22.124226    23.955476    26.977719    40.196967 
45556000    279.60379    334.30328    290.11944   -23.314745    23.948223    44.183841    40.196572 
45560000    273.00132    314.01377    297.81436   -21.662615    23.034099    16.199412    40.197643 
45564000    270.53834    311.43613    293.22265   -22.700787    22.722736    18.213475    40.197068 
45568000      272.271    326.57612    282.17355   -22.715381    23.455578     44.40257    40.197842 
45572000    274.93432    332.28066    278.13762   -22.457279    24.288901    54.143043    40.197403 
45576000    271.24285    326.21716    283.48906   -22.202435    23.496164    42.728103    40.195595 
45580000    273.81912    313.51534     289.3168   -20.743341    22.044316    24.198541    40.196375 
45584000    261.89885    308.48476    260.77457   -20.700512    23.227568     47.71019    40.196473 
45588000    271.62217    345.50927    269.23997   -22.833124    24.111769    76.269296    40.197656 
45592000    276.16992    328.66828    298.94987   -21.107333    22.596531    29.718408    40.196801 
45596000    262.49913    307.16606    265.03303   -20.679926    24.043692    42.133026    40.196217 
45600000    268.10902    310.58142    278.70222   -22.082203    22.684544    31.879196    40.197302 
45604000    270.63607    324.58852    277.49584   -21.651938      23.2978    47.092674    40.197754 
45608000    265.39256    310.05434     274.6528   -21.239147    22.134855    35.401536    40.197752 
45612000    274.99847    328.47099    281.92754   -22.173307    23.048871    46.543455    40.196757 
45616000    262.54739    311.57183    267.38127   -21.094817    23.381543    44.190555    40.196839 
45620000    272.20768    344.81414    290.67931   -21.793083    23.163593    54.134828    40.195977 
45624000    277.13034    348.26314    296.41446    -22.02384    22.703815    51.848676    40.195105 
45628000    270.49519    336.15392    268.34055   -21.301407    23.396724    67.813364    40.195591 
45632000     267.8415    310.38868    275.86784   -21.042701    23.274091    34.520842    40.196004 
45636000    266.91629    321.35528    268.44319   -21.929232    24.532031    52.912096    40.196125 
45640000    269.81349    320.07184    280.28077   -20.550544    24.327598    39.791073     40.19715 
45644000    270.18415    332.82937     274.0565   -21.269955    23.976471    58.772876    40.199197 
45648000    267.39029    314.75007    285.63225   -20.427439    21.507637    29.117822    40.199615 
45652000    271.70986    341.35931    263.30583    -21.93476    23.225683    78.053479    40.197125 
45656000    270.65516    329.02068     280.6767   -21.971852    23.231635    48.343981    40.194493 
45660000    261.76015    311.84913    254.36615   -21.022083    24.753061    57.482981    40.195203 
45664000    274.10107    340.46463    295.62375   -21.199956    22.057894    44.840883    40.194358 
45668000     278.4033    337.80052    290.21772   -21.772177    22.575571    47.582796    40.194434 
45672000    267.59359    315.00195    277.13492   -20.656455    21.803657    37.867025    40.192533 
45676000    261.18946    306.63394    290.74184    -19.98164     22.33618    15.892092    40.192834 
45680000    270.60665    327.49706     269.5747   -19.941323    23.627652    57.922359    40.192936 
45684000    258.06503     294.0887    260.15618   -19.210851    23.321303    33.932521    40.191088 
45688000    271.26474    315.84244    281.72174   -19.816557    23.164026    34.120697      40.1919 
45692000    274.27917    344.22174     281.4303   -20.805935    21.494882    62.791436    40.194057 
45696000    280.33681    350.58361     273.6109   -21.631964    22.482768    76.972712    40.194363 
45700000    265.55575    318.89183     279.4398    -20.56562    23.256675    39.452024    40.195904 
45704000    258.84261    311.46029    257.05487   -20.412117    23.674591    54.405419    40.197184 
45708000    266.78671    303.04938    270.00907   -19.837333     23.41878     33.04031    40.197195 
45712000    272.99015    326.33896    286.13242   -21.180985    21.542756     40.20654    40.197769 
45716000     276.5135    334.88154    266.29606   -22.212623    22.710194     68.58549    40.197633 
45720000    271.48845     324.2588    277.15612   -21.482648    21.899683    47.102679    40.198381 
45724000    274.40601    348.88651    279.34002   -21.712919    20.625715    69.546483    40.201068 
45728000    269.59705    327.33398    262.56258   -21.385563    22.304929    64.771401    40.201286 
45732000    265.02626    296.74964     257.6994   -20.039555    22.471646    39.050242    40.199424 
45736000    272.24212    305.65761    271.99326   -19.843974    22.611806    33.664344     40.20003 
45740000    279.97579    334.15171    273.17505   -22.025025    22.784488    60.976657    40.199082 
45744000    270.81088    339.21007    270.62293   -21.329384    23.391348    68.587142    40.198746 
45748000    268.17192    291.57251     300.8576   -19.507494     21.68699    -9.285094    40.198036 
45752000    265.91769    302.24639    267.23121   -20.420602    23.286754    35.015174     40.19726 
45756000    269.72898    325.04064    282.60264   -21.963958    22.117047    42.438006    40.195542 
45760000     262.7979    292.82238    291.57766     -19.4031    22.511347    1.2447129    40.194533 
45764000    270.64253    322.39369    269.24242   -20.407498    23.059703    53.151271    40.193252 
45768000     265.5056    309.93329    287.59567   -20.731788    22.013078    22.337614    40.192544 
45772000    268.47465     316.7598    275.79485   -21.443457    22.032661    40.964951    40.192016 
45776000    276.95735    319.90877    293.41488   -21.860612     21.48419    26.493894    40.192147 
45780000    274.82873    340.68962    275.01869   -23.092829    21.940367    65.670927    40.193285 
45784000    271.77842    325.59937    283.28964    -23.60912    21.084856    42.309737    40.193341 
45788000    276.54078     331.3297    295.49465   -21.907353    20.258624    35.835053    40.193202 
45792000    276.01857    328.00021    272.87643   -21.647229    21.777811     55.12378    40.193467 
45796000    272.06546    309.19132    287.44454   -20.338706    20.251435    21.746783    40.193942 
45800000    272.85916    328.88292    270.71736   -22.120887    22.153348    58.165554    40.193547 
45804000    277.24347     307.7044    288.25478   -21.124824    21.702392    19.449625    40.193509 
45808000    275.52355    330.70433    265.83625   -21.446011    21.982239    64.868073    40.194094 
45812000     270.9539    307.62963    288.25838   -21.110968    21.288221    19.371245     40.19437 
45816000    272.88507    304.41442    301.89206   -22.473586    20.430474    2.5223622    40.193303 
45820000     274.4625    295.18525    299.05209   -21.443319    19.187526   -3.8668471    40.191549 
45824000     278.2343    316.81593    283.90904     -21.9648    20.463529    32.906888    40.190502 
45828000    280.89971    341.24566    279.56544   -23.458719     22.19405    61.680218    40.191776 
45832000    275.81753    316.41467    272.57696    -22.24067    23.011853    43.837712    40.192013 
45836000    278.83582    329.03165    285.12908   -24.152957    21.611952    43.902567    40.191506 
45840000    280.50375    321.55934    292.74997   -22.810281    21.671566    28.809374    40.192376 
45844000    277.90692    334.22853    278.28007   -23.887503    22.747685    55.948466    40.192754 
45848000     277.9034    316.66826    278.82489   -22.711843    22.519908    37.843376    40.193128 
45852000    282.63702    338.91728    296.95633   -23.759491    22.093133    41.960949    40.192963 
45856000    274.19668    321.58079    291.85181   -23.249182    22.932117    29.728984    40.194754 
45860000    277.73256    336.88009    262.31024     -23.7804    24.204808    74.569848    40.194576 
45864000    271.27167    315.71815    286.55002   -23.106558    22.375613    29.168131    40.194353 
45868000    271.49349    306.54116    277.75545   -22.139807    22.817849    28.785709     40.19542 
45872000    275.00216    316.32842    300.89526    -21.63117    21.659828    15.433166    40.195278 
45876000    273.85653     318.1186    268.02658   -24.057459    23.099881    50.092022    40.193547 
45880000    286.92924    348.39472    290.73687   -24.693414    21.613868    57.657848    40.195001 
45884000    283.91419    314.27458    295.96916   -22.947222    21.967816    18.305422    40.195462 
45888000    271.80753    299.45285    291.24671   -21.308294    22.017993    8.2061434    40.194701 
45892000    282.16514    335.95822    283.80146   -22.804661    21.762397    52.156755    40.194678 
45896000    268.18305    291.93389    283.33699   -21.277259    22.509219    8.5968974    40.194548 
45900000    270.40183    320.60072    281.07427   -23.195973    22.589989    39.526445    40.195723 
45904000    270.64642    307.37817    274.45919   -23.054668    23.297707    32.918976     40.19594 
45908000    266.19959    308.40651    270.12165   -22.247642    24.681965     38.28486    40.196355 
45912000    268.97208     333.1999    261.89302   -22.474842    23.297154    71.306876    40.195751 
45916000    277.46499    317.88311    291.43737   -22.253111    22.969506    26.445742    40.196133 
45920000    277.55035    313.96021    297.76142   -21.641681    21.989852    16.198799    40.195753 
45924000    277.76343    346.90836    279.76859   -24.170845     22.20678    67.139766    40.197263 
45928000    269.48458    311.35383    282.71253   -22.581834     22.03582    28.641308    40.194691 
45932000     273.8223    331.50367    280.27967   -23.552201    21.992152    51.223997    40.194073 
45936000    271.25535    307.17653    274.45072   -22.433591    22.342856    32.725817    40.195331 
45940000    276.27236    299.66534    294.08407   -20.834968    21.327461    5.5812739    40.194709 
45944000    273.48719    310.12931    281.67296   -22.353699     21.12885    28.456358    40.194606 
45948000    275.42914    316.75072    285.52201   -23.058012    21.713261    31.228717    40.194396 
45952000    273.62991    308.08208    282.38311   -23.501599    22.638682    25.698969     40.19535 
45956000    275.08432    322.34493     282.0857   -23.910307     22.66001    40.259236    40.195165 
45960000    275.32734    295.71436     292.3578   -23.628814    21.598534    3.3565672    40.195841 
45964000    280.00536    316.60577    285.61652   -23.874645     21.20683    30.989255    40.197409 
45968000    278.09041    328.38926    283.57662    -23.64773    22.250651    44.812639     40.19783 
45972000    285.78748    337.01199    295.76131   -23.512026    20.824876    41.250682    40.197763 
45976000    276.94204    326.22327    275.27843   -24.567494    20.793075    50.944838    40.195924 
45980000    274.89913    311.27742    274.06533    -21.60374    22.106755    37.212089    40.194172 
45984000    271.09442    317.81149    269.85344   -21.446601    22.022574    47.958046    40.192678 
45988000    285.39632    344.10749    302.88416   -23.409458    20.145976    41.223328    40.192651 
45992000     276.5867    304.25047    287.55852   -22.534753    22.405602    16.691954    40.192598 
45996000    283.06905    332.41053    296.27407   -24.124852    21.992407    36.136464    40.192598 
46000000    282.90685    319.07074      289.289   -23.987945     22.80334    29.781738    40.191641 
46004000    280.91163    325.47677    286.26356   -23.744536    23.196767    39.213216    40.191781 
46008000    274.88299    333.14533    279.49531   -24.240546    23.701898    53.650017    40.192314 
46012000     277.6001    336.10946    272.09108   -23.213966    23.359912    64.018384    40.192179 
46016000    275.29045    314.57481    280.08748   -23.812437    23.005882    34.487323    40.192464 
46020000    292.03063    362.92347    289.23221   -25.412257    21.666096    73.691253    40.190858 
46024000    274.70759    323.22174    271.55736   -25.641835    23.371406    51.664383    40.192132 
46028000    283.98329    335.83867    284.00302   -26.184362    23.225314    51.835655    40.192205 
46032000    277.31476    337.02546    278.54824   -25.249009     23.60167    58.477221    40.193302 
46036000    283.16332    327.49548    285.80617   -25.390871    22.114888    41.689307    40.194704 
46040000    277.16054    315.32325    276.94753   -23.419234    22.506836    38.375724    40.193835 
46044000    272.00143    324.94564    257.59993   -25.230753    24.100541    67.345705    40.194305 
46048000    277.24846    317.09283    281.19624   -23.680504    22.068857    35.896589    40.191994 
46052000    271.95439    312.99235    278.60978   -23.481271    22.575579    34.382569    40.193482 
46056000    271.38859    309.00449    288.82255   -22.260844    21.392327    20.181934    40.194537 
46060000    269.60418    305.55936    280.75491   -23.620177    22.075464    24.804444    40.195421 
46064000     271.6974    314.42282     271.7456   -23.496256    24.078441    42.677226    40.197384 
46068000    278.84637    317.77873    285.82971   -23.000963     22.72814    31.949021    40.195821 
46072000    278.60643    317.65618    284.25484   -23.957648    22.812902    33.401344    40.195227 
46076000    277.73874    309.34304      279.828   -23.709303    22.780731    29.515038    40.194153 
46080000    278.97854    319.65356    292.74975   -24.004834    21.326607    26.903807    40.194832 
46084000    267.21502    303.37867    277.55036    -22.82729    21.568058     25.82831    40.195447 
46088000     274.4502    320.84539    285.04073   -24.314253     22.62653    35.804655    40.195149 
46092000    276.75938    289.07867    306.44246   -22.689011    21.162192   -17.363788    40.194147 
46096000    267.90648    309.64032    269.73189   -22.927885    22.908812    39.908423    40.193818 
46100000    272.92507    324.67028    276.40461   -23.363707    22.939696    48.265676    40.195838 
46104000    280.82062    316.40831    292.38302   -24.212906    21.238457    24.025287    40.195486 
46108000    270.85879    304.44822    277.39741   -23.107702    22.493243    27.050807    40.195876 
46112000      283.837    334.38664    293.75214    -25.20988     22.32578      40.6345    40.196788 
46116000    271.83412     313.8294    258.09414   -23.057759    23.779265    55.735255    40.196753 
46120000    271.98769    307.05107    281.82012   -22.967038    23.314962    25.230947     40.19762 
46124000    277.60596     346.3468    267.16304    -23.73154    24.145221    79.183756    40.197913 
46128000    273.47191    309.00707    275.00241   -22.344428    24.327257    34.004666    40.198424 
46132000    272.80021    310.84871    275.96868   -22.732216    23.111814    34.880037    40.200071 
46136000    272.95854    316.04558    280.29623   -21.746239    23.525466    35.749348     40.19993 
46140000    272.65064    316.83778     273.5206   -23.893699    23.797742    43.317179    40.200465 
46144000    271.24356    334.00618     285.5145    -23.93327    23.892293    48.491674    40.199882 
46148000    274.75095    319.64333    286.58201   -24.456536    23.354445    33.061322    40.199093 
46152000    269.48985    323.58824    281.06852   -24.301966    24.101619    42.519713    40.198962 
46156000    277.00511     315.7008    298.21981   -22.760622     23.78916    17.480989    40.198585 
46160000    262.77236    297.24346    275.01122   -21.742471    25.176731    22.232236    40.197933 
46164000    278.82496    349.73665    270.13405   -25.248373      25.2087      79.6026    40.199578 
46168000    269.38369    313.46884    297.87128   -22.359988    24.432218     15.59756    40.198282 
46172000    266.50516    306.77984    280.91698   -22.278303    25.509451    25.862862    40.199231 
46176000    281.12064    337.26799    290.87099   -23.129484    24.789948    46.396997    40.197074 
46180000    273.03055    336.40174    289.02427   -23.339736    24.151648     47.37747    40.197508 
46184000       272.19    320.95045    287.32143   -23.720961    24.032061    33.629019    40.196921 
46188000      273.684     332.9797    275.33761   -24.198834    25.658182    57.642085    40.197452 
46192000    262.22786    317.98553    256.90273   -22.441141    25.407083    61.082803    40.198979 
46196000    276.94402    343.85028    267.87513   -23.431427    25.451521    75.975149    40.197928 
46200000    277.41939    326.44062    304.39068   -22.941688     23.47023    22.049948    40.197257 
46204000    268.48379    306.29036    274.44128   -22.016494    25.324102    31.849075    40.197788 
46208000    258.97048    310.21877     274.7258   -22.269802    25.044908    35.492967    40.198365 
46212000    264.64486    289.28694    282.10765   -21.740684    25.192884     7.179288    40.199861 
46216000    267.52836    324.62064    276.00014   -23.384758    24.566977    48.620504    40.200168 
46220000    272.52716    338.36828    273.70639    -24.19107    24.972187    64.661882    40.200184 
46224000    268.78717    314.43086    272.42533    -22.22778     23.95294    42.005527    40.200174 
46228000    276.92251    330.65832    287.88899   -23.351889    24.309448    42.769334    40.199912 
46232000    267.61889    303.05341     297.3372   -22.051069    23.773373    5.7162116    40.199679 
46236000     261.8486    300.83049      253.199   -21.840364    25.709259    47.631493    40.199415 
46240000    278.01142    320.42233    304.06364   -22.000852    24.121682    16.358693    40.197949 
46244000    263.56568    333.80436    255.43265   -22.945772    26.414877    78.371708     40.19656 
46248000    265.95998     324.3907    276.75813   -22.610294    25.028379    47.632573    40.197103 
46252000    266.79366    316.71508    264.81915   -23.428195    26.235219    51.895927    40.196436 
46256000    271.12503    312.05965    262.84644   -22.135656    24.614275    49.213209    40.195917 
46260000     273.1329    346.17265    268.97251    -24.63338    25.271506    77.200139    40.194518 
46264000    272.97545    340.19148    259.32873   -25.433911    25.680156    80.862754    40.194802 
46268000    271.44675    333.27059    266.19879   -23.790773    25.647288    67.071803    40.193336 
46272000    270.77613    324.89365    278.20502   -23.958714     25.63155    46.688624    40.194171 
46276000    275.10732    312.66433    289.32778    -23.45775     24.44622    23.336553    40.194136 
46280000    272.35971    311.72734     287.8998   -24.140011    24.490988    23.827536    40.194063 
46284000    266.88788    309.45011     294.6506   -22.094185     24.54463    14.799513    40.193023 
46288000    272.73253    338.47629    282.12937   -24.544565    26.084145    56.346926    40.192532 
46292000     274.8217    337.48939    287.28511   -24.281491    26.058049    50.204283    40.192282 
46296000    269.49027    320.23435    283.14573   -24.313397    25.485552    37.088616     40.19427 
46300000    272.88407    326.08634    292.98044   -23.803799    25.529876    33.105907     40.19506 
46304000    264.76705    312.07523    284.37388    -23.73261    25.657532    27.701356    40.195077 
46308000    270.88221    324.64816    289.43827   -24.336973    25.967176    35.209894    40.195776 
46312000     269.7818    332.43124    257.64968   -25.039721    27.257742     74.78156    40.196331 
46316000    270.60418    325.30297    300.15005   -23.864316    24.987851    25.152915    40.196498 
46320000      274.434    325.12338    295.14434   -22.677645    25.209047    29.979037    40.195095 
46324000    260.06176     309.0887    259.58505   -22.547852    27.594365    49.503648    40.195575 
46328000    258.77967     312.5006    266.98719   -23.442858     26.44036    45.513413    40.193961 
46332000    270.15806    331.14413    276.52007   -23.175314    25.441083    54.624055    40.194936 
46336000    274.52806    331.33109    290.42777   -23.182441    25.951483    40.903317    40.195473 
46340000    264.55102    303.46106    276.95218   -22.750699     26.77762    26.508881    40.194585 
46344000    268.94817    319.94274    270.96932   -23.472696    27.003587    48.973424    40.195337 
46348000     263.1253    327.83551    247.14558   -23.987441    25.932068    80.689929    40.194456 
46352000    267.41365    335.12971    268.88688    -23.85457     26.29645    66.242831     40.19388 
46356000    267.40685    311.94398    289.06069   -23.095357    25.220351    22.883284    40.194408 
46360000    267.93279    316.04418    282.98735   -23.056452    24.220218    33.056831    40.194405 
46364000     259.7919    284.66263    275.02745   -21.820766    25.522324    9.6351739    40.193915 
46368000     268.4694       314.12    287.89418   -23.100208    23.866898    26.225813    40.195091 
46372000    264.98535    302.25713    264.39978   -22.825057    24.780568    37.857352    40.195483 
46376000    268.24077    318.50137    270.87915   -23.638813    25.038487    47.622216    40.196138 
46380000    272.75001    316.07826    281.91514   -24.611085     24.45098    34.163117    40.194607 
46384000    269.10278    299.49051    283.10159   -22.719213    25.319114     16.38892    40.194913 
46388000    272.74643    324.47721    273.07726   -24.064959    25.991283    51.399946    40.194156 
46392000     271.5971    322.05886      269.077   -23.136622    24.978197    52.981865    40.192991 
46396000    263.79795    305.73011    271.05957   -23.027116    24.969679     34.67054    40.192821 
46400000    256.76592    297.19832    271.43154   -23.566418    25.580763    25.766777    40.193262 
46404000     270.3322    335.60637    261.53349   -25.650762    26.735475    74.072882    40.193468 
46408000    271.00326    324.63085    276.82491   -23.391959    25.462119    47.805942    40.194754 
46412000    272.36101    311.71068    290.04625     -23.1153    24.821785     21.66443    40.194397 
46416000    282.80962    353.39989    290.20949   -24.571139    24.371215      63.1904    40.195292 
46420000    268.75454    323.68311    269.72899   -24.751544    25.891444    53.954119    40.195104 
46424000    272.63781    324.14883    282.75108   -24.510097    24.843185    41.397752    40.195608 
46428000    270.40049    327.80992    275.63102   -24.196641    26.049453    52.178904    40.196317 
46432000    275.93656    337.71031    290.48752   -25.679837    26.274374    47.222788    40.195022 
46436000    274.70219    336.70302    287.40822   -25.226077    25.176154    49.294807    40.193414 
46440000    271.69874    325.80956    285.78787   -24.929041    25.064998    40.021693    40.194039 
46444000    258.69186    299.63484    258.89073   -24.462567    27.279016    40.744117    40.195391 
46448000    263.52598     312.2395    285.36006    -25.30046    25.725715    26.879442    40.195089 
46452000    269.40948    319.67486    285.57688   -25.489293     25.10772    34.097979    40.193937 
46456000    257.66417    303.86978    269.63059    -24.26338    26.337039    34.239187    40.193292 
46460000    285.48329    340.75578    293.83486   -26.582636     25.71063    46.920926    40.193078 
46464000    264.02136    315.26909    280.84171   -24.762792    27.030598    34.427375    40.192621 
46468000    266.60334    297.60963    282.88712   -24.863989     25.67759    14.722519    40.190785 
46472000    269.64085    303.77565    283.43243   -23.174293    24.959131    20.343227     40.18929 
46476000    271.47102     339.1035    267.96564   -24.941066    26.688712    71.137853    40.190294 
46480000    267.79032    305.89268    290.38579   -23.415932    25.333351    15.506887     40.18982 
46484000    274.05715    311.63294    287.46135   -24.904594    24.636886    24.171594    40.187005 
46488000     281.8541    347.55877    290.90106   -25.449866    24.192321    56.657711    40.185741 
46492000    272.05069    315.15588    271.71586   -25.448021    25.134831    43.440021    40.185452 
46496000    279.26185    323.21901    286.37243   -23.929706     25.11418     36.84658    40.185841 
46500000    272.59593    321.67105    286.34307   -23.922907    24.902426    35.327981     40.18486 
46504000    274.14232    310.88263    306.67011    -22.90351    23.646954    4.2125182    40.185425 
46508000    272.46533    333.19129    267.10502   -24.046256     25.63785    66.086274    40.183974 
46512000    272.34291    324.42471    295.36962   -24.222868    23.009795    29.055085    40.184137 
46516000    271.47471    332.80584    269.68036   -24.610788    25.693897    63.125473    40.183772 
46520000    268.61072    315.20714    272.38154   -23.506713    26.000401    42.825598    40.185355 
46524000    275.56286    329.66203    290.75573   -24.564801    24.861743    38.906308    40.185322 
46528000    265.18493    307.51007    275.82633   -23.776451    26.272065    31.683743    40.185183 
46532000    272.75644     317.0072    277.68804   -24.979525    24.496452    39.319164    40.186455 
46536000    285.02702    346.60037    276.48713   -26.744172    25.604612    70.113237    40.188156 
46540000    281.45352    316.59224    300.21013   -24.591488     23.60229    16.382106    40.188759 
46544000    276.67091    325.79822     282.2131   -24.715486    25.552452    43.585121    40.188548 
46548000    277.73118    334.87837    277.02447   -26.555544    25.263284    57.853906    40.189384 
46552000    266.54317    299.94353    267.73336    -23.94978    26.089661    32.210175    40.189572 
46556000     280.4255    318.07357    286.72586   -24.170663    25.371513    31.347716    40.189827 
46560000    281.94262    323.22939    314.19726   -25.445212    24.158606    9.0321288    40.188403 
46564000    267.56406    308.25227    281.67319   -25.421253     25.85415    26.579077    40.188029 
46568000    278.62735    320.24693    285.24036   -24.846674    24.317247    35.006571    40.186929 
46572000    277.70108    332.38134    273.01356    -25.33757    25.430486     59.36778    40.185756 
46576000    285.35683    336.64708    294.82409   -25.823363    24.964411     41.82299    40.185862 
46580000    274.46886    327.84697    275.55585   -25.639519    24.515758    52.291124    40.186941 
46584000    276.24098    330.57094    276.72391   -25.451065    25.559081     53.84703    40.185178 
46588000    265.34518    294.33824    288.86889    -24.32082    23.794696    5.4693483    40.182695 
46592000    266.93848    303.26715    284.07138   -24.069896    25.134913    19.195769    40.183184 
46596000    273.42623    328.84524    287.49665   -25.316437    24.745756    41.348589     40.18249 
46600000    281.53993    353.93385    270.23587   -26.835487     26.43596    83.697986    40.182288 
46604000    270.51295    314.23546    279.51388   -24.222722    26.218906    34.721582    40.182085 
46608000    277.00211    328.19053    289.65142   -25.415681    24.606076     38.53911    40.182717 
46612000    269.45546    321.15029    288.13999    -24.68287    25.211159      33.0103    40.183936 
46616000    264.15632    303.47341     279.2982   -23.880013    26.396354    24.175212     40.18386 
46620000    273.97475    340.15386    275.40987   -25.756064    26.289522    64.743998    40.183379 
46624000     273.3923    334.24585     283.2166   -24.984706    25.382401    51.029251    40.184892 
46628000    263.80886    303.56239    266.50873   -24.128211    26.570405    37.053653    40.184851 
46632000    270.47123     330.3849    267.40495   -26.092103    25.986571    62.979953     40.18544 
46636000    269.17526    297.38071    290.54229   -25.922518    25.061215      6.83842     40.18531 
46640000    270.02656    302.50735    293.47316   -24.669705    25.822751    9.0341959    40.185069 
46644000    273.17451    321.26916    284.30547   -26.674768    26.083318    36.963693    40.185284 
46648000    265.75373    304.85715    278.14836   -24.607912    26.669557    26.708793    40.185537 
46652000    277.68719    327.30351    277.31988   -26.784102    26.078286    49.983622    40.186446 
46656000    272.41336    328.91056    275.11217   -25.569311    25.883152    53.798388    40.186924 
46660000    275.58727    332.54181    287.01031   -25.284129    26.277899    45.531499    40.186733 
46664000    268.59052    321.73512    291.95859   -25.781834    26.216313    29.776534    40.187191 
46668000    274.29385    325.00334    279.84261    -25.60928    26.437221    45.160726    40.187075 
46672000    267.66884    321.00065    250.91745   -26.733512    27.574578    70.083203    40.188311 
46676000    262.29568    315.71611    254.24316   -26.760877    26.596283    61.472945    40.188961 
46680000    267.28185    310.62398    280.61242   -26.129096    25.737508    30.011561    40.190533 
46684000    265.05374    313.18784     260.8086   -26.059264    27.804352    52.379236    40.190206 
46688000    276.52438    316.63285    288.77102    -26.16529    26.090923    27.861826    40.189564 
46692000     264.9322    322.46982    274.20797   -26.467118    26.479273    48.261845    40.190239 
46696000    271.86882    296.56951    286.66833    -25.02473    25.832507     9.901181    40.188881 
46700000    281.65926    338.24915    283.20518   -27.479274    26.561153    55.043979    40.187557 
46704000     266.4054    304.23988    284.23002   -24.898373    26.916817    20.009854    40.186694 
46708000    266.08365    285.73282    275.81602   -23.617987    27.925402    9.9168031    40.186403 
46712000    276.62553    324.02642    288.02457   -26.130655    26.022708    36.001851    40.188156 
46716000    269.49506     304.5833    287.85981   -25.064968    25.420099    16.723492    40.187636 
46720000    265.56593    312.77683    272.38049   -24.747831    27.039696    40.396341    40.187474 
46724000    266.88205    321.77579    284.26407   -25.295578    26.178831    37.511718    40.187016 
46728000    277.70459    318.67013    292.17315    -26.35996    26.645664    26.496972    40.186989 
46732000    264.31483    305.87827     277.6198   -25.128544    27.291199    28.258476    40.185769 
46736000    282.08182    369.02222    290.19158   -28.994907    26.479798     78.83064    40.184414 
46740000    269.21489    311.36247     267.3728   -26.710788    27.146759    43.989665    40.184386 
46744000    276.47719    329.83429      289.329   -26.818338     27.20745    40.505293    40.186003 
46748000    284.57219    339.56141    296.48831   -27.416557    26.653389    43.073095    40.187266 
46752000     272.6268    332.84141    267.14505   -25.912493    28.325294     65.69636    40.188592 
46756000    273.98574    310.48793    290.58392   -25.114188     25.79197    19.904009    40.188681 
46760000    267.04568    320.56498     263.4746   -26.202973    27.904534    57.090383    40.188365 
46764000    272.58995    324.59036    287.59364   -27.740787    26.064038    36.996716    40.187069 
46768000    281.12947    338.97265    286.68671   -27.966908    25.645437    52.285944     40.18684 
46772000    277.26218    339.28435    284.60634   -28.309967     26.01052    54.678011    40.187654 
46776000    278.16191     331.6018    297.51176    -26.36974    26.000058    34.090042    40.186539 
46780000    275.68026    342.79068     270.2064   -26.478226      27.3737     72.58428    40.185047 
46784000    272.49413    319.15605     305.4479   -26.835926    26.710401    13.708143    40.184785 
46788000     271.1208    323.61367    267.17928   -26.293771    27.854346    56.434387     40.18381 
46792000    266.16961    310.64257    276.86049   -25.864391    26.849157    33.782073      40.1846 
46796000    267.33274    313.54239    280.57294   -24.808093    26.460147    32.969446    40.184626 
46800000    279.81389    329.58977    294.76067   -26.221951    25.645681    34.829106     40.18368 
46804000    267.73777    293.18566    289.94792   -23.834358    25.393114    3.2377423    40.183989 
46808000     275.4166    344.70509    263.19029   -26.045686     27.31096    81.514802    40.184602 
46812000    268.75524    310.14637    279.12353   -25.173138    26.609832    31.022838    40.186702 
46816000    269.44712    302.37188    288.29377   -23.050494    25.822296    14.078115    40.186481 
46820000     271.3415    322.95012    267.55737   -26.029832    26.843676     55.39275    40.185741 
46824000    277.61021     353.5205    281.46409   -26.489102    27.559253    72.056415     40.18575 
46828000    271.04651    329.99476     283.1791   -26.800917    26.469714    46.815661    40.186198 
46832000    268.95378    317.76032    273.35533   -25.282044    26.617147    44.404991    40.185773 
46836000    259.65797    285.99189    260.05626   -25.603973    27.572182    25.935635    40.185549 
46840000    281.44074    349.47259    279.52126   -27.601956    26.856403    69.951329     40.18503 
46844000     264.6346    310.04927     269.8737   -26.675498    27.286684    40.175572     40.18358 
46848000    275.73159    341.55379    280.46754   -27.158898    25.973801    61.086254    40.183764 
46852000     271.0929    328.65629     276.7189   -25.767092    26.855742    51.937381    40.184104 
46856000    269.02649    312.57764    293.40967   -24.557686    25.964567    19.167966    40.182814 
46860000    273.16338    326.11706    276.43279   -24.920467    26.277455    49.684266    40.183222 
46864000    269.76235    297.57558    311.82524   -24.111192    24.080737   -14.249658    40.181901 
46868000    262.08077    282.04289    273.63999   -23.995935    25.612893    8.4028911     40.18421 
46872000    270.04807     318.4882    283.20464   -25.286222    24.543212    35.283557    40.184266 
46876000     276.3288    292.64374    307.25274   -23.995208    23.520174   -14.609006    40.183271 
46880000     277.0587    334.87276    287.96117   -25.467819     25.05283    46.911588    40.183585 
46884000    276.86119    343.80045     305.4284   -26.789414     23.56295    38.372048    40.184083 
46888000    268.83205    317.06153    276.79164   -25.015799    26.972386    40.269889    40.184022 
46892000    271.20158    317.47795    288.42331   -25.842038    26.639029    29.054633    40.182847 
46896000    271.98504    318.08001     302.8882   -26.523248    26.088424    15.191809    40.182667 
46900000    271.40664    328.93523    284.83726   -26.840741    25.455442    44.097964    40.182358 
46904000    275.22564    325.26901    276.97481   -26.562723    26.654805    48.294199    40.182364 
46908000     278.2777     343.9576    288.61841   -26.973018     27.30652    55.339184      40.1823 
46912000    277.05011    333.74028    264.40562   -26.756943    27.205962    69.334657    40.181346 
46916000    274.89336    329.78097    275.57081   -25.814572    26.122211    54.210152    40.181442 
46920000    268.40603    305.09082    281.38619   -24.978513    25.731293    23.704637    40.179747 
46924000    279.54111    324.62331      298.181   -25.205138    25.394232    26.442312    40.180133 
46928000    283.82389    328.15409    295.17463   -25.922912    25.649044    32.979455     40.18143 
46932000    273.01761    332.73965    270.91883   -25.683144    27.236177    61.820828     40.18289 
46936000    269.18311    317.14308    270.33101   -26.213332    26.604729    46.812067    40.184232 
46940000    274.18243    316.38953    291.58989   -25.566573    26.117591    24.799641    40.184254 
46944000    280.95875     327.8157    306.54769   -25.800592    25.893557       21.268     40.18454 
46948000    277.76936    341.54611    269.99012   -26.523429    27.026363    71.555987    40.183228 
46952000    268.08244    327.44102    284.30717   -24.229586    27.418162    43.133848    40.182273 
46956000    272.41709    311.49397    300.06779   -23.919995    26.168164    11.426184    40.181594 
46960000     281.5486    341.31403    293.16481   -26.121924    26.149455     48.14922    40.181574 
46964000    282.18338    334.56958    296.94105   -25.107592     24.75199    37.628528    40.183334 
46968000    278.16051    308.17192    304.79814   -24.453938    25.096441    3.3737752    40.183425 
46972000    281.19884    338.46839    297.26267   -26.164042    25.201269    41.205723    40.183249 
46976000    275.29932     310.8843    299.71918   -24.795649    25.121497    11.165115    40.182526 
46980000    264.03541    292.78473    273.26513   -23.944366    27.630877    19.519596    40.182923 
46984000    261.27558    295.78581    267.87464    -23.47944    27.464316    27.911164    40.181831 
46988000    260.88194    310.42768    257.03486   -24.702831    27.090862    53.392822    40.183016 
46992000     267.7278    314.99822    272.09427   -24.063836     26.45483    42.903954    40.182963 
46996000    275.75378    328.62981     265.2475   -26.536312    26.350085    63.382311    40.181092 
47000000    275.13045    315.78738    285.35113   -25.845997    25.765688    30.436247    40.183137 
47004000    277.93558    334.86783     265.4144   -27.486174    26.207636    69.453431    40.184199 
47008000    275.70364    327.58929    295.57671   -26.654216    25.162594    32.012578    40.184566 
47012000    269.17716     323.5146    265.72153   -25.647666     26.10338    57.793074     40.18488 
47016000    272.30595    324.13817    276.21648   -26.172164     25.63886    47.921691    40.184757 
47020000    276.09262    327.24025     282.7991   -26.321021    25.209317    44.441145    40.185287 
47024000    284.49194    352.45881     293.6246   -27.407611    24.717823    58.834215    40.185458 
47028000    271.33381    306.30012    274.61804   -25.091948    25.780582    31.682084    40.184335 
47032000    274.38894     305.1042    279.90127   -26.588668    26.340178    25.202926    40.184873 
47036000    270.37984    316.92277    269.33065   -26.735759    25.683509    47.592121     40.18555 
47040000    273.26824    332.07609     275.7277   -27.307334    26.308224    56.348384    40.184825 
47044000    277.95391    324.53968    288.82125   -25.863732    26.062568    35.718436    40.185062 
47048000    277.74322    333.00906    261.14341   -25.895693    26.040849    71.865656     40.18522 
47052000     276.9597    308.67357    295.03724   -25.081122    24.702282    13.636333    40.186138 
47056000    265.97418    301.87242    270.81049   -23.866328    25.901562    31.061924    40.187178 
47060000     278.2378    332.86288    280.08902   -25.614213    25.888067    52.773858    40.187113 
47064000    279.17227    315.22419    289.17619   -26.517852    25.302662    26.048002     40.18772 
47068000    277.53887    307.39572    293.26316   -24.824999    24.833126    14.132559    40.187477 
47072000    269.19769     318.2754    269.92771   -25.075034    26.910266     48.34769    40.185792 
47076000    286.36894    368.03838    270.22231    -28.59445    27.494539    97.816064    40.184537 
47080000    271.91403    321.20329    275.60556   -25.505779    26.503359    45.597732    40.184973 
47084000    278.87926    342.53968    283.47159   -27.140733    26.423981    59.068088    40.184406 
47088000    274.40458    320.26513    285.02745   -25.113122     25.94183    35.237681    40.182561 
47092000    275.82323    323.77408    295.56022   -25.190174    25.804668     28.21386    40.182561 
47096000    267.97126    310.53279    280.95609   -25.030172    26.363736    29.576699    40.183443 
47100000     273.6805    332.53667    259.15569    -26.37256    26.878596    73.380984    40.184339 
47104000    278.57644    323.83034    288.55402   -26.258942    24.762031    35.276321    40.184161 
47108000     276.6177    335.04949    262.93196   -25.965302    26.831712    72.117524    40.184319 
47112000    270.59064    313.75036    284.88874   -24.532473    24.700264    28.861619    40.186737 
47116000    274.50412    320.92407    290.04693   -25.171887    25.252461    30.877142    40.186558 
47120000    261.61934     278.5977    263.27333   -23.717312    27.680675    15.324373    40.186533 
47124000    277.08899    349.39991    295.88636   -26.520168     25.58472    53.513548    40.186299 
47128000    270.38958    315.13563    282.81963   -23.824505    25.697292    32.315991     40.18495 
47132000    279.44401      336.504    302.83404   -25.563826    25.778946    33.669958    40.185717 
47136000    278.10757     342.3757    288.67489   -26.151885    25.971301    53.700812    40.187543 
47140000    264.37508    312.50989    266.91663   -23.644056    27.129723    45.593256    40.187961 
47144000    269.60195    317.57966    305.74167   -25.122182    25.937695    11.837988    40.187703 
47148000    272.55051    315.96538      285.905   -24.222158    26.467022    30.060381    40.186986 
47152000    280.31072    371.71509    276.43472   -25.646868    27.322729    95.280367    40.187617 
47156000      264.691    330.03072     260.1409   -24.862944    28.667975    69.889824    40.188956 
47160000    267.51977    317.54496    269.47515   -24.916439    28.217163    48.069809    40.189949 
47164000    270.70058    322.18199    281.65686   -25.336684    25.775908    40.525128    40.189003 
47168000    268.26986    319.93488    279.16388   -25.800766    25.802133    40.770996    40.189201 
47172000    279.22261    320.83527    299.99345    -23.91962    25.423804     20.84182    40.187931 
47176000    277.61161    336.20299    287.68811   -26.188493    25.560336     48.51488    40.188688 
47180000    267.34622    329.13893    258.29842   -24.401604    26.357399    70.840507    40.188369 
47184000    263.29385    324.44482     266.6539   -24.508472    25.363363    57.790922    40.186564 
47188000    278.19958    334.38752    292.97818   -25.987575    24.483598     41.40934    40.187064 
47192000    269.64828    295.36929    293.77476   -23.691283    24.069651    1.5945293    40.187212 
47196000    266.32265    307.00054    280.45532   -23.404503    24.964032    26.545222    40.186585 
47200000     274.7475    333.67211    262.02322    -25.47144    26.064698     71.64889    40.186134 
47204000     273.5457     322.4981    303.17841   -24.937386    24.188826    19.319686    40.186508 
47208000    277.22222    333.82253    263.72066   -26.992084    25.856513    70.101872    40.185551 
47212000    275.28785    319.32195    275.38579   -25.728241    24.278765    43.936162     40.18451 
47216000     272.4685    324.76869    280.65892   -27.091776    24.591832    44.109767    40.184606 
47220000    271.93652    323.23071    282.47255   -24.968374    25.050305    40.758166    40.184883 
47224000    282.17564    347.44129    287.13545   -26.425825    25.267523    60.305838    40.183105 
47228000     272.1452    317.83177      280.547   -23.944645    25.230594    37.284768    40.181976 
47232000    274.46398    316.56612    268.91877    -24.80268    26.257143    47.647351    40.181033 
47236000    272.22865    335.17972     283.8096    -26.06068    26.051981    51.370129    40.181311 
47240000     276.1064    346.21199    292.72267    -26.33078    25.179899    53.489314    40.182454 
47244000    275.12446    330.18037    275.64284   -25.866417    25.745666    54.537529    40.181456 
47248000    270.78439    301.36629    297.35605   -25.548741    26.687536    4.0102431    40.182491 
47252000    269.47734    336.83386     267.1697   -26.786475    27.847242    69.664161    40.184135 
47256000    269.95822    321.67851    271.38825   -24.233611    27.460019    50.290253    40.183753 
47260000    269.21894    318.24638    284.47286   -24.836845    27.485764    33.773518    40.183153 
47264000    263.57675    326.06839    264.77545   -24.880364    26.528417    61.292942    40.182491 
47268000    280.53705    346.96038    284.75959   -26.775884    26.010835    62.200789    40.180718 
47272000     270.3791    323.00794    309.75614   -24.954632    25.222401    13.251799    40.180204 
47276000    268.73002    310.42805    291.32458   -24.058272    25.764135    19.103462    40.180581 
47280000    263.39639    319.03601    274.48757   -24.406142     27.83457    44.548443    40.179451 
47284000    271.76988    308.89297     283.2293   -23.491833    26.507056    25.663669    40.180253 
47288000    276.09933    332.62254     284.3782   -25.337363    26.971381    48.244333    40.179924 
47292000    270.89175    318.59292    269.35521   -25.095381    27.264667    49.237705    40.180911 
47296000    267.60931    337.91066    257.19051   -25.297141    27.263146    80.720152    40.180305 
47300000    267.76323    313.59861    287.31662   -24.161249    26.099738    26.281987    40.180686 
47304000     270.3921    322.09243    291.94441   -24.405624    25.783643    30.148023    40.180295 
47308000    265.14259     344.8628    247.33483   -26.470596    28.641037     97.52797    40.180654 
47312000    262.81885    315.64502    279.04549   -23.674501    25.392704    36.599536    40.181392 
47316000    269.12644    316.84873    275.16731   -24.529584    27.179901    41.681425    40.181921 
47320000    269.61442    336.79986    274.13496   -24.569146    26.474799    62.664903    40.182084 
47324000    265.01025    316.43273    278.09542   -23.838041      27.3968    38.337304    40.183287 
47328000     272.5303    338.45939    284.64326   -24.855493    27.379236    53.816128    40.182952 
47332000    270.87696    323.24155    292.02459   -24.713183    26.821339    31.216963     40.18403 
47336000    270.71107    318.13074    287.08019   -25.957765    27.391306    31.050551    40.184749 
47340000    274.54117    320.49569    293.41094   -25.416484    25.473226    27.084747    40.182064 
47344000    270.72827    344.20218    270.65087    -26.88314    27.567796    73.551309    40.181456 
47348000    274.60671    329.17467    286.87525   -25.591326     26.22587    42.299413    40.181923 
47352000     269.1752     319.2775    291.40875   -24.281699    25.680161    27.868754    40.181497 
47356000    273.59709    309.98325    303.19407   -25.431723    25.166098    6.7891867    40.180693 
47360000    270.61689     323.0786    291.57349    -27.04863    24.737095    31.505112    40.180758 
47364000    269.43947    336.69294    264.10694   -26.175329    26.561306    72.586004    40.179787 
47368000    267.51732    324.17592    272.94926   -24.812295    26.933873    51.226662    40.178548 
47372000    269.83171    319.96925    271.76238    -24.30987    27.095689    48.206868    40.176688 
47376000    274.52965    335.71977    279.26295   -25.495352    26.159115    56.456825    40.174188 
47380000    271.92865    340.07431     279.6043   -25.896886    26.773512    60.470009    40.174803 
47384000    272.22574    325.28366    275.73319    -25.92845    27.385077    49.550472    40.175217 
47388000    271.11464      319.787    290.44418     -26.0777    27.091976    29.342822    40.175662 
47392000    266.54266    319.00983    279.13456   -25.083218    26.983041    39.875272    40.174837 
47396000     272.4559     317.1176    276.02862   -26.256429    27.335045    41.088988    40.174844 
47400000    278.83843    339.83449    280.87779   -26.527927    27.757446    58.956697    40.174562 
47404000    267.04867    313.17434    269.91074    -25.08923     27.70755    43.263608    40.173963 
47408000    272.75316    307.34937    297.71165   -24.516478    24.777857    9.6377264    40.173553 
47412000    276.82773    334.21754    307.92943   -26.127323    25.585556    26.288107    40.173167 
47416000    277.05095     343.0904    283.21821   -26.919072     26.45571    59.872187    40.174102 
47420000    265.93994    313.18174    286.62736   -25.063851    25.266945    26.554383    40.173825 
47424000    267.35253    303.35628    269.59648   -24.000786    25.736615    33.759801    40.174281 
47428000    277.52073    316.53606    300.38518   -25.819551    25.125729    16.150879    40.174678 
47432000     269.4262    316.57108    276.00421   -25.311681    26.707811    40.566876    40.173812 
47436000    278.62897    339.45635    297.58519   -26.604036    26.864117    41.871159    40.173817 
47440000     272.1784    313.03307    278.48368   -25.427616    26.559084    34.549397    40.172874 
47444000     282.3339    315.36407    309.70922   -25.146333    25.512841    5.6548554    40.172934 
47448000    270.83263    316.13846    268.38199   -24.875723    27.681385     47.75647    40.172616 
47452000    264.94169    307.02867    265.51343   -25.757786    27.884498    41.515243    40.173811 
47456000    281.54101    330.76317    287.91116     -26.1603     26.08681    42.852013    40.174002 
47460000    274.48209    330.17056    278.02133   -27.389227    27.360433    52.149235    40.175015 
47464000    274.67072    320.25199    298.99588   -25.996245    25.450665    21.256111    40.174627 
47468000     270.1142    315.94038    275.65542   -26.989063    27.227533    40.284961    40.174124 
47472000    275.31529    320.37699    286.08613   -26.881021    27.076694    34.290863    40.175211 
47476000    271.24644    310.03915     283.1646    -25.86413    27.147409    26.874552    40.175036 
47480000     271.5605    322.99449    275.01491   -25.814203    26.910132    47.979578    40.174499 
47484000    273.12544    335.67836    275.48797   -27.502595    26.936557    60.190389    40.175688 
47488000    267.76812    305.08843    281.94133    -24.75996    27.460654    23.147098    40.176034 
47492000    264.15643    306.19557    277.55304   -25.269691    26.787295    28.642522    40.177168 
47496000    268.50662     314.3474    274.06037    -25.27237    27.599904    40.287027    40.177311 
47500000    267.10879    312.58425    266.07555   -26.111892    27.152151    46.508698    40.175829 
47504000    277.64974    333.74736    290.33498   -27.807427    25.527066    43.412386    40.174879 
47508000    270.37584    316.28152    273.67106    -26.41849    27.498823    42.610459    40.175616 
47512000    276.08538    326.84938    299.19185   -25.912203    25.754113    27.657535    40.175461 
47516000    272.02159     321.0715    278.55183   -27.141471    26.267944     42.51967    40.175045 
47520000    273.42892    316.29247    270.67791   -26.984364    27.440942    45.614564    40.174669 
47524000     279.1798    332.35333    284.47252   -27.358536    27.017409    47.880811    40.174977 
47528000    275.08816    334.56761    280.46111   -27.313962    27.593555    54.106499    40.175474 
47532000    272.78243    319.38269    269.75199   -26.862138    27.506013    49.630696    40.176808 
47536000     263.2188    291.77058    280.78519   -26.405013     28.10041    10.985396    40.177188 
47540000    284.88636     326.6625    305.47743   -27.209529    26.374612    21.185077    40.176907 
47544000    269.46359    326.28146    270.52003   -27.023562    28.091322    55.761437    40.177006 
47548000    271.77087    318.79916    276.07587   -26.147329    28.063808    42.723299    40.177204 
47552000    262.39412    321.53193    278.84075    -26.53579    28.033512    42.691181    40.177929 
47556000    263.87622    294.62974     285.7268   -26.541243    27.319239    8.9029353     40.17741 
47560000    279.72792    341.02945    267.25789     -27.0476    28.137552    73.771561    40.176391 
47564000    275.27236    321.62805    290.69391   -27.100872    27.349935     30.93414    40.177363 
47568000    281.86112    331.24453    306.45816   -27.164916    25.751923     24.78637    40.178494 
47572000    278.46753    339.07094    285.60506   -27.529278    27.222299    53.465885    40.179797 
47576000     272.6067     330.8525    279.35145   -27.729567    28.127797    51.501044    40.181432 
47580000    281.78133    346.51383    295.03049   -28.865319    28.092747    51.483337    40.181018 
47584000     272.4522    323.49622    269.13941   -27.763246    28.400282    54.356806    40.180653 
47588000    275.36173     317.0856    294.47107   -27.474563    27.196712    22.614523    40.181685 
47592000    265.93019    309.07814    276.11121   -27.947564    29.470295    32.966929     40.18366 
47596000    275.30932    321.97552    272.68593   -27.967224    28.786203    49.289588    40.184113 
47600000    271.15484    317.79694    283.52835   -28.274166    28.415425    34.268594    40.183879 
47604000    278.25033    317.55225     291.7253   -28.434515    27.961015    25.826955    40.184317 
47608000    273.45666     333.6868    285.94571   -28.641056     29.28838    47.741088    40.184259 
47612000     274.5227    328.40211    274.56937    -29.28603    27.808405    53.832738    40.184518 
47616000    284.07053    338.45197    283.11461   -29.218382    28.228652    55.337358    40.184753 
47620000    272.71044    311.21059    274.84431    -28.56735    29.699944    36.366276    40.184281 
47624000    267.43345    300.50179     279.3403   -28.225548    28.855357    21.161489    40.184404 
47628000    269.79741    305.01379    298.92972   -29.097155    26.313257      6.08407    40.185784 
47632000     269.0185    309.94475    270.50215   -27.871494    29.020339    39.442606    40.184517 
47636000    282.21428    338.12012    291.34996   -29.289638    27.807176    46.770155    40.184539 
47640000    273.01628    321.49249    262.36312   -29.448307    28.063906    59.129367    40.185401 
47644000      266.903    321.31969    276.36107   -28.424187     28.70208    44.958623     40.18548 
47648000    275.08755    338.85735    270.05078   -29.906799    29.454796    68.806568    40.185587 
47652000     279.7959    347.09973    275.36633   -31.015168    29.246123    71.733402    40.185644 
47656000    272.98184    320.33202    275.95909   -30.100234    27.739717    44.372923    40.185064 
47660000    267.67974    296.83895    282.39005   -28.769932    28.096675    14.448903    40.186214 
47664000    275.19011    321.80859    287.81765   -29.417643    27.780168    33.990936    40.185778 
47668000    273.07207    331.41915    281.19935   -30.084634    29.459871    50.219804    40.186549 
47672000    270.20629    317.67221    260.78818   -29.894949    29.621771    56.884024    40.187022 
47676000    281.56846    354.16877    280.64381   -28.985255    29.307369    73.524964    40.187332 
47680000    273.02798    317.19382    264.98399   -28.818262    28.219961    52.209839    40.186743 
47684000    272.57114    309.35686    301.25051   -28.327121    27.438106    8.1063464    40.186715 
47688000    278.48617    341.34643    268.75141   -28.752059    28.522363    72.595017    40.186248 
47692000    274.23431    300.80177    274.51891   -27.451995    28.143259    26.282864    40.185464 
47696000    272.41431    303.83229    293.96874   -27.347724    27.446469    9.8635571    40.186303 
47700000    277.63974    326.12904    279.90889   -28.534794    27.980827    46.220154    40.186655 
47704000    279.76823    323.29505     294.1562   -28.204295    27.728508     29.13885    40.188321 
47708000    269.33419    307.51103     286.0044   -28.238668    28.420335    21.506631    40.188515 
47712000    280.28976    334.70874    277.84514   -28.608946    28.705035    56.863606     40.18881 
47716000    273.94051    330.99269    280.17673   -27.427666    27.989334    50.815966    40.188405 
47720000    285.70193    335.24886    300.59582   -27.740114    26.656032    34.653038    40.187647 
47724000    271.77495     316.2812    270.88896   -27.331185    29.245929    45.392247    40.187543 
47728000    275.86871    303.49724    306.55452   -27.003591    27.292845   -3.0572708    40.187779 
47732000    265.08871    325.70268    254.13565   -27.822764    29.550018    71.567027    40.187544 
47736000    264.77853    310.12702    279.49243   -25.980676    28.515948    30.634592    40.187829 
47740000    262.51542    310.85705    272.06027   -26.031651    29.409452    38.796783    40.187177 
47744000    269.16641    320.92224    267.21273   -27.281423    29.007754    53.709511    40.188125 
47748000    268.99942    320.54662     270.8973   -27.094442    29.119703    49.649325    40.189142 
47752000    269.81453    331.68962    263.46013   -28.175609    28.446646    68.229488    40.188853 
47756000    271.69628    305.77646    280.22146    -26.15287    29.061377    25.555001    40.189264 
47760000    261.64143     327.4778    259.84479   -28.791014    30.836174    67.633014    40.189184 
47764000    281.72771    351.77034     282.8814    -28.81125     29.82784    68.888935    40.188488 
47768000    271.72715    324.12518    275.05243   -27.394509    30.535468    49.072749    40.188594 
47772000    280.78119    346.47719    291.64678   -28.901217    29.616344    54.830413    40.188476 
47776000     263.5256    304.93398    274.89239   -27.933401    29.734914     30.04159    40.188945 
47780000    268.99414    304.24256    293.06283   -27.135728    29.527807    11.179736    40.188563 
47784000    271.74454    329.99653    275.21503   -27.969524     30.36995    54.781494    40.187996 
47788000    268.40306    308.29103    291.11031   -28.290017    29.960789    17.180722    40.188738 
47792000    263.60007    310.02194    272.05719   -28.082217    30.399974    37.964753    40.187911 
47796000     277.1912    327.49197    294.51398   -28.856258    29.446042    32.977995    40.187971 
47800000    271.43937    330.80902    290.33116   -29.348812    29.331494    40.477865    40.187688 
47804000    269.43098    314.71106     274.0303   -27.511077    30.216564    40.680762    40.187857 
47808000    268.99438    322.57415    279.79776   -28.405208    29.677368    42.776388    40.188977 
47812000    279.74259    350.95484    310.74262   -29.270024    28.397244    40.212217    40.187635 
47816000    275.15193    336.18096    280.65454   -28.653484    30.476215    55.526419    40.188774 
47820000      268.478    297.05292    281.63646   -26.847641    29.055677    15.416462    40.187818 
47824000     265.5097    317.36814     267.3304   -27.855299    30.223841    50.037734    40.187203 
47828000    271.44621      333.391     274.4507   -28.884354    29.875939    58.940294    40.185321 
47832000    261.58053    286.44419    277.83302   -26.590805    30.474889    8.6111701    40.185831 
47836000    273.74229     323.3998     287.7972   -28.821716    29.132302    35.602601    40.185185 
47840000    275.21277    330.09201    289.41161   -29.798909    29.017466    40.680399     40.18574 
47844000    270.35373    307.59106     267.5262   -28.808948    30.163819    40.064865    40.185861 
47848000    269.48742    317.03666    267.15313   -29.487165    29.983943    49.883534    40.187701 
47852000    271.61937    311.31461    283.30245   -28.500188    29.724082    28.012156     40.18754 
47856000    271.82201     314.7739    273.10821    -30.00143    29.344222    41.665687    40.187874 
47860000    267.48687    336.93337    256.52803   -28.555206    29.874354    80.405338    40.187769 
47864000    271.53018    317.66493    285.13077   -28.300488     28.13901    32.534154    40.186501 
47868000    275.61995     329.5974    277.11151    -29.46052    29.151408    52.485894    40.187017 
47872000    280.94401    339.71479    274.87716   -29.779585    29.129604    64.837634    40.187543 
47876000     284.0166    341.54786    296.99236   -28.168792     27.95444      44.5555    40.187336 
47880000    272.10389    327.94617    267.21798   -28.942232    29.087108    60.728189    40.188941 
47884000    263.67267    306.76373    275.07922   -28.070858    28.270558    31.684511    40.190538 
47888000    273.45641    317.65975    270.96957   -28.863123     28.73782    46.690181    40.190689 
47892000    266.18617    313.77032    290.85541   -27.360207    28.190567    22.914902     40.19048 
47896000    259.08406    299.58846    267.82689   -27.333292    28.839369    31.761567    40.191803 
47900000    274.36157    320.26313    285.38424   -27.327813    28.172486    34.878894    40.191105 
47904000    269.66677    313.05881    285.45363    -28.56714    28.367374    27.605179    40.190991 
47908000     269.4155    294.64194    290.40858   -28.274042    29.145793    4.2333503    40.190918 
47912000    283.94302    348.55492    284.10653   -29.182708    27.963985    64.448389    40.190624 
47916000    269.82235    309.59947    271.55226   -27.839853     28.89893     38.04721    40.190926 
47920000    279.49072    326.23854    281.18589   -28.721599    28.881664     45.05265    40.191217 
47924000    276.66689    306.69444    297.35239   -27.429792    26.669863    9.3420467    40.191467 
47928000    271.68729    306.77196    291.24547   -27.391304     27.29885    15.526493    40.189282 
47932000    284.39037    341.28951    281.78911   -28.926329    28.406504    59.500402     40.18871 
47936000    270.40326    309.81464    283.76102   -27.001495    27.696716    26.053617     40.18801 
47940000    265.02644    308.24018    285.85092   -27.788599    27.490156    22.389258    40.186959 
47944000    287.35972    334.64128    292.12878   -29.479813     27.29098    42.512503    40.186682 
47948000    267.71826    316.50233    274.06131   -27.679671    27.845251    42.441024    40.187736 
47952000    290.56762    348.78247    283.56343   -30.131438    27.514344    65.219038    40.187201 
47956000    274.11032    314.91018    284.44667    -29.48485    28.372329    30.463513    40.188135 
47960000    279.39831     324.9642    284.16634   -29.282269    29.256647    40.797863    40.188136 
47964000    282.46599    329.55542    297.73149   -28.717536    27.827005     31.82393    40.188086 
47968000    273.21541    287.30768    288.13645   -26.665702    28.339692  -0.82877493    40.188387 
47972000    278.25891    324.03092    282.51428   -27.664302    27.959186     41.51664     40.18898 
47976000    278.73994    346.41203    285.60047   -29.427693    28.807649    60.811558     40.18865 
47980000    274.89079    331.54599    275.64518    -28.65089    30.360126    55.900809    40.188708 
47984000    262.63382    313.35676     282.8544   -27.283161    29.289177    30.502362    40.189394 
47988000    278.31399    343.75556     260.6625    -28.91482    30.111813    83.093062    40.188802 
47992000    278.72419     323.8215    288.47293   -28.540701    28.443772    35.348571    40.188442 
47996000    267.80926    313.74251    271.91755   -27.780589    28.751629    41.824968     40.18811 
48000000    267.19817    302.18353    275.70971   -27.671305    28.849103    26.473823    40.189028 
48004000     271.2767    301.84123     292.9508   -27.786659    27.903776    8.8904236    40.188445 
48008000    281.48536    314.73821    288.57686    -28.19372    27.914989    26.161354     40.18796 
48012000    269.55303    328.54802    281.66867   -29.765369    29.084611    46.879349    40.189047 
48016000    271.79373    313.86036    296.81108   -29.027189     26.83478    17.049282    40.189417 
48020000    273.11134    313.08775    291.46007   -28.615427    28.726951    21.627674    40.188926 
48024000    275.88707      330.215    287.03914   -28.362164    28.334418    43.175859     40.18801 
48028000    276.06092    332.50812     288.9031   -28.736166     28.02969    43.605027    40.187141 
48032000    267.53269    302.59636    283.74706   -27.147551    28.891019    18.849293    40.189387 
48036000    270.68382    330.58592    267.17043   -27.911203     29.67905    63.415494     40.18946 
48040000    266.78694      303.633    280.62929   -28.435456    30.344293    23.003706    40.190317 
48044000    282.68605    326.03604    305.75987   -29.016789    28.487094    20.276169    40.190491 
48048000    282.46585    360.41681    301.04982   -31.133901    29.026032     59.36699     40.18898 
48052000    267.27758    307.27792    298.01084   -28.629225    27.562111    9.2670796    40.189539 
48056000    265.85601    307.44034    271.85752   -28.220523    29.068664     35.58282    40.188595 
48060000    276.54123    306.14862    314.68149   -28.403144    27.731945   -8.5328739    40.187361 
48064000    268.16347    330.47299    269.23085   -29.261318    31.144269    61.242136    40.188772 
48068000    266.73367    331.93118    250.35428   -29.393675    30.091841    81.576899    40.188279 
48072000    282.73228    322.26525    292.39402   -30.359148    28.534851    29.871231    40.188449 
48076000    277.54557    319.89946    296.34183   -30.088234    28.377389    23.557627    40.187467 
48080000    268.96402    306.85923    282.49338   -29.290985    29.553897    24.365849    40.188429 
48084000    279.22913    310.67917    278.89045   -28.964937    30.396136    31.788714     40.18839 
48088000     262.7429     298.6878    262.53661   -28.853335    30.789244    36.151191    40.188383 
48092000     279.0483    324.09825    281.59147   -29.011586    29.240402    42.506783    40.188202 
48096000    275.17798    315.23539    279.42191   -28.761717    30.708984    35.813484    40.189262 
48100000    278.10885    329.79074    290.80436   -29.973123    29.334437    38.986377    40.191046 
48104000    274.59081    322.46948    271.05988   -29.266725    29.674013    51.409599    40.191167 
48108000    271.10587    330.61302    275.15189   -29.844036    29.282446     55.46113    40.191283 
48112000    272.50252    338.89979    282.97043   -30.988563    29.586825    55.929364     40.19134 
48116000    263.71793    285.31937    281.84127   -27.543705     29.65865    3.4781016    40.189966 
48120000    274.68754    335.39564    277.62527   -31.511645    29.696874    57.770368    40.190092 
48124000    269.41667    317.87894    287.76974   -30.660356    29.564458    30.109193    40.189795 
48128000    272.39874    311.47162    282.21943   -30.137809    29.740847    29.252191     40.19057 
48132000     272.6001    308.82456    275.66476   -29.728138    30.232794    33.159805    40.191664 
48136000    266.93789    305.84191    270.08802    -28.96642    29.510401    35.753891    40.191411 
48140000    272.64673    311.56393    292.23097   -29.588874    30.185794    19.332963    40.191603 
48144000    272.72586    302.03115    289.95378   -29.707291    29.575541    12.077371    40.192014 
48148000    277.32203    339.16163    265.43686   -32.220847    30.446512    73.724771    40.192772 
48152000    277.69227    341.49756    273.98101   -32.469649    30.967412     67.51655    40.193251 
48156000     268.5494    310.64385    278.72089   -30.579355    30.448782     31.92296    40.193639 
48160000    269.72587     316.3204     277.0366   -31.460098     30.06496    39.283805    40.194301 
48164000    271.96132    298.49937    281.03027   -29.143756    29.059823    17.469102    40.194479 
48168000    270.26579    292.08449    276.11779   -29.243704    30.183976    15.966699    40.195522 
48172000    285.92794    319.96586    304.71317   -30.454887    29.318086    15.252683    40.195576 
48176000    276.57782    311.44004    288.75779   -30.205794    29.747161     22.68225    40.195412 
48180000    275.22794    327.16653     277.2309   -30.393987    30.040379    49.935626    40.194711 
48184000    283.29566    304.86438    319.82658   -29.956464    28.215113   -14.962195    40.194609 
48188000     276.4481    313.73893    283.90236   -29.746382    29.874389    29.836574    40.194807 
48192000     279.1977     316.1789    291.19709   -29.712686    30.195438    24.981814    40.195909 
48196000    272.49069    311.29685    283.73501   -29.414613    30.244779    27.561837    40.195724 
48200000    269.08767    316.51595    278.33319   -30.556932    30.542805    38.182766    40.195673 
48204000    266.35164    301.45792    269.52823   -29.617483    30.954629    31.929695    40.197414 
48208000    277.97248    311.04957    281.12167   -30.985216    29.948619    29.927903    40.196829 
48212000     271.9603    310.88619    277.51523    -30.08081    29.580243     33.37096    40.196547 
48216000    279.37093     336.4211    284.14522   -31.491584     29.56504    52.275878    40.195593 
48220000    281.95999    315.06602    297.01489   -29.528646    28.329334    18.051122    40.196245 
48224000     272.8479    307.60071      279.944   -30.378667    30.066924    27.656702    40.196764 
48228000    277.80362    324.22155    289.41297   -31.219229    30.054785    34.808578    40.196274 
48232000    274.00771    322.05705    278.89165   -30.596297    29.827825    43.165398    40.196194 
48236000    269.58304     336.3929    264.05318   -31.262284    30.597038    72.339726    40.195653 
48240000     282.2563    318.85854    301.18983   -29.503849    27.962161    17.668711    40.195115 
48244000    272.60279    302.46818    271.41866   -29.704175    29.528119    31.049517    40.195288 
48248000     280.4788    319.82932    281.61771   -30.136838    29.085795    38.211613    40.195747 
48252000    275.25933    328.89189    265.54322   -31.347607    29.406074    63.348675    40.197346 
48256000      274.308     300.5437    286.34445   -30.386526    30.046352    14.199247    40.197293 
48260000    274.45075    305.62681    268.90946   -30.260814    29.649891    36.717345    40.198709 
48264000    283.12091    319.76036     285.4425   -30.800606    29.067181    34.317862    40.198445 
48268000    283.30814    318.17122    283.11475   -29.959446    29.063553    35.056472    40.198386 
48272000    286.32417     339.7492    268.01046    -31.14332     29.58351    71.738742    40.200137 
48276000    280.40824    311.88074    289.77254   -30.442242    27.263939    22.108205    40.201023 
48280000    279.48343    317.38179    290.29083   -31.301327     28.25726    27.090956     40.20098 
48284000    270.55712    332.20381    268.24667   -31.747342    29.975277     63.95714    40.200084 
48288000    278.77546    319.36597    279.56749   -29.051457    28.341395    39.798474    40.201092 
48292000    277.91319    308.48075     291.4997   -30.768343    28.273507     16.98105    40.200594 
48296000    280.18599    316.39556    286.35749   -31.018874    28.286147    30.038063    40.201509 
48300000    284.24685     334.5246    293.48369   -31.684794    28.567947     41.04091    40.202173 
48304000     277.5152    332.02391    258.08587   -30.515483    29.687795    73.938045    40.201751 
48308000    289.02046    345.84779    277.99379   -31.105146     28.56678    67.854002    40.202498 
48312000    278.45159      299.889     288.0278   -29.951402    29.150752    11.861208    40.203054 
48316000    282.01939    307.38499     300.9809   -32.187173    28.903875    6.4040846    40.203724 
48320000    273.92505    327.02785    263.19225   -32.038334    29.632704    63.835591    40.204208 
48324000    269.23058    313.75398    257.73402   -31.529576    29.316364    56.019951    40.203458 
48328000    271.57542     302.8214    272.43207   -30.948632     29.72378    30.389333    40.202155 
48332000    271.63953    336.68398    262.97691   -32.858802    29.895706    73.707072     40.20369 
48336000    274.08973    304.35461    279.60781   -30.832606    29.717754    24.746801    40.200948 
48340000    287.40149    308.17269    286.96428   -31.221875    27.272768    21.208405    40.201154 
48344000    274.94027    323.04148    265.44498   -30.600014    29.077642    57.596506    40.202285 
48348000    280.77098    305.98191     301.7817   -30.492943    28.936806    4.2002137    40.201827 
48352000    273.96738    322.20582    280.05321   -30.609258    29.216215    42.152613    40.202075 
48356000    274.01219    339.95188    260.67171   -31.424198    30.620545     79.28017    40.202269 
48360000    276.59564    319.87917    283.81564   -31.106296    29.699993    36.063531    40.201964 
48364000    279.19966    310.52569      295.454   -31.090631    28.436242     15.07169    40.203667 
48368000    275.41055    331.44079    265.35748   -31.977943    30.315526    66.083316    40.203499 
48372000    276.95428    330.54428    273.20438   -31.329124    29.644431    57.339902    40.203753 
48376000    275.56697     321.7255    277.94834   -30.795736    29.990441    43.777166    40.203435 
48380000    273.38142    321.20054    277.18417   -31.674202    30.146901    44.016367    40.203204 
48384000     275.7265    330.46671    287.72756   -32.379316     28.76986    42.739156    40.203569 
48388000    278.86924    329.14062    280.47856   -32.207228    29.132286    48.662064    40.202125 
48392000    278.87938    325.81015      275.723   -31.603241    29.905867    50.087153    40.203455 
48396000    268.98927     322.0564    264.12157   -32.073164    29.789635    57.934823     40.20349 
48400000    273.82539    341.00483    272.30311   -30.720975    30.645461    68.701722    40.203377 
48404000    281.61418    338.61387    283.50372   -31.837579    29.095279    55.110151    40.203406 
48408000    278.26542    328.70841    278.25877     -30.5384    29.575397    50.449641    40.204538 
48412000    272.97556    327.51475    273.14668   -31.090536    29.712169     54.36807    40.205289 
48416000    277.17056      318.645    273.10328   -31.310291    29.144894    45.541712    40.205459 
48420000      275.601    341.06815    263.59029   -32.751616    30.346838    77.477862     40.20556 
48424000    283.86008    328.63208    295.78717   -30.572674    29.235091    32.844911    40.207282 
48428000    271.46647    306.92706    273.40689   -30.700349     30.91781    33.520171    40.207046 
48432000    276.13499    327.31297    267.27199   -30.352346    30.361925    60.040979    40.207809 
48436000    282.35447    324.32409    290.84253   -32.146607    28.421152    33.481566    40.208173 
48440000    281.36469    328.42973    290.61023   -31.063444    28.802741      37.8195    40.208562 
48444000    279.74267    336.63294     277.8787   -31.020007     29.66632    58.754242    40.208395 
48448000    284.09311     341.5096    285.52445   -31.693404    29.888586    55.985155    40.208723 
48452000      278.168    308.98897      302.233   -29.824444    28.808511    6.7559722    40.209575 
48456000    281.13371     313.0368    299.44813   -29.671957    29.600121    13.588676     40.20805 
48460000    273.81344    329.13847    285.69656   -31.220512     30.00109    43.441904    40.208239 
48464000     273.7393     340.2276    257.39152   -31.537218    31.184583    82.836089    40.209513 
48468000    278.16293    315.21537     294.2616   -30.314959     29.17537    20.953774    40.209588 
48472000    279.14197    324.52871    274.98209    -31.67073    30.665361    49.546621    40.210971 
48476000     285.2521    323.62429    289.57274   -30.141511    29.115579    34.051551    40.209869 
48480000    286.12913    319.39192    284.94774   -30.089411    29.375801    34.444176    40.209489 
48484000     274.4618    327.62483    265.22508   -30.539922    29.755335    62.399757    40.210952 
48488000    273.61516    318.87389    277.24402   -29.746952    29.835055     41.62987    40.210738 
48492000    287.68869    340.28362    301.13251   -31.658733    29.041232    39.151116    40.211701 
48496000    270.46769      303.352    279.45728   -29.207394    30.345302    23.894714    40.211348 
48500000    263.29083    307.94564    263.50621    -29.63711    30.696052    44.439428    40.209842 
48504000    272.57006     308.2374    291.35905   -30.311581    29.829327    16.878348    40.210055 
48508000     271.1351    305.83961    265.37209   -29.666952    31.020543    40.467513    40.209484 
48512000     261.3165    314.65001    267.07054   -29.271032    31.262375    47.579471    40.209632 
48516000    276.34194    333.26572     285.0446   -30.539345    30.927851    48.221118    40.210933 
48520000    273.48108    316.97577    275.01575   -29.362416    31.386512    41.960021    40.211076 
48524000    269.92274    328.32812     271.7178   -29.099834    32.369356    56.610315    40.211098 
48528000    276.55614    316.75093    283.27548   -29.293158    30.684441    33.475451    40.211491 
48532000     272.7851    338.31819    265.32792   -30.725775    31.155133    72.990268    40.212027 
48536000    272.41095    308.78503    281.96554   -30.035911    30.233494    26.819492    40.210652 
48540000    272.81323    345.16394     278.2207   -31.490085    30.863613    66.943247    40.210422 
48544000    279.86367    317.21637    299.77109   -30.587159    29.331663    17.445277    40.210299 
48548000    276.78047    332.13617    263.01827   -31.184549    30.364776    69.117909    40.210766 
48552000    282.28739    328.76461    300.16593    -31.95583    27.948873    28.598678    40.210838 
48556000    275.50314    328.70819    274.22644   -29.915664    29.782072    54.481751    40.210976 
48560000    274.26518    346.65189    269.14455   -32.128151    29.552188    77.507334    40.209885 
48564000    277.22438    319.16225    287.28786   -30.265587     30.64274    31.874383    40.211163 
48568000     272.7803    315.83594    286.73065   -29.889311    29.777232    29.105293    40.209675 
48572000    274.73908    322.96336    277.67807   -29.957661    29.814584     45.28529    40.210194 
48576000    271.19286    317.52324     283.6915   -29.499815     29.81315    33.831742    40.209657 
48580000    272.68032    328.83773    257.24324   -31.501073    31.816445     71.59449    40.208277 
48584000    269.64346    303.47615    288.77154   -29.555224    29.667819    14.704611    40.207701 
48588000    262.66809    293.90729    279.50665   -29.931444    29.862895    14.400646    40.207379 
48592000    273.12995    319.19543    288.85795    -29.88925    30.315343    30.337485    40.206537 
48596000    273.51505    317.05966    284.41564   -30.741331    30.074136    32.644023    40.205904 
48600000    275.88833     301.8852     293.0974   -28.822705    30.888664    8.7877997     40.20599 
48604000    281.54669    341.74393    286.44377   -30.032526    31.375608    55.300153    40.206124 
48608000    274.79602    324.74796     292.6433   -29.475901    30.582781    32.104661     40.20589 
48612000    269.81197    314.28317    279.30034    -28.68405    31.090668    34.982838    40.205454 
48616000    276.06444    318.05522    273.83721   -29.734347    30.681372    44.218011    40.203699 
48620000    272.46119    328.62304    274.77468   -30.293387    30.741051    53.848361     40.20395 
48624000    279.96366    320.78282    278.84756   -31.061082    30.642485    41.935255    40.204765 
48628000    262.05868    298.88107    260.75635   -29.348877    31.315933    38.124716    40.206994 
48632000    275.13545    319.50367    290.14584   -30.377461    29.992144    29.357834    40.206132 
48636000    267.27396    291.51286     276.7536   -28.687858    31.282459    14.759266     40.20461 
48640000    270.00926    317.20798     268.3653   -31.154234    30.729122    48.842678    40.204154 
48644000    276.27411    332.44667    272.74726   -31.196438    30.458806    59.699408    40.203566 
48648000    278.48917     326.4734    299.01548   -30.877971    28.426057    27.457918    40.202881 
48652000     274.2902    317.67383    279.09846    -30.64766    29.880888    38.575363    40.201295 
48656000    273.43558    323.37816    265.09376   -30.992848    31.789214      58.2844    40.201458 
48660000    273.16131    316.51655    278.74079   -30.573315    29.562245    37.775761    40.202039 
48664000    271.28673    309.97836    271.06446   -30.164655     31.40986    38.913903     40.20141 
48668000    277.79184    320.26813    282.66314   -31.254738    30.165618    37.604985    40.200271 
48672000    280.42829    338.09958    272.58896   -30.986164    29.509196    65.510618    40.202095 
48676000    279.14112    311.79604    298.02515   -30.913215    29.178097    13.770891     40.20089 
48680000    275.71758    332.25286    276.36138   -32.203226    29.408261    55.891485    40.201075 
48684000    273.92534    321.65756    292.02088   -31.031327    30.138115    29.636674    40.200726 
48688000    283.09635    345.81266     271.0747   -33.585881    30.434425    74.737962    40.200922 
48692000    285.79003    351.36467    276.94974   -33.010706    30.167396    74.414934    40.200533 
48696000    267.57873    310.16871    250.62682   -31.334027    30.373647    59.541895    40.201378 
48700000    274.64101    327.10256    263.27445   -31.524599    30.423929    63.828116    40.202171 
48704000    277.06048    334.12554      276.666    -31.47648    30.305926    57.459539    40.202687 
48708000    272.33974    341.76187    259.83514   -31.630065    31.907182    81.926721    40.202443 
48712000    271.48558    308.98449    285.14509   -30.292268    30.224269    23.839404      40.2023 
48716000    275.61267    307.88352    291.67173   -30.610747    29.960696    16.211793    40.201507 
48720000    282.29278    350.40885    276.73694   -33.233168      30.9937    73.671913    40.202776 
48724000    284.56772    321.11762    300.09826   -31.332515    29.804705    21.019359    40.203302 
48728000    276.66124    337.39163    261.89697   -31.580523    31.720224    75.494662    40.205167 
48732000    277.21095     324.2571    283.51943   -31.854389     30.08715    40.737674    40.205825 
48736000    275.90037      316.447    278.19359   -32.066169    31.149781    38.253409    40.206701 
48740000    274.98786    321.08253    268.65821    -31.90116     32.30391     52.42432     40.20744 
48744000    275.67592    315.21561    285.45724   -32.645448    30.880395    29.758371    40.208548 
48748000    286.15683    310.35217    292.78993   -32.252319    29.857119    17.562245    40.207802 
48752000    274.79717    310.60653    278.58874   -32.282401    30.719588    32.017799    40.207645 
48756000    288.61917    336.64837    296.98643   -34.361596     29.14612    39.661937    40.208108 
48760000    291.49215    343.82588    287.94835   -34.007018    28.753543    55.877528    40.207259 
48764000    272.21787    319.64363    261.63949   -33.270651    31.468463    58.004137    40.208557 
48768000    281.54942    318.70615    283.32277   -32.723412    29.694405    35.383382    40.208721 
48772000    283.87653    330.38906    283.57968   -32.930626    30.549792    46.809379    40.208723 
48776000    274.82498    328.24273    258.37569    -33.46007    32.157297    69.867044    40.208666 
48780000    281.56978    337.10612    264.91147   -33.650489     31.42795    72.194645    40.207416 
48784000    281.52934    303.19773     280.3031   -31.323129     29.65027    22.894625    40.209021 
48788000    287.05269    340.13408    263.01074   -33.145147    30.284505    77.123338    40.208961 
48792000     276.1965    311.80246    281.26649   -31.943547    30.329484    30.535977    40.208107 
48796000    275.92379    306.54374    262.77635     -31.3731    30.578783     43.76739    40.207723 
48800000    284.63549    339.23157    285.35155   -33.389355    30.394633     53.88002    40.207705 
48804000    275.80386    327.22042    270.36326   -31.834147     30.74692     56.85716    40.208197 
48808000    287.17641    335.44219    279.56909   -32.270429    30.422768    55.873103     40.20915 
48812000    273.07758    324.64228    269.05396   -32.193718    31.504254    55.588323    40.209333 
48816000    279.30009    316.78859    281.75214   -32.368043    30.977683     35.03645    40.209536 
48820000    273.43772    307.89899    289.19141   -32.529375    29.943669    18.707585    40.209722 
48824000    285.18574    335.87619    263.65798   -34.628167    30.390355    72.218216    40.209533 
48828000    285.10301    315.41367       291.53   -31.998847    29.265284    23.883671    40.208477 
48832000    286.66776    327.11526    302.03771   -32.630208    29.052941    25.077548     40.20872 
48836000    276.59369    314.50366    276.55033   -31.644903    31.558325    37.953323     40.20866 
48840000    280.41781    318.74153    282.15161   -31.882182    30.196041    36.589921    40.207953 
48844000    278.30028    303.95303    310.79086   -29.747955     29.69211   -6.8378218    40.208366 
48848000    270.90469    295.78707    292.53675   -28.867227    30.910642    3.2503218    40.209539 
48852000    278.48881    328.03282    278.79638   -31.700503    30.477171    49.236438    40.208475 
48856000    279.11313      325.171    258.52993   -31.291844    32.490781    66.641075    40.208059 
48860000    278.78754    317.74707     294.8165   -30.217241    31.127479    22.930574    40.207932 
48864000    272.45985    322.82111    269.02028   -32.093111    32.144443    53.800831    40.207454 
48868000    277.70672    331.71994    298.31488   -32.476629    31.556074    33.405055    40.206679 
48872000     270.1633    318.29332    275.51555   -30.725919    31.670126    42.777767    40.205344 
48876000    276.50978     312.6133    297.29452    -31.41858    30.921966    15.318787    40.205813 
48880000    287.17881    335.97457    308.19785   -32.246786    29.944886    27.776715     40.20496 
48884000    269.59906     323.7706    283.32888   -31.550847    32.094779    40.441714    40.207922 
48888000    272.49364    304.74511    277.86617   -29.671003    31.696107    26.878947    40.205465 
48892000    276.50102    327.33257    280.13569   -30.867012     31.40743    47.196882    40.206075 
48896000    272.11555    318.04543    286.94537   -30.700031    30.876217    31.100061    40.206824 
48900000    275.88532    324.18328    288.38185   -29.985238    30.119773    35.801429    40.207925 
48904000    276.64904    318.58139    297.25185   -30.202452    30.564892    21.329535    40.208046 
48908000    274.14853    316.29778    285.36864   -31.501263    31.260702    30.929144    40.208525 
48912000    271.54458    319.66462    268.77655   -30.460071    32.146102    50.888072    40.208175 
48916000    274.57363    327.65004    283.34972   -30.252798    31.284557    44.300323    40.208947 
48920000    270.03713    313.21911    284.88767   -28.573773    30.283911    28.331435    40.209322 
48924000    262.86643    284.36049    274.05438    -28.08909    29.928779    10.306111    40.208218 
48928000    277.22754     323.5057    288.41878   -31.277202    30.934206    35.086917    40.209943 
48932000    275.35603    319.67523    291.05493   -30.265162    30.909789    28.620306    40.210861 
48936000    267.43506    304.85731    291.17852   -30.183012    31.284314    13.678791    40.210431 
48940000    270.98078    323.13141    276.40364   -29.494379    30.125224     46.72777    40.210474 
48944000    282.47784     351.6628     286.5324   -31.585223    30.364404    65.130401    40.210033 
48948000    271.45353    329.56604    281.84425   -30.763016    31.007452    47.721794    40.208577 
48952000    265.73899       315.83    260.41482   -28.706101    32.226504    55.415173    40.207132 
48956000     265.9292    306.81368    287.74355   -29.769956    31.226603    19.070129    40.208273 
48960000    268.89926    316.80354    261.76684   -30.867408    32.072603      55.0367    40.208616 
48964000    265.39793    310.98475    265.11295   -30.572394    31.436908    45.871796    40.208374 
48968000    265.18716    318.04776     263.9782   -29.412233    32.681086    54.069561    40.208871 
48972000    272.60174    318.86443    290.15937   -30.749267    30.483567    28.705059    40.208786 
48976000    267.68938    302.24673    269.28036   -28.619336    31.346674    32.966361    40.208818 
48980000    276.05656    332.10131    305.81514     -31.0906    28.852529    26.286167    40.208525 
48984000    279.38328      327.044    279.23917   -29.656581    30.733231    47.804839    40.207997 
48988000    278.56015     326.6989    288.45065   -30.933642    30.251204    38.248248    40.208042 
48992000    279.34287    325.42266    290.09264   -30.520022    30.110873    35.330024    40.208116 
48996000    277.21946    329.06809     277.0723   -30.618124    30.392511    51.995789    40.208463 
49000000    273.47651    318.58529    274.78875   -30.362685    31.119498    43.796539    40.207971 
49004000    282.67114    341.69927    300.47849   -31.209292    29.872819    41.220778    40.207558 
49008000     275.4646    335.52841    284.55463   -30.680707    30.949529    50.973777     40.20696 
49012000    284.56652    333.07118     296.6556   -32.270086    30.569946    36.415587    40.206942 
49016000    279.90022    320.29774    295.69166   -31.843601    30.885469    24.606083    40.206414 
49020000    277.60888    319.66418    311.39247   -30.562751    30.107178    8.2717019    40.206859 
49024000    281.67538    312.10078    302.35973    -30.87141    30.904177    9.7410531     40.20632 
49028000    272.82721    302.26197    289.23267   -29.907485    30.968914    13.029297    40.205818 
49032000     275.8706    315.54467    267.35942   -31.307195    31.249127    48.185243    40.206543 
49036000    275.07995    310.56169    295.92623   -31.880131    30.182443    14.635464    40.206444 
49040000    277.02366    334.53628    293.23577   -33.073126    30.826319    41.300509    40.206464 
49044000      279.627    326.37625    290.49281   -32.084943     29.76192    35.883447    40.205901 
49048000     268.7943    305.30559    276.87257   -30.240596    30.954608    28.433017    40.206937 
49052000    269.09957    309.75658    257.65106   -30.933525    31.761031    52.105525    40.207135 
49056000    281.00101    328.89295    261.36773   -32.007232    31.476922    67.525229    40.206922 
49060000    277.91721    343.22451    269.25684   -32.194827    30.691416    73.967666     40.20643 
49064000    278.96593    316.32397    281.83743   -32.566973    31.124349    34.486534    40.204786 
49068000    280.06585    309.19813    286.60854    -32.88625    30.367095    22.589597    40.205423 
49072000    270.04498    291.42874    280.73399   -30.753655    31.007515    10.694747    40.205261 
49076000    276.46915    310.32068    268.45157   -31.547755    32.029863    41.869107    40.205632 
49080000    280.94953    321.15642     297.3693   -32.228817    31.129413    23.787123    40.204147 
49084000    270.34218    316.14609    258.42906   -30.676885    32.261863    57.717036    40.203976 
49088000    262.45186    301.41917    276.76803   -31.212006    32.792848    24.651137    40.204266 
49092000    278.36601     321.1846    278.85223   -31.724961    32.005609    42.332374    40.203174 
49096000    268.94033    306.78656    261.80226   -31.646113    32.519806    44.984307    40.203188 
49100000    275.82875    323.69782    280.96338   -31.332606    31.943002    42.734437    40.203045 
49104000    268.88695    292.38043     267.7926   -30.968592    33.361138    24.587826    40.202867 
49108000    281.84182    324.35029    296.49988   -32.214097    31.893795    27.850413    40.202846 
49112000    273.93092    314.33612    289.99097   -32.093142     32.20427    24.345154    40.202526 
49116000    272.91359    317.34167    276.74632   -32.124934    32.308564    40.595358    40.203708 
49120000    276.10854    308.51654    298.12547   -31.761629    31.066613    10.391069    40.204913 
49124000     266.4988    320.56146    264.46471   -32.714566    33.324643    56.096747     40.20427 
49128000    281.95539    346.86013    267.61489   -33.436268    33.617189    79.245243    40.203957 
49132000    267.25596     308.8028    263.08351   -32.203543    34.351081    45.719289    40.202996 
49136000     267.6258    316.27119    262.14749   -31.837377    33.964308    54.123701    40.202872 
49140000    277.37211    326.48018    273.22193   -31.870845    32.782233    53.258249    40.202851 
49144000    277.21378    332.34531    287.07395   -33.032896    31.962711    45.271359    40.203641 
49148000    274.52328    311.58849    281.48442   -31.663665    32.275764    30.104067    40.205052 
49152000    282.71646    326.40592    298.05929   -32.098066    32.348194    28.346636    40.205353 
49156000    275.91847    327.98805    286.18658   -33.101695    32.192054    41.801462    40.205673 
49160000    274.38729    315.98054    272.97518   -31.625023    33.177994    43.005362    40.207333 
49164000    271.13918    317.58015    267.41876   -32.525186    34.823289    50.161396     40.20733 
49168000    271.80378    328.62979    262.24829   -30.964824    34.156229    66.381499    40.207056 
49172000    276.81802    342.15059    278.23958   -33.001439     33.26075    63.911014    40.207131 
49176000    272.24042    298.01284    279.78908   -31.445995    33.106102    18.223763     40.20753 
49180000     274.0709    331.06028    277.95062   -33.570548    31.780104    53.109655    40.208421 
49184000    274.32257    317.99918    294.77061   -31.747283      31.6963    23.228566    40.208068 
49188000    272.10671    305.77474     276.2272   -32.917549    32.380981    29.547536    40.208721 
49192000    280.59177    314.07705    295.86736   -32.209885    31.642994    18.209681    40.207614 
49196000    287.47966    340.99276     308.6521   -32.474479    31.431537    32.340656    40.206941 
49200000    275.26372    333.70106    286.06684   -32.192504    32.718877    47.634227    40.208773 
49204000    276.71081    330.72555    291.23259   -32.220736    32.127635    39.492963    40.209364 
49208000       281.83    341.24695    272.77726   -32.448131    33.878607     68.46969    40.208508 
49212000    279.14296     349.1716     285.8249   -33.081291    32.557999    63.346703     40.20986 
49216000     275.6215    311.20026    284.71331   -31.552932     32.63063    26.486949    40.211197 
49220000    271.66289    316.66894    273.66206   -31.125495     32.52245    43.006872    40.211798 
49224000    272.57608    312.60407    286.38246   -31.721812    32.145625    26.221609    40.210206 
49228000      280.723     324.5099    299.74544   -32.290325     31.39379    24.764459    40.209174 
49232000    272.95253    310.29541     272.8386   -31.907109    32.993513    37.456818    40.209818 
49236000    283.71327    328.41669    285.33261   -32.193829     32.18953    43.084072    40.210584 
49240000    275.89892    320.37173    259.27895   -32.752126    33.536609    61.092773    40.210423 
49244000    275.57143     318.0249    286.19697   -33.040147    32.044951    31.827927    40.211777 
49248000    276.16234    309.41474     291.4686   -30.630031    32.089625    17.946137    40.212265 
49252000    273.31564    312.40922    268.53395   -32.194922     32.05303    43.875272    40.211622 
49256000     274.3644    307.40397    294.02493   -30.926561    31.882392    13.379034    40.211208 
49260000    267.35122    291.05012    286.12417   -31.664253    33.450479    4.9259489    40.210345 
49264000    262.41722    289.79884    274.55968    -29.46707    32.489758    15.239161    40.210445 
49268000    278.08766    337.46637     283.6414   -32.084575    32.361612    53.824963    40.210472 
49272000    276.26078    351.26972    282.54386   -33.417191    31.330415    68.725868    40.211314 
49276000    274.37085    322.51754    292.53238   -31.717227    31.414514    29.985166    40.210492 
49280000    269.77378    328.77462      284.875    -32.52936    32.136257    43.899619    40.209702 
49284000    268.68758    314.81507    274.10825   -32.544935    33.293384    40.706822     40.21087 
49288000    269.08021    327.81689    272.79135   -31.932061    32.983395    55.025543     40.21154 
49292000    269.39395    311.25449    272.22332   -32.450858    33.647903    39.031171    40.212198 
49296000    271.70688    324.65967    289.75099   -31.705419    32.802822    34.908676     40.21268 
49300000        271.3    307.80532    281.27703   -31.663586    32.134587    26.528289    40.212072 
49304000    268.64848    317.09942      262.688   -33.294792    33.315305     54.41142    40.210821 
49308000    276.14415    319.34204    278.14159   -32.775059    33.365496    41.200444    40.209916 
49312000    271.30178     318.9782    277.37572   -32.684677    32.643825    41.602481    40.210561 
49316000    270.95096    315.76249    288.70489   -32.891242    32.738289    27.057601    40.210164 
49320000    264.97988    306.18628    282.72786   -31.408474    32.344291    23.458425    40.210504 
49324000    270.32539    316.25824    268.18964   -32.807071    33.503582    48.068601    40.209852 
49328000    278.26508    305.77451    301.14442   -31.501431     31.52254    4.6300881     40.20941 
49332000    279.28647    315.13975    299.78733   -32.134901    31.630379    15.352418    40.209679 
49336000    264.88941    298.30678     267.8717   -32.637868     33.45295    30.435076    40.209616 
49340000    275.27205    309.60372    290.61011   -32.594889    33.014118    18.993613    40.209239 
49344000    283.97124    322.42551    290.17457   -33.790817    31.677016    32.250936    40.209743 
49348000    272.98718    312.93009    273.80108   -32.974694    32.565663     39.12901    40.209938 
49352000    267.87821    309.56968    259.36587   -32.450809    32.052069    50.203807    40.210618 
49356000    272.96204    315.58505    279.28704   -32.684556    31.291984     36.29801    40.211953 
49360000    279.63542    325.97752    285.61185   -33.073463     31.84048    40.365668    40.210969 
49364000    277.26801    337.29026    279.21119   -34.495622    31.598165     58.07907    40.211092 
49368000    279.79447     315.5475    296.77831   -32.577273    32.299134    18.769184    40.209231 
49372000    274.12655    322.35956    284.02257    -31.95211    32.382404    38.336981    40.209352 
49376000    272.07581    306.86708    292.33978   -31.682905     30.58668    14.527298    40.208845 
49380000     270.3949    306.20976    287.06726   -31.928266    32.132162    19.142494    40.207262 
49384000    275.49515    338.06869    269.12452    -33.26772    32.368547    68.944165    40.207568 
49388000    279.02522    331.30347    282.06552   -32.127391    32.261439    49.237956    40.207411 
49392000    276.71575    314.52277    293.13147   -31.363113    30.605852    21.391302    40.207264 
49396000    273.42831    321.96589    281.39568   -32.963136    31.283999    40.570208    40.205932 
49400000    280.23265    316.02806    292.44319   -33.167596     29.65914    23.584874    40.205231 
49404000    272.18371    305.77919    272.65651    -33.01886    31.217195    33.122679    40.205445 
49408000    277.99097     327.8715    259.56627   -32.552941     32.07332    68.305224     40.20491 
49412000    278.70023    331.75594    278.71811   -33.085852    31.913733    53.037828    40.205191 
49416000    277.22548     331.6073    280.13467   -33.240097    31.330499    51.472631    40.205446 
49420000    278.52216    320.21233    261.89536   -33.552524    32.239651    58.316971    40.206832 
49424000    262.27311    295.51307    271.71678   -30.343477    32.371754    23.796286    40.206788 
49428000    283.99653    345.77441    284.40737   -33.177595    31.169624    61.367039    40.206357 
49432000    281.12089    346.75496    261.33076   -34.327644    31.351739    85.424198    40.206715 
49436000    281.20017    340.22946    284.53636   -32.809824    31.398803    55.693098    40.206283 
49440000    273.73509    316.16567     280.8539    -31.85068    30.571676    35.311775    40.206264 
49444000    283.51922    324.21558    274.30053   -33.243048    30.945029    49.915051    40.205245 
49448000    274.39335    322.56804    277.66525   -32.785255    30.795301    44.902796    40.203599 
49452000    282.47247    317.41999    302.05258   -32.850912     30.64439    15.367411    40.204236 
49456000    280.33416    315.33563    286.55786   -31.103351    31.628104     28.77777    40.204986 
49460000    268.57519     294.1935    295.82649    -30.40439    30.044057   -1.6329928    40.204461 
49464000    278.88212    312.95522    296.94687   -32.585739    30.748207    16.008357    40.203474 
49468000    279.72968    313.59805    287.31023   -32.668194    30.998861    26.287823    40.203229 
49472000    275.95401     316.2649    276.00894   -32.347047    30.655258    40.255952    40.203383 
49476000    269.34739     305.4667    285.93839   -32.094215    30.680718    19.528308    40.203414 
49480000    270.18157    305.80747    260.60372   -32.725597    31.504591    45.203748    40.203788 
49484000     276.4582    318.83532    307.72617   -32.660619    30.349152    11.109154    40.203751 
49488000    277.34973    301.49041    296.18285   -32.044179    30.432624     5.307558    40.202533 
49492000    292.05535     336.9692    298.70224   -34.374635    29.482224     38.26696    40.202328 
49496000     268.7566    297.86616    261.69733   -30.691807     32.79091    36.168836    40.202472 
49500000    275.05433    300.88629    273.32139    -30.34442    31.100299    27.564898    40.203208 
49504000    276.77525    330.68644     275.2396   -33.228163    30.937021    55.446839    40.203415 
49508000    274.54109    309.39559    291.43529   -32.722741    31.304257      17.9603     40.20335 
49512000    275.42705    318.42601    283.14136   -32.244145    31.576707    35.284652    40.202497 
49516000    278.32776     331.0681    280.68443    -32.46698     31.07568    50.383667    40.202098 
49520000    284.25256    307.92659    302.25374   -31.199054    29.574878    5.6728485    40.202819 
49524000    277.66887     328.1615    267.13957   -33.535896    31.351953    61.021924    40.203338 
49528000    281.87497    305.52759    285.72563    -32.84607    30.807694    19.801959    40.201717 
49532000    269.89445    320.94596    255.42812   -34.134322    31.423109    65.517846    40.202081 
49536000    268.86145    321.90207    257.23783   -32.490069    32.346234    64.664236    40.202456 
49540000    287.80496    333.77971    309.85888   -32.601604    30.078103    23.920829    40.202919 
49544000    273.39275    307.94544    285.66428   -31.454321    30.786066    22.281153    40.202374 
49548000    279.25139    314.64461    271.98311   -34.309301    31.243602    42.661506    40.201821 
49552000    273.44887    315.98707    280.39746   -33.015722    31.914183    35.589615    40.200807 
49556000    276.84579    317.05358    279.02107   -31.916422    30.540425    38.032505     40.20065 
49560000    281.36668     347.1408    264.31856   -33.782664    32.356471    82.822242     40.20177 
49564000    276.31914    323.08963    283.82957   -33.760026    30.908351    39.260062    40.201766 
49568000    281.09046    331.50021     284.9786   -32.846949    31.246047    46.521604    40.202123 
49572000    283.63942    329.65171    302.25926   -32.867101      30.0003    27.392453    40.202359 
49576000    288.73635    332.12406    311.75888   -33.068286     30.49948    20.365178    40.202688 
49580000    277.52722    319.98748    279.92897   -32.944762    32.622039    40.058512    40.202136 
49584000     281.0649    330.80241     287.3763   -32.952144    31.142527     43.42611    40.201769 
49588000    268.60395    312.56933    257.18963   -32.222959    32.455109    55.379693    40.201066 
49592000    274.15797    315.53942    284.44532   -32.641659    31.151964    31.094099    40.201568 
49596000    275.38463    303.50031    275.84268   -32.011423    31.665019     27.65763    40.201146 
49600000    281.77584    318.94196    290.58443   -33.548695    28.527758    28.357524    40.201093 
49604000    275.37631    310.57247    279.61446   -33.553153    31.503919    30.958008    40.200573 
49608000    263.93387    302.32259    250.62745   -33.046175    32.711772    51.695146     40.20128 
49612000    276.81488    315.76234    268.50394   -33.059998    32.456515    47.258402    40.202909 
49616000    280.57344    328.91672    288.40734   -34.869141    31.086487    40.509379    40.203239 
49620000    273.59763    310.93375    285.63695   -34.556789    31.672117    25.296799    40.204267 
49624000    279.51542    314.68576    268.78708   -33.517766    32.616724    45.898682    40.204592 
49628000    268.45409    300.82849    269.59729   -32.940454     32.55438    31.231194    40.203273 
49632000    281.19174    317.42056    286.19417   -32.979939    32.189972     31.22639    40.203881 
49636000     277.0988    323.95005    274.28375   -34.776371     31.37403    49.666305    40.203922 
49640000    277.21419    311.11371    287.88291   -32.475194    31.929562      23.2308    40.203175 
49644000    272.40681    317.40429    293.60709   -33.553108    32.052029    23.797201    40.201792 
49648000    273.89526    316.96862    275.38968   -33.018582    32.492893    41.578945    40.202068 
49652000    267.95984    308.44828    287.70562   -33.455013    31.573021    20.742665    40.201762 
49656000    276.16214    318.37153    280.82128   -33.297715    31.261532    37.550252    40.200763 
49660000    271.01897    324.04691    269.82981   -33.663908    32.663438      54.2171    40.201215 
49664000    277.13847    339.44885    281.08301    -33.90741    33.140207    58.365837    40.200628 
49668000    267.16087    289.87068    282.78425   -32.228054    32.865418    7.0864304    40.201112 
49672000    277.87092    305.04331    297.54133    -33.17718    31.279924     7.501978    40.200001 
49676000    279.26883    309.52258    297.61146   -32.259714    31.277117    11.911112    40.200264 
49680000    273.57446    301.36767    268.56049   -33.160543    32.490373    32.807178    40.200372 
49684000     280.4968    316.35384    288.61719    -33.25706    32.332223     27.73665    40.200831 
49688000     268.8685    292.64702    298.90867   -33.265619    31.508092   -6.2616501    40.201251 
49692000     273.8555    310.67004     286.8757   -32.542016     32.47502    23.794345    40.202031 
49696000    277.18223     320.8561     286.7025    -33.90185     32.04958    34.153594     40.20277 
49700000    280.37955    315.71564    285.43473   -32.863936    32.206134     30.28091    40.201457 
49704000    286.34935    354.07323    285.77716   -34.932735     31.91734    68.296066    40.202121 
49708000    266.69109    296.43628    280.93008   -32.261563    31.883954    15.506199    40.203185 
49712000    276.55116    316.89064     274.9227   -33.703887    32.623557    41.967943    40.202986 
49716000    281.51086    319.29216    289.19451   -32.734318    32.062308    30.097648    40.202842 
49720000    272.22304    325.04458    288.49619   -33.201723    32.739408    36.548389    40.203508 
49724000    276.97088    334.04652    264.75985   -33.626741    33.187554     69.28667    40.203235 
49728000    279.10143    321.89884    287.16623   -32.917067    32.029474    34.732613    40.203171 
49732000    274.74339    328.62495    277.13324   -34.094585    31.503745    51.491708    40.202913 
49736000     265.6472    309.49663    261.13128   -32.165326     33.31477    48.365342    40.202901 
49740000    273.77148    303.56121    279.87861   -31.858791    32.098824    23.682601    40.202779 
49744000    268.17299    300.78253    273.62504   -32.709492    32.718758    27.157489    40.202896 
49748000    280.82076    323.19016    293.03364   -32.771561    31.786481     30.15652     40.20134 
49752000    274.10547    334.35196    272.95415   -34.657285     32.08015    61.397816    40.201959 
49756000    276.54625    325.22845    270.17243   -32.343074    32.965842    55.056022    40.202577 
49760000    275.65818    316.54739    297.21715    -33.40697    32.407524    19.330241    40.201875 
49764000       274.87    314.91932    279.03744   -32.672047    31.771633    35.881881    40.201634 
49768000    270.61634    317.06444    286.55095   -32.424724    32.992549    30.513493    40.201853 
49772000    274.59843    310.84524    280.00829    -33.08304    33.516176     30.83695    40.201696 
49776000    272.91011    317.31328    274.00739   -31.935571     33.50477    43.305885    40.202055 
49780000    278.82155    330.14109    285.10802   -33.059654    32.212076    45.033074    40.201271 
49784000    276.81622     350.8853     292.3949   -33.311519      33.1614    58.490393    40.201985 
49788000    283.45179    341.85279      304.083   -33.757661      32.0508    37.769785    40.201215 
49792000     286.6763    321.62687    293.77683   -32.396877    31.327101    27.850041    40.202118 
49796000    276.24955    310.45385    278.46196   -32.201725    32.582416    31.991891    40.202291 
49800000    275.43992    320.76965    279.25683   -32.206245    32.971451    41.512821    40.201794 
49804000    274.06347    313.36758    272.45542   -32.707422    33.550967    40.912158    40.200988 
49808000    274.08891    336.72299    289.73076   -33.127215    32.351782    46.992228    40.201974 
49812000    273.79724    326.12446    275.68157   -33.029344    33.277936    50.442892    40.201975 
49816000     264.9372    294.42355    270.34856   -30.144475    33.508633    24.074983     40.20217 
49820000    270.39499    305.31703    283.47648   -32.140575    32.198673    21.840543    40.201179 
49824000    280.41221    325.12074    282.93796   -33.105949    32.368761    42.182777    40.201782 
49828000    281.94964    331.50604    294.56721   -32.906483    32.130655    36.938829    40.201751 
49832000     264.7687    294.24996    266.70039   -31.526849    34.347131    27.549571    40.202605 
49836000    280.30924     317.5935    288.40607   -33.556351    33.433836     29.18743    40.203137 
49840000    276.28181    324.31368    293.42557   -33.885219    32.448251    30.888111    40.202502 
49844000    276.96991    323.13874    301.93882   -32.575404    31.199273    21.199919    40.201755 
49848000    277.73374    320.08125    287.88201   -33.367289    31.240695    32.199246    40.202337 
49852000    277.47632     327.3291    273.11334   -33.938139    33.508362     54.21576    40.202069 
49856000    284.69608    340.54744    283.26325    -33.17926    32.558154    57.284185    40.202298 
49860000    275.06178    325.09322    274.16308   -33.611392    32.738652    50.930136    40.200512 
49864000    280.19907    323.01011    284.36416   -34.075308    32.121858    38.645958    40.201328 
49868000    275.08328    324.93896    279.63883   -34.299379    32.803981    45.300128    40.200033 
49872000    273.37153    297.89769    304.73257   -32.250698    31.516482   -6.8348775    40.199223 
49876000    282.00322    330.55958    279.32071   -33.975452    32.742784    51.238872    40.199238 
49880000     282.6502    319.68398    297.25267   -32.866868    32.151481     22.43131    40.199256 
49884000    274.80123    312.49695    291.52004   -33.005202    32.928587    20.976906    40.199295 
49888000    268.26866     316.6109    275.86264   -33.688442    33.098425    40.748263    40.200613 
49892000    267.94975    325.15538    269.75464   -32.522381     34.84625    55.400739    40.201137 
49896000    272.68214    308.96202    272.70683   -33.434247    33.661925    36.255189    40.200597 
49900000    270.98392    335.34421    273.05751   -33.531037    33.448243    62.286703    40.200509 
49904000    279.62551    323.55494    295.09872   -32.914078    31.830834    28.456226    40.200757 
49908000    272.57876    315.88611    283.77954   -32.825745    32.913179     32.10657    40.199912 
49912000    273.60496    326.79025    281.60835   -34.184739    34.066188    45.181899    40.200481 
49916000    266.43339    319.49761    292.11239   -33.861203    33.329405    27.385213    40.201909 
49920000    269.81895    316.35054     307.4676    -33.89656    33.264554    8.8829441    40.201064 
49924000    266.04004    315.81982    276.06458   -33.567641    34.211412    39.755234    40.200971 
49928000    279.89853    342.58735    283.59413   -34.782993     34.01593    58.993222    40.200426 
49932000    276.37116    346.06132    274.17935   -34.314266    34.432698    71.881972    40.199862 
49936000    275.59428    324.12486    303.50285   -32.908504    33.015119       20.622    40.199834 
49940000    270.34261    327.00729    280.88168   -33.660275    34.188685     46.12561    40.201575 
49944000    270.57048    316.06285    287.57949   -33.394088    33.801999    28.483369    40.200239 
49948000    268.66439    326.45366    291.48165   -32.997909    33.720479    34.972008    40.199719 
49952000    269.56091    327.64617    261.64943   -31.265058    35.413191    65.996741     40.20116 
49956000    269.57861    312.97785      283.946   -31.557609    34.703976    29.031847    40.200589 
49960000     263.6164     303.4876    276.24833   -31.913108    36.018875    27.239269    40.200502 
49964000    271.94388    334.19177    273.32053   -32.341466    35.546553    60.871239     40.20132 
49968000    256.33528    282.38259    267.04833   -30.334558    36.423714    15.334262    40.201208 
49972000      260.791    300.66775    273.15903   -30.669884    35.200611    27.508714     40.19985 
49976000    274.17722    315.76251    307.27369   -31.364911    33.732561    8.4888201    40.200819 
49980000    270.36314    312.64106    289.61224    -31.35787    33.785082    23.028825     40.20064 
49984000    270.10482    317.63324    274.93648   -31.822463    36.218697    42.696768    40.200454 
49988000    269.27044     316.1798    279.93101   -30.735748    35.327203    36.248791    40.200493 
49992000    265.49441    323.53504    274.65428   -31.961653    34.022682    48.880758    40.199327 
49996000    260.78529     287.5096    277.60004   -29.403711      33.4047    9.9095606    40.200028 
50000000    282.20087    326.14615    310.45294    -31.24416    32.717532    15.693204    40.199859 
50004000    268.89277    325.06123    281.62037   -31.340794    32.508481    43.440864    40.199904 
50008000    266.87039    289.07465    284.91167   -30.356631    32.439013    4.1629791    40.200077 
50012000    275.28714    321.71339    280.98281   -31.929078    33.050475    40.730588    40.200739 
50016000     276.9589     334.1748    283.03947   -33.368811    32.794572     51.13533    40.201309 
50020000    276.08258    306.56475    291.29215   -29.950046     31.49349    15.272606    40.201908 
50024000    271.94811    327.04852    291.90008   -31.424581    33.231049    35.148444    40.201496 
50028000    271.13465    324.03184    286.13211   -32.516174    33.028302    37.899736    40.201526 
50032000    266.26646     319.5738    272.90078   -31.409841     34.29266    46.673019    40.199642 
50036000    268.74924    308.38045    280.07788   -31.456913    33.577967    28.302568     40.19936 
50040000    268.04481    331.46637    275.42825   -32.210207    34.405255     56.03812    40.198743 
50044000     265.4916    300.84956    276.56727   -31.532796    34.252627    24.282287    40.198561 
50048000    270.75472    333.32795     271.4336   -33.441495    34.275386    61.894355    40.196521 
50052000    280.41085    337.36397    300.26954   -33.298189    32.580192    37.094426    40.196561 
50056000     266.2275    306.39057    288.76923   -32.154172    33.457738    17.621334    40.195969 
50060000    257.92293    279.52948    274.41683   -30.931986    34.365557    5.1126452    40.195928 
50064000    269.71845    332.60351    283.52907   -33.922235    34.145647    49.074447    40.196777 
50068000     269.6151     315.8284     273.0756   -33.562183    34.070962    42.752796    40.196562 
50072000    265.75287    337.38103    259.15108   -33.609245    34.463173    78.229953    40.196537 
50076000    281.08928    334.53371    299.68709   -32.876293    32.984291    34.846616    40.195679 
50080000    272.92107     317.6246    279.82868    -31.99741     33.50462    37.795925    40.196735 
50084000    274.97372    326.15524    278.31835    -33.12921    33.829135    47.836883    40.196639 
50088000    267.25969      313.095    266.08199   -31.627788    34.225814    47.013017    40.195656 
50092000    273.34607    325.85625    270.86459   -33.070573     36.03304    54.991662    40.195751 
50096000    270.65026    314.22457    287.79927   -32.410831    33.594165    26.425297    40.195299 
50100000    276.74277    334.89375    280.94582   -34.022746    34.173893    53.947933    40.195799 
50104000     261.4322    305.67678    258.78084    -33.16578    34.717263    46.895941    40.195785 
50108000    271.19993    329.88711    280.71794   -33.075386    34.303015    49.169172    40.196642 
50112000     286.7112    344.39341    296.42034   -33.546024    32.952197     47.97307    40.196447 
50116000    275.63232     323.4743    290.57091   -32.638297    33.702389    32.903386    40.196479 
50120000    273.61477    334.19356    297.75298   -32.733993    32.551869    36.440585    40.195986 
50124000     274.3376    323.37775    278.40114   -32.415152    34.423491    44.976608    40.194818 
50128000    274.88467    345.08231     278.5619   -34.029427    33.849121    66.520411    40.194089 
50132000    269.67652    306.68242    286.95156   -31.484114    33.756008    19.730859    40.193361 
50136000     270.1266    320.34097    274.05233   -32.733401    33.493993    46.288634    40.192823 
50140000    268.45393    317.15115     259.7245    -32.42182    35.011549    57.426644    40.192939 
50144000    276.24749    315.83931    284.80389   -32.956097    33.341056    31.035423    40.194069 
50148000    272.95288    307.70697    285.04273   -32.554856    33.604961    22.664241    40.194936 
50152000    282.05368    325.24948    301.09294   -32.863004    32.706765    24.156536    40.194667 
50156000    275.38836    327.79625    295.37766   -32.438406    33.246717    32.418595    40.194074 
50160000    276.43353    290.84529    296.41349   -30.458999    33.552522   -5.5681904    40.194083 
50164000    283.22313    343.41384    284.68592   -34.543824    33.621723    58.727915    40.195616 
50168000    269.63837    299.64532     285.0704   -31.945496    33.718595    14.574925    40.197196 
50172000    273.55768    322.01557     293.4733    -32.70839    33.198673    28.542274    40.195444 
50176000    266.70482    297.80488    273.59748   -32.860128    34.228788    24.207397    40.195095 
50180000    274.17309    316.18433    283.20808   -33.122922     34.29072    32.976253    40.194497 
50184000    276.91988    343.45951    291.81074   -33.286031    34.210298    51.648773    40.194947 
50188000    264.75288    310.47519    262.79256   -31.987453    35.375106    47.682626    40.195334 
50192000    260.67716    298.06549    281.09192   -32.176702    34.931165    16.973577    40.195327 
50196000    271.00498    320.23535    277.21727   -32.835682    33.809316    43.018088    40.195814 
50200000     279.5672    329.85951    293.16195   -33.159167    34.755097    36.697556    40.196613 
50204000    267.55344    316.16674    278.44958   -32.721103    34.478068    37.717158    40.197908 
50208000    277.94265    340.18126    280.93726   -33.042141    34.339375    59.244003    40.198422 
50212000    276.85119    337.55865    278.16084   -34.992557     33.99101    59.397807    40.198609 
50216000    267.87858     325.2716    273.73842   -33.775538    34.883142    51.533185    40.198434 
50220000    281.98446    338.90529    304.96536   -34.071346    34.976924    33.939931    40.198606 
50224000    261.27912    312.49763    275.80789   -33.076862     35.71178    36.689744    40.198989 
50228000    264.74443    307.47347    263.71376   -33.865449    34.964391    43.759713    40.200033 
50232000    271.96647    317.20609     293.9733   -33.996049    33.861346    23.232791    40.200301 
50236000    270.21071    321.67011    275.69155   -34.014732    35.746766    45.978567    40.200872 
50240000    264.57233    297.47002    275.99178   -33.608967    34.757557    21.478244    40.201516 
50244000    262.33942    293.52072    270.21662   -33.259125    35.657105    23.304098    40.199992 
50248000    266.89548    325.29349    275.78596   -34.603651    35.654976    49.507527    40.199557 
50252000    279.37261    312.90738    313.82386   -34.425063    33.810074  -0.91647649    40.198105 
50256000    268.98219     331.3183    254.52831   -34.417064    36.648655    76.789982    40.198883 
50260000     268.2964    329.72413    273.88135     -35.0172    35.309472     55.84278    40.199215 
50264000    274.71648    331.41918    284.71231   -36.019395    35.642172    46.706872    40.200671 
50268000    270.04866    323.91438    276.32785   -34.045779    35.432076    47.586529    40.200383 
50272000    261.73913    300.04314    277.79857   -33.103428    35.733441    22.244568    40.200264 
50276000    265.56761    302.69805     277.4433   -32.939347    36.395023    25.254745    40.199425 
50280000    267.66151    330.34269     265.7064   -34.960062     36.29832    64.636285    40.200514 
50284000    275.98279    326.09921    285.02203   -33.787796    34.041694    41.077172    40.200686 
50288000    271.99733    315.43192    284.43468   -33.068967    35.018931    30.997238    40.200457 
50292000    273.94147    300.05485    299.44286   -32.830698    34.214637   0.61198745    40.200883 
50296000    271.01124     324.6306    289.97757   -34.599157    33.913411    34.653026    40.201159 
50300000    269.77275    319.69399     278.5095   -33.161059      34.8993     41.18449    40.200902 
50304000     267.9698    321.72582    257.21223   -33.498194    35.552007    64.513586    40.200979 
50308000    279.76323    316.57787    301.50573   -33.505754    33.354222    15.072143    40.200119 
50312000     271.4508    304.83031    280.47731   -32.391578    35.275777    24.352999    40.199904 
50316000     274.9594    322.83896    294.93752   -34.200691    33.661448     27.90144     40.19994 
50320000    282.69288    347.86004     291.2852   -36.528179    35.059841    56.574845    40.200111 
50324000    271.41957    309.07088    292.72438   -34.390244    34.628166    16.346493    40.199865 
50328000    273.70874    326.69215     283.5498   -34.475855    33.382009    43.142345    40.199038 
50332000    269.47615    321.26528    248.57983   -34.708552     36.12206    72.685453    40.200074 
50336000    266.56867    319.22512    267.47113   -34.004599    35.538663    51.753991    40.199439 
50340000    271.12884    321.53267    269.10677   -35.201724    34.836213    52.425899     40.20016 
50344000     272.7475    304.42244     277.1708   -33.477062    35.346667    27.251641    40.200274 
50348000    279.94566    336.02336    282.13981   -35.713752    35.248633    53.883555    40.200377 
50352000     271.5805    321.78097    274.83945   -35.222267    34.492789    46.941522    40.200225 
50356000    271.32286    323.87158    274.90519   -35.487983    35.438223    48.966385    40.200952 
50360000       281.48    346.34066    270.16055   -36.691115    34.749587     76.18011    40.200702 
50364000     267.1094    327.96887    272.28417   -35.367408    35.356406    55.684691    40.200688 
50368000    265.78212    309.04476    268.78299   -34.611095     36.32321    40.261766    40.200944 
50372000    271.99531    325.10528    280.20986   -34.701009    34.848033    44.895413    40.201178 
50376000     266.1364    311.96304     262.5679   -34.597167     36.05428     49.39515     40.20113 
50380000     271.5518     300.1106    281.21982   -33.687927    35.235713     18.89078    40.200379 
50384000    270.57621    325.25156    273.98598   -35.408719    36.484424    51.265582    40.200154 
50388000    269.66146    317.48476    266.76174   -35.498006    36.856944    50.723019    40.201248 
50392000    265.60304    320.39018    283.92479   -33.412846    35.642325    36.465386    40.200387 
50396000     273.8003    316.79208    285.19078   -33.603711    34.735683    31.601299    40.201362 
50400000    276.66149    329.87639    284.06186   -35.763188    35.781695    45.814527    40.200278 
50401000    275.07113    306.43786    300.11432   -33.898794      34.9119    6.3235393    40.200278 
Loop time of 21709.9 on 4 procs for 16000000 steps with 1498 atoms

Performance: 15.919 ns/day, 1.508 hours/ns, 736.992 timesteps/s
99.6% CPU use with 4 MPI tasks x no OpenMP threads

MPI task timing breakdown:
Section |  min time  |  avg time  |  max time  |%varavg| %total
---------------------------------------------------------------
Pair    | 10843      | 14984      | 19249      |3319.1 | 69.02
Bond    | 67.851     | 105.01     | 140.4      | 345.2 |  0.48
Neigh   | 120.91     | 120.95     | 120.99     |   0.3 |  0.56
Comm    | 275.42     | 4260.1     | 8358.1     |6093.9 | 19.62
Output  | 7.8267     | 7.8399     | 7.8786     |   0.8 |  0.04
Modify  | 1159.4     | 1721.8     | 2313.8     |1014.6 |  7.93
Other   |            | 510.7      |            |       |  2.35

Nlocal:    374.5 ave 714 max 35 min
Histogram: 2 0 0 0 0 0 0 0 0 2
Nghost:    2374.75 ave 4258 max 496 min
Histogram: 2 0 0 0 0 0 0 0 0 2
Neighs:    13053.2 ave 25816 max 314 min
Histogram: 2 0 0 0 0 0 0 0 0 2

Total # of neighbors = 52213
Ave neighs/atom = 34.8551
Ave special neighs/atom = 0.518024
Neighbor list builds = 28838
Dangerous builds = 0

write_restart FINALCONFIG
WARNING: Using a manybody potential with bonds/angles/dihedrals and special_bond exclusions (../pair.cpp:218)
Neighbor list info ...
  update every 1 steps, delay 0 steps, check yes
  max neighbors/atom: 2000, page size: 100000
  master list distance cutoff = 16
  ghost atom cutoff = 16
  binsize = 8, bins = 3 3 23
  4 neighbor lists, perpetual/occasional/extra = 4 0 0
  (1) pair lj/cut, perpetual, skip from (4)
      attributes: half, newton on
      pair build: skip
      stencil: none
      bin: none
  (2) pair morse, perpetual, skip from (4)
      attributes: half, newton on
      pair build: skip
      stencil: none
      bin: none
  (3) pair eam, perpetual, skip from (4)
      attributes: half, newton on
      pair build: skip
      stencil: none
      bin: none
  (4) neighbor class addition, perpetual
      attributes: half, newton on
      pair build: half/bin/newton
      stencil: half/bin/3d/newton
      bin: standard

#and everyone lived happily ever after, THE END
Total wall time: 6:19:22
