LAMMPS (16 Mar 2018)
#lammps script for united atom polymer simulation (full-scale run)

# 1. INITIALIZATION
#allows pair, bond, bending and dihedral interactions
atom_style molecular

  # periodic (video game) boundaries in all cartesian directions
boundary p p s

  # uses real units (instead of units based on pair potential parameters).  List of units used in manual
units metal

###########
# 2. ATOM DEFINITION
##########

   ##
   # Read in data from starting configuration file
   ##

#read_data lammps-AT-config

 #use to restart
read_restart RESTART
  orthogonal box = (0 0 -29.1215) to (20 20 152.98)
  1 by 1 by 4 MPI processor grid
  1498 atoms
  197 bonds
  96 angles
  95 dihedrals
  2 = max # of 1-2 neighbors
  2 = max # of 1-3 neighbors
  4 = max # of 1-4 neighbors
  6 = max # of special neighbors

   ##
   # Specify the nature of the bond interactions
   ##

bond_style harmonic
bond_coeff 1 19.51 1.54
bond_coeff 2 22.45 1.82
bond_coeff 3 10000.0 2.0
special_bonds lj 0.0 0.0 0.0 angle no dihedral no

angle_style harmonic
angle_coeff 1 2.683 114.00
angle_coeff 2 2.683 114.40

dihedral_style opls
dihedral_coeff * 0.06071 -0.011743 0.1363628 0.0

mass  1   14.00
mass  2   32.06
mass  3  196.97
mass  4  196.97


pair_style hybrid lj/cut 14.0 morse 14.0 eam
pair_coeff 1 1 lj/cut 0.00395 3.95 14.0
pair_coeff 2 2 lj/cut 0.01594 3.62 14.0
pair_coeff 3 3 eam Au_u3.eam
Reading potential file Au_u3.eam with DATE: 2007-06-11
pair_coeff 4 4 eam Au_u3.eam
pair_coeff 1 2 lj/cut 0.0000 3.785 14.0
pair_coeff 1 3 lj/cut 0.00258 3.44 14.0
pair_coeff 1 4 lj/cut 0.00 3.44 14.0
pair_coeff 2 3 morse 0.879 1.47 2.7 14.0
pair_coeff 2 4 morse 0.000 1.47 2.7 14.0
pair_coeff 3 4 lj/cut 0.00 2.934 14.0


group freeze type 4
100 atoms in group freeze
fix startend freeze setforce 0.0 0.0 0.0



################
# 3.  Simulation Settings
###############

neighbor        2.0 bin
neigh_modify    every 1 delay 0 check yes



# Define some variables
variable Lx          equal xhi-xlo   # Ang
variable Ly          equal yhi-ylo   # Ang
variable Lz          equal zhi-zlo   # Ang

variable dz          equal ${Lz}/30  # Ang
variable dz          equal 182.10102/30  

variable zzlo        equal zlo  # Ang
variable zzhi        equal zhi  # Ang
variable vol         equal ${Lx}*${Ly}*${Lz}  # Ang^3
variable vol         equal 20*${Ly}*${Lz}  
variable vol         equal 20*20*${Lz}  
variable vol         equal 20*20*182.10102  
variable TEMP        equal 300.00 # K
variable TThi        equal 320.00 # K
variable TTlo        equal 280.00 # K
variable dt          equal 0.00025 # ps

timestep     ${dt}
timestep     0.00025

variable zlo1      equal -26.0
variable zlo2      equal -11.0
variable zhi1      equal 135.0
variable zhi2      equal 150.0

# heat layers

region          hot  block  INF INF INF INF ${zlo1} ${zlo2}
region          hot  block  INF INF INF INF -26 ${zlo2}
region          hot  block  INF INF INF INF -26 -11
region          cold block INF INF INF INF ${zhi1} ${zhi2}
region          cold block INF INF INF INF 135 ${zhi2}
region          cold block INF INF INF INF 135 150
compute         Thot all temp/region hot
compute         Tcold all temp/region cold


# Second Equilibration
fix             1 all nve
fix             hot all langevin ${TThi} ${TThi}  0.005 59804  tally yes
fix             hot all langevin 320 ${TThi}  0.005 59804  tally yes
fix             hot all langevin 320 320  0.005 59804  tally yes
fix             cold all langevin ${TTlo} ${TTlo} 0.005 287859 tally yes
fix             cold all langevin 280 ${TTlo} 0.005 287859 tally yes
fix             cold all langevin 280 280 0.005 287859 tally yes
fix_modify      hot temp Thot
fix_modify      cold temp Tcold

variable        tdiff equal c_Thot-c_Tcold
thermo_style    custom step c_Thot c_Tcold f_hot f_cold v_tdiff
thermo            4000
run             800000
WARNING: Using a manybody potential with bonds/angles/dihedrals and special_bond exclusions (../pair.cpp:218)
Unused restart file peratom fix info:
  fix style: STORE, fix ID: layers_COMPUTE_STORE
Neighbor list info ...
  update every 1 steps, delay 0 steps, check yes
  max neighbors/atom: 2000, page size: 100000
  master list distance cutoff = 16
  ghost atom cutoff = 16
  binsize = 8, bins = 3 3 23
  4 neighbor lists, perpetual/occasional/extra = 4 0 0
  (1) pair lj/cut, perpetual, skip from (4)
      attributes: half, newton on
      pair build: skip
      stencil: none
      bin: none
  (2) pair morse, perpetual, skip from (4)
      attributes: half, newton on
      pair build: skip
      stencil: none
      bin: none
  (3) pair eam, perpetual, skip from (4)
      attributes: half, newton on
      pair build: skip
      stencil: none
      bin: none
  (4) neighbor class addition, perpetual
      attributes: half, newton on
      pair build: half/bin/newton
      stencil: half/bin/3d/newton
      bin: standard
Per MPI rank memory allocation (min/avg/max) = 10.93 | 11.63 | 12.32 Mbytes
Step c_Thot c_Tcold f_hot f_cold v_tdiff 
16801000    342.00301    285.71769           -0           -0    56.285315 
16804000    339.05225    263.79915   0.33376572    2.4708207      75.2531 
16808000    333.02777    260.71888    2.5237616    1.9482267    72.308888 
16812000    317.85343    287.46446    3.1084963   0.50207289    30.388964 
16816000    319.35497     287.9564    3.1617004   0.64519444    31.398576 
16820000    300.76636     293.0318    3.9028093   0.85442185    7.7345628 
16824000     328.6099    264.44442    2.6903457    1.9058097    64.165476 
16828000    332.29974    293.46599    2.5208679  -0.34076719    38.833757 
16832000    335.12076    292.40239   0.78616964   0.58348578    42.718362 
16836000     340.6009    265.91337    2.0509948    1.9929382    74.687532 
16840000    328.40739    274.41152    1.3880692     2.738138    53.995876 
16844000    323.42806    278.38021     1.500703    1.9649269    45.047853 
16848000    338.97583    272.50525    1.4216002    2.1484849    66.470576 
16852000    327.62836    273.80138   0.85888885    2.4592423    53.826984 
16856000    307.81914    263.92652    1.8202803    3.0519365    43.892627 
16860000    318.26651    285.88487    2.5001734    1.9115061    32.381639 
16864000     322.6542    289.41481    2.0773784    1.5511188    33.239391 
16868000    313.27643    260.96455    2.4487543    2.8043791    52.311876 
16872000    326.63368     278.6029    1.6820795    2.6197297     48.03078 
16876000    326.46474    275.09406    2.4599154    2.7266594    51.370681 
16880000    302.89747    287.23341    3.0273059    1.4916074    15.664066 
16884000    319.81381    286.93572    2.0686051    2.2282476    32.878085 
16888000    344.56874    267.87752    1.6443046    3.1080507    76.691218 
16892000    317.13437    284.28298    2.8666836    2.2951905    32.851386 
16896000    319.03117    271.07062    1.2148019    1.9808585    47.960552 
16900000      330.609    274.31829    1.8921345    1.3948733    56.290704 
16904000    308.05406    275.74734    3.1633908    1.4673194    32.306723 
16908000     337.9512    278.95688    2.8825496    2.1840537     58.99432 
16912000    328.04571    269.94641    1.4043008    2.3325409    58.099299 
16916000     325.9417    288.85593    1.3097472     1.182638    37.085771 
16920000    303.41996    281.30725    3.6955237    2.0907635    22.112705 
16924000    288.40242    281.29149    3.6773716    2.4559546    7.1109321 
16928000    289.69557    286.02976    3.4129387    2.6117493    3.6658143 
16932000    332.46482    263.77384    1.1779582    4.0148242    68.690972 
16936000    297.26704    306.11843    3.4516803    1.7346417   -8.8513847 
16940000    322.47066    285.66158    2.5319088    2.1523108     36.80908 
16944000    337.77325    271.70051    1.9123366    2.9671131    66.072737 
16948000    341.25398    289.16121   0.91575761    2.8672079    52.092777 
16952000    317.59617    257.37169    2.3632502    3.6537979    60.224483 
16956000    314.29549    300.74113    2.1485803    1.4532363    13.554364 
16960000     324.6936    283.39429    2.9242173     1.950165    41.299314 
16964000    318.13191    289.18631    3.4338576     2.311208    28.945596 
16968000    327.38069    301.60359    2.8744461    1.2572303    25.777098 
16972000    336.02439    287.31967    2.8543905    2.4455285    48.704721 
16976000     304.8336    269.97548    4.4675444    3.7245806    34.858114 
16980000    321.52487    269.36279    4.3502279    3.4430583    52.162081 
16984000    318.80622    295.35087    3.6161295    1.4131767    23.455354 
16988000    332.96466    269.15385     2.904093    3.7426932    63.810814 
16992000    338.04215    266.29917    3.2639265    4.6962903    71.742975 
16996000    338.59798     273.6514    2.4252161    3.8458209    64.946584 
17000000    327.37463     269.3036    3.6744491    4.0214273     58.07103 
17004000    296.76908    291.73344    4.7686889     2.965863    5.0356404 
17008000    330.64176    274.65422    1.9428607    3.5611806    55.987545 
17012000    318.34897    270.29903    4.3232219     3.565979    48.049944 
17016000    315.24966    269.89391    3.8078044    2.4596209    45.355759 
17020000    303.88149    275.63832    5.8974277    2.1399984    28.243175 
17024000    326.93693    267.38991    3.7072304    3.6945644     59.54702 
17028000    327.58502    285.43398    3.3863791    2.9426801    42.151032 
17032000     350.0021    263.93346    3.6264552    3.8471727    86.068648 
17036000    321.24022    256.25526    3.8189914    4.3073292    64.984957 
17040000    320.92204    282.12448    5.7248377    3.0451636     38.79756 
17044000    314.12485    281.00278    4.5724221    3.1086827     33.12207 
17048000    315.12135    283.66016    4.7471482    3.8873982    31.461183 
17052000    312.35676    265.26696    4.4339458    3.7551563    47.089802 
17056000    349.92828    290.04474    2.8934566    2.0068384    59.883546 
17060000    325.39401    270.77337    2.6463705     3.858375    54.620644 
17064000    339.97504    294.32303    2.7160931    1.9763955    45.652001 
17068000    322.61212       299.96    2.6999605    1.0763975    22.652119 
17072000    325.11081    284.50017    2.3653489    1.1783791    40.610638 
17076000    287.67541    288.74285    4.3518376     2.426423   -1.0674456 
17080000    329.22362    278.77904    1.5621379     2.879286    50.444584 
17084000    312.51206    275.21093    3.0458129    3.0151063    37.301131 
17088000    319.78172    280.06113    2.4152471    2.8402364     39.72059 
17092000    338.97986    279.55649    1.7827952    2.7844364    59.423366 
17096000    311.46645    258.72081    4.1231422    3.6828904    52.745634 
17100000    313.11984    276.65998    3.8025186    2.5649989    36.459861 
17104000    290.74963    263.18326    4.4861494    4.3696976    27.566369 
17108000    335.01901    264.31169   0.97373739    3.6954149    70.707328 
17112000    326.10031    298.12538    2.3614122    1.8290923    27.974933 
17116000    312.90725    260.53023    4.3419471    5.3156807    52.377018 
17120000    317.71707    263.98064    3.2158196    4.3899714    53.736433 
17124000    326.93802     279.5169    4.1251026    2.3877339    47.421114 
17128000    332.34043    257.06091    3.4194175    3.9169246    75.279512 
17132000    300.64875    277.29119    3.4220417    1.8683606    23.357558 
17136000    329.66369    274.09689     2.326979    2.2323702    55.566792 
17140000    307.73813    285.58344    3.0923555    1.9182426     22.15469 
17144000    320.87493    276.20089    3.3255688    3.1213382    44.674041 
17148000    333.47774    279.13814    3.1480951    3.7464616    54.339601 
17152000     329.6457    296.20141    3.6228262    3.0377148     33.44429 
17156000    334.45875    262.61358    3.0763845    3.4776914     71.84517 
17160000     326.4716    279.19655    2.7558596    3.4776252    47.275053 
17164000    333.36098    281.81323    2.6917206    3.6380054    51.547756 
17168000    300.58362     277.5539    3.5264558    2.9954781    23.029724 
17172000    333.99641    280.51691    2.1098517    2.7669465      53.4795 
17176000    301.08589    284.26736    4.5661006    3.0035808    16.818534 
17180000    301.04909    281.22213    3.2347575      2.66069    19.826955 
17184000    302.01194    276.00488    3.2920989    3.1915626    26.007059 
17188000    332.92309     265.1103    1.7533311    3.9912596    67.812796 
17192000    309.97023     278.2738    2.2016899    3.6776795    31.696431 
17196000    325.70213    280.78649    1.0985114    3.4116159     44.91564 
17200000    323.04199    275.40449    1.5784905    3.5544559    47.637493 
17204000    314.58054    274.25844   0.48550434    3.7404031    40.322102 
17208000    326.60306    269.62234    1.0762992    4.3764707    56.980721 
17212000    324.02887    274.93529   0.89774949    3.9488243    49.093585 
17216000    337.43242    266.70885    1.9298865    3.6457393    70.723568 
17220000    336.23324    305.74868    2.4335188    2.1228508    30.484566 
17224000    324.18714    312.43002    3.1221327   0.54340998     11.75712 
17228000    313.06345    291.87223    3.0742892    1.9864591    21.191222 
17232000    280.28614    286.05826    4.5787181    3.0218534   -5.7721149 
17236000    320.95263    297.95546    2.6849427    1.4457427    22.997179 
17240000    308.82553    276.19466    3.5334389    2.7480451    32.630863 
17244000    323.42209     289.3037    1.0694438    1.6296993    34.118394 
17248000    326.57926    269.14351    1.8509876    3.4048952    57.435755 
17252000    313.11241    275.64643    3.0937147    3.6680839    37.465986 
17256000    325.70625    288.02021    2.2382567    2.9322508    37.686044 
17260000     327.6875    279.42541    3.2002184    2.8548042    48.262091 
17264000    335.62742    272.57228    1.5054488    4.2432821    63.055134 
17268000     301.4324    273.15626    3.8384075    3.1860686     28.27614 
17272000    314.10593    299.62302    2.6191495    2.0621811    14.482912 
17276000    313.94291    279.62397    2.9826545    2.7328455    34.318935 
17280000    336.98301    266.88902    1.9051758    4.8627167    70.093996 
17284000    320.62034    290.34112    2.2365907    2.8034646    30.279223 
17288000    328.14684    279.27879    2.3749441    2.7329673    48.868055 
17292000    322.19599    253.18764     2.845675    3.6801594    69.008353 
17296000    315.19587    274.83147     3.453543      3.03965    40.364397 
17300000    341.81951    284.81354    2.7269902    2.2452294    57.005969 
17304000    302.59525    268.70703     4.411389    2.2953716    33.888228 
17308000    308.14414    302.20325    2.9845093    1.0188678    5.9408877 
17312000    312.56452    289.76216    3.4636505    2.8807627    22.802367 
17316000    322.31497    272.81678    3.7277474    3.5192119    49.498188 
17320000    344.71191    276.80358    3.9791343    3.7837336     67.90833 
17324000    297.39826    305.20545    4.7779641    2.3438707    -7.807184 
17328000    321.81829     290.4702    2.8599846    2.9162321    31.348085 
17332000    322.55846    278.54086    3.2522153    3.2009455      44.0176 
17336000    316.78866     288.0248    2.1849186    2.1515348    28.763856 
17340000    326.93504    298.81068    3.6562958    1.3087662    28.124357 
17344000    329.26033    276.56271    3.5657569    2.7507101    52.697624 
17348000    293.93905    268.15579    5.0414515     3.639042    25.783261 
17352000    315.43604    295.67105    4.3473817    2.1763008    19.764992 
17356000    318.45953     265.9676    3.3499154    4.0491185    52.491931 
17360000    313.84277    285.59553    3.8263804    3.4366275    28.247241 
17364000     310.3343    272.47853    4.3350983    2.6818388    37.855769 
17368000    300.31011     293.2132    4.8531015    1.9298284    7.0969116 
17372000    333.20634    283.72364     1.586796    1.7064374    49.482693 
17376000    326.75822     259.7838    1.7431974    2.7880199    66.974417 
17380000    323.20053    294.66684    2.7252514   0.91441497    28.533693 
17384000    315.07151       282.79     1.696823    2.2128392    32.281511 
17388000    327.47087    280.71604    1.6429631     2.328068    46.754834 
17392000    304.31096     291.5872    3.7376026    2.1588314    12.723766 
17396000    332.90935    297.42109    1.4681305    1.1086061     35.48826 
17400000     317.9042    270.94525    1.9799145    2.4469887    46.958947 
17404000    318.78668    264.31174    1.1402545    4.0051394    54.474942 
17408000    319.00002    286.11493   0.95376092    2.1450075    32.885094 
17412000    294.60796    306.24859    2.7096246     2.211036   -11.640637 
17416000    301.84373    289.00198    2.2299833    2.2098056    12.841742 
17420000    297.02656    292.45509    1.8525141     2.574073    4.5714671 
17424000    313.40727    297.14041   0.99081737     1.642877    16.266853 
17428000    299.09808    274.53393    2.6663875    3.3740965    24.564151 
17432000    304.65624    273.08593    1.4040082    2.9380053    31.570311 
17436000     348.4936    270.63842   0.19238094    3.3989224    77.855178 
17440000    292.92569    259.35836    1.5494277    3.8587846     33.56733 
17444000    345.32714    292.41272   -1.2905429    3.4532289    52.914421 
17448000    357.25853    277.59675   -2.2542449    2.8389326    79.661781 
17452000    321.68529    297.38763 -0.015606025    2.9710117    24.297657 
17456000    336.76479    291.17959  -0.38057951    3.0766835    45.585196 
17460000    361.90756    264.38975   -1.9384397    4.2858182    97.517818 
17464000    320.65061    274.46156 -0.014629842    4.4324453    46.189051 
17468000    318.84086    264.06844   0.87211372    4.2340952    54.772416 
17472000    312.24351    251.24268   0.53135891    5.3525969    61.000833 
17476000    308.10196    271.56103    1.0362146     3.136381    36.540931 
17480000    302.34529    280.25707    1.0212554    3.1583421    22.088228 
17484000    303.33316    272.79852    1.4499463    3.5459428    30.534638 
17488000    349.18668    263.38434  -0.68243262    4.1197967    85.802342 
17492000    312.69425    296.09909    1.3043019    2.3785266    16.595158 
17496000    321.32181    281.76744  -0.54469848    3.6664291     39.55437 
17500000    359.31545    276.50789   -1.6812268     3.359746    82.807567 
17504000    327.00542     278.6355   0.11448702    3.2498018    48.369921 
17508000    308.57245    285.80898   0.83642103    3.0175421    22.763464 
17512000    340.35628    257.20643  -0.20386369    5.5715906    83.149858 
17516000    316.11456     271.5848  -0.37275117    3.9372736    44.529753 
17520000    329.17877    260.32431   -1.0339867    4.6368704    68.854464 
17524000    318.83749     287.5402   0.64450993    3.8445428    31.297294 
17528000    327.18994    279.55155   0.33040302    3.6230046    47.638395 
17532000    313.26612    284.60561    1.1486039    4.2947534     28.66051 
17536000    310.49657    286.34384   0.79032718    4.8478926    24.152725 
17540000    330.63729    259.19125   0.78025819     6.497787    71.446046 
17544000    308.85883     276.0472    2.2721493    5.4020933    32.811636 
17548000    319.67018    279.49427   -1.3669599    5.5078132     40.17591 
17552000    317.88253    286.25599   0.95761208    4.6415642    31.626537 
17556000    317.76648    262.97376  -0.47550786    7.1381349    54.792729 
17560000     332.6529    267.54053      -1.2894    5.2297792    65.112361 
17564000    311.83242    264.90891    1.1325804     6.096144    46.923508 
17568000    315.71091    275.15459    1.7876993    5.2903848    40.556323 
17572000    328.35138    271.92293    1.0296059    6.2591373    56.428448 
17576000    338.89397    303.53283    1.0643236    2.9647339    35.361141 
17580000    317.14612    270.43913    1.0646324    4.8789099    46.706988 
17584000     330.2876    263.78638   0.43929968    4.4444111    66.501219 
17588000    338.74556     274.0767    1.3986618    5.1328206    64.668856 
17592000     295.9873    262.52995    2.1314293    4.9271819    33.457352 
17596000    311.37799    279.73817    1.0103927    4.9693955    31.639824 
17600000    322.62961    273.95049   0.31153826    4.6569891    48.679121 
17601000    313.08214    287.61172    1.9797485    4.4026375    25.470412 
Loop time of 1061.68 on 4 procs for 800000 steps with 1498 atoms

Performance: 16.276 ns/day, 1.475 hours/ns, 753.521 timesteps/s
99.6% CPU use with 4 MPI tasks x no OpenMP threads

MPI task timing breakdown:
Section |  min time  |  avg time  |  max time  |%varavg| %total
---------------------------------------------------------------
Pair    | 530.93     | 734.2      | 942.45     | 736.7 | 69.15
Bond    | 3.2864     | 5.1395     | 6.8924     |  76.2 |  0.48
Neigh   | 5.8977     | 5.8993     | 5.9006     |   0.0 |  0.56
Comm    | 13.424     | 209.26     | 409.62     |1351.7 | 19.71
Output  | 0.004484   | 0.015836   | 0.029392   |   7.1 |  0.00
Modify  | 55.984     | 82.247     | 110.05     | 220.7 |  7.75
Other   |            | 24.92      |            |       |  2.35

Nlocal:    374.5 ave 714 max 35 min
Histogram: 2 0 0 0 0 0 0 0 0 2
Nghost:    2373.5 ave 4254 max 496 min
Histogram: 2 0 0 0 0 0 0 0 0 2
Neighs:    13093.8 ave 25914 max 310 min
Histogram: 2 0 0 0 0 0 0 0 0 2

Total # of neighbors = 52375
Ave neighs/atom = 34.9633
Ave special neighs/atom = 0.518024
Neighbor list builds = 1431
Dangerous builds = 0
unfix 1


# PRODUCTION

fix             1 all nve
fix             hot all langevin ${TThi} ${TThi}  0.005 59804  tally yes
fix             hot all langevin 320 ${TThi}  0.005 59804  tally yes
fix             hot all langevin 320 320  0.005 59804  tally yes
fix             cold all langevin ${TTlo} ${TTlo} 0.005 287859 tally yes
fix             cold all langevin 280 ${TTlo} 0.005 287859 tally yes
fix             cold all langevin 280 280 0.005 287859 tally yes
fix_modify      hot temp Thot
fix_modify      cold temp Tcold

variable        tdiff equal c_Thot-c_Tcold
thermo          4000

dump gigo all atom 4000 dump.cords_xyz.dat
dump_modify gigo scale no
dump vfgigo all custom 4000 dump.velo.dat id vx vy vz fx fy fz

# thermal conductivity calculation
# # reset langevin thermostats to zero energy accumulation
#
compute         ke all ke/atom
variable        temp atom c_ke/1.5/0.00008617333262

fix             ave all ave/time 100 40 4000 v_tdiff ave running
thermo_style    custom step temp c_Thot c_Tcold f_hot f_cold v_tdiff f_ave

#compute         layers all chunk/atom bin/1d z lower 0.05 units reduced
compute         layers all chunk/atom bin/1d z lower ${dz} units box
compute         layers all chunk/atom bin/1d z lower 6.070034 units box
fix             2 all ave/chunk  100 40 4000 layers v_temp file profile.langevin

run             16000000
WARNING: Using a manybody potential with bonds/angles/dihedrals and special_bond exclusions (../pair.cpp:218)
Neighbor list info ...
  update every 1 steps, delay 0 steps, check yes
  max neighbors/atom: 2000, page size: 100000
  master list distance cutoff = 16
  ghost atom cutoff = 16
  binsize = 8, bins = 3 3 23
  4 neighbor lists, perpetual/occasional/extra = 4 0 0
  (1) pair lj/cut, perpetual, skip from (4)
      attributes: half, newton on
      pair build: skip
      stencil: none
      bin: none
  (2) pair morse, perpetual, skip from (4)
      attributes: half, newton on
      pair build: skip
      stencil: none
      bin: none
  (3) pair eam, perpetual, skip from (4)
      attributes: half, newton on
      pair build: skip
      stencil: none
      bin: none
  (4) neighbor class addition, perpetual
      attributes: half, newton on
      pair build: half/bin/newton
      stencil: half/bin/3d/newton
      bin: standard
Per MPI rank memory allocation (min/avg/max) = 12.03 | 12.29 | 12.44 Mbytes
Step Temp c_Thot c_Tcold f_hot f_cold v_tdiff f_ave 
17601000    275.59158    313.08214    287.61172           -0           -0    25.470412            0 
17604000    274.53075    339.06025    259.11346    -1.796817    2.0934343    79.946785            0 
17608000    273.01795    332.99511    258.38617   -1.7932497   0.61494381    74.608939    35.467567 
17612000    278.17152    319.60032    286.60817   -2.7963397  -0.25561625    32.992148    37.086088 
17616000    275.44478    317.73665    290.34983   -2.0966265  -0.88504273    27.386812    38.353604 
17620000    275.69697    306.96733    296.08226   -2.1965447   0.28247806    10.885067    38.491909 
17624000     275.1298    327.02641    266.92655   -3.2970412    1.3020921    60.099858    39.609528 
17628000    283.27354    328.03946    294.98783    -3.608125  -0.51140338    33.051637    39.472264 
17632000    273.53042    327.65038    282.36136   -4.0886732  -0.16945578    45.289026    39.400002 
17636000    283.98762    352.79553    267.76054   -4.7100563    1.5836543     85.03499    39.649666 
17640000    276.38945    344.98275    278.86843   -3.6117475     1.268198    66.114317    39.844084 
17644000    273.89505    311.81574    277.42003   -2.5184489    1.2449784    34.395705     39.65223 
17648000    276.50747    325.98739    275.29111    -2.778888   0.93367544    50.696272    39.773772 
17652000    279.44042    318.77489    277.31959   -2.4397579    1.2333446    41.455292    39.587842 
17656000    269.66683    307.62194    264.76364   -1.8521849    1.2948139    42.858299    39.514894 
17660000    276.91001    329.09206    289.68323   -3.5158581   0.10980143    39.408833     39.59594 
17664000    275.89067    317.76735     287.6967   -1.7839218  -0.11821619    30.070648      39.6281 
17668000    274.38655    334.49465    260.80539   -2.3631473    1.8421939    73.689258    39.527076 
17672000    273.13742    317.11352    275.11483   -3.3103296    1.0568939    41.998685    39.838934 
17676000    274.68932    322.08391    277.71159   -2.9643216    1.4764811     44.37232    39.867958 
17680000    270.63554    292.20891    280.08178   -1.9744278   0.69876949    12.127126    39.832975 
17684000    273.42211    327.32245    284.13288   -3.1062338    1.4324714    43.189562    39.735356 
17688000    277.59107    340.82591    269.14781   -3.5402682    1.1152545    71.678103    39.694319 
17692000    266.97682    305.36759     276.5172   -1.6973349    1.0276919    28.850387    39.355242 
17696000    274.08923    320.65395    276.71344    -2.196473   0.69514995    43.940508    39.354055 
17700000    276.14901    309.70729    284.11756   -1.2163295  -0.22198481     25.58973    39.364664 
17704000    279.42955    322.72689    271.10013   -2.2143206    1.9764577    51.626767    39.500503 
17708000    279.29685    333.11284    277.10054   -2.4933097    1.4281171    56.012299    39.507769 
17712000     272.8409    314.51221    273.94721   -1.9968612   0.77149086       40.565    39.272704 
17716000    282.27895    323.04558    290.81158    -1.841716   0.72178296    32.233997    39.098265 
17720000    265.63586    297.60573    265.87109   -1.6177208    2.6971495    31.734632    39.144322 
17724000    270.93535    299.68702    272.74761   -1.7305484    2.0976161    26.939412    39.216305 
17728000    263.75787    297.56577    281.17033   -1.8227127    1.6815849    16.395435    39.147655 
17732000    276.33342    332.01405    265.37841   -2.7106806    1.6883237    66.635639    39.286412 
17736000    264.45005    292.12246    296.46992   -1.6953582    1.2487768   -4.3474599    39.216989 
17740000    274.31883    313.33745    271.81815    -2.171276    1.6545785      41.5193    39.282039 
17744000    282.03404     336.2955    285.22925    -3.153591    1.4037049    51.066252    39.323012 
17748000    275.90677    335.07538    266.37166    -3.010416    1.5548766    68.703716    39.303023 
17752000    266.20075    319.00803    261.56674   -1.6307867    2.6475557    57.441287    39.405195 
17756000    274.26988    328.86304    275.99296   -3.3231524    2.3576319    52.870083    39.438551 
17760000    270.22639    305.28524    283.92881   -2.2926212    2.9167516    21.356431    39.645212 
17764000    280.27049    319.10308    290.22315   -2.3360385    1.9919411    28.879931    39.729948 
17768000    271.55851     303.0656    284.26658   -1.3615235    1.8728506    18.799026    39.729037 
17772000    276.95819    328.23148    264.02781   -4.0023686    3.6632305    64.203677    39.780503 
17776000    264.11045    301.84509    276.85057   -2.5682268    2.8628653    24.994528    39.704325 
17780000    275.03162    329.28675    280.25273   -3.5469007    2.8466166     49.03402    39.653145 
17784000     276.2785    334.46231    278.24107   -3.2913711    2.0753637    56.221242    39.666243 
17788000    271.15411    311.06719    288.89714    -2.238232     1.761744    22.170054    39.763568 
17792000    276.30841    347.54604    291.08592   -5.5356946     2.591066     56.46012    39.765743 
17796000    281.05638    358.64968     281.0998   -5.6708787    2.5414339    77.549884    39.706565 
17800000     284.9985    333.47255    310.53282   -3.8353538    1.6641867    22.939732    39.615564 
17804000    271.55786    313.92466    278.30771    -2.760018    2.0516769    35.616957    39.611791 
17808000    275.71403    338.15465    276.07223   -4.5673295    2.5208552     62.08242    39.548394 
17812000    269.04826    313.60082    268.25232   -2.9050488    2.8160277    45.348506    39.577413 
17816000    275.57518    325.21307    282.59037   -4.0483631    1.4376014    42.622697    39.600969 
17820000    277.48256    321.20899    297.68334   -3.2721661    1.6483456    23.525646    39.614557 
17824000    266.82013    313.93317    262.92392   -2.4265616    3.1685014    51.009243    39.646933 
17828000    265.39533    328.22872    258.50654   -3.7929538    3.2258972    69.722179     39.70367 
17832000    275.04545    330.95178    253.00227   -4.4678284     2.526394    77.949506    39.641322 
17836000    278.85766    334.59749     284.3128   -4.3781822    1.5123407    50.284697    39.643647 
17840000    273.29555    310.67488    277.99436   -4.2138688    2.1502005    32.680524    39.588725 
17844000    273.50317     337.0784    265.09605   -3.5011515    2.6780437    71.982345    39.504565 
17848000     269.6611    312.97047    276.91495   -2.3993345    2.5300103    36.055515    39.535087 
17852000    281.74801    343.71445    276.36373   -4.4868654    2.2000076    67.350724    39.524113 
17856000    274.49082    306.06586    279.38048   -2.5143584    1.8042516    26.685384    39.500684 
17860000    272.37634    317.95753    278.11287   -2.9630078    2.2118265    39.844667    39.529753 
17864000    283.48971     349.5249    271.69272   -4.8037893    2.3069899    77.832178    39.480753 
17868000    275.03604    312.37206    282.38427   -2.8515427    2.2710481    29.987791    39.544119 
17872000    275.33078      327.231    276.47557   -4.4212988    1.7930389    50.755424    39.571661 
17876000    267.85635    303.49897    272.93515   -3.0742873   0.88114807     30.56382    39.614565 
17880000    279.94758    336.32239    286.90636   -4.5302296   0.70264756    49.416032    39.675325 
17884000     294.9339    353.80612    283.62505   -5.5563183   0.64585935    70.181068    39.695168 
17888000    283.15872    336.43191    274.12413   -5.3744905    1.8359989    62.307782    39.720825 
17892000    281.12695    329.61478    272.50522   -4.0084918    1.1117494    57.109562    39.761087 
17896000    281.07022    297.80881    283.22257   -3.3006422   0.83358846     14.58624    39.756841 
17900000    275.61384    319.68644    252.60125   -2.8296246     1.294295    67.085182    39.771064 
17904000    277.63917    300.03891    288.16931    -2.066907   0.52167882    11.869595    39.822125 
17908000    271.35877    303.66214    266.64068   -2.5925291    2.0177957    37.021466    39.787977 
17912000    286.65564    337.89131    290.58347   -3.7426632   0.04206585    47.307841    39.755085 
17916000    274.50453    324.76637     274.3792   -3.4561677    1.2144064    50.387166    39.753781 
17920000    278.22671    320.49268    273.83756   -3.7706275   0.99840219    46.655115    39.826293 
17924000    279.63349    316.60917    287.75767   -3.5633149    1.1054212    28.851496     39.87211 
17928000    271.48613    343.03521    266.20455   -4.7004274    1.6147326    76.830659    39.917512 
17932000    282.38855    320.46305    271.37483   -3.7885382    1.1759008     49.08822    39.949636 
17936000     286.6459    317.64839    288.74814   -2.9843064  -0.33618302    28.900249    39.954618 
17940000    278.58888    313.25768    263.21944   -3.9740816   0.94778471    50.038236    39.918767 
17944000    287.10436    350.01798    279.78585   -5.8738906  -0.77001708    70.232131    39.929253 
17948000    287.46219    317.39898    288.61119   -3.8299414   0.50952196    28.787791    39.930565 
17952000     274.0352    297.51813    261.12091   -1.9955797    2.5112387    36.397219    39.949206 
17956000    276.93331    305.52149    287.84873   -2.4163224  -0.08497819    17.672765    39.981186 
17960000    286.09973    346.45225    292.66061   -4.1661968  -0.33293818    53.791635    40.011466 
17964000    282.14282    330.43232     286.9462   -4.0746725   0.67145353     43.48612    40.046608 
17968000    272.75247    302.56809    275.98857   -2.6177666   0.78203648    26.579519    40.032467 
17972000     272.3941    309.03607    281.44313   -2.3943988   0.85678404    27.592941    40.025063 
17976000    271.69007    300.51981    272.48758   -2.4261087  -0.20546999    28.032232    40.067733 
17980000    278.36547    309.39761    262.31608   -2.6220458   0.94607553    47.081537    40.054587 
17984000    275.37771    307.93391     285.7293   -2.5353513  -0.30018482    22.204615    40.024318 
17988000    276.48052    326.61044     265.8999   -4.0209489   0.18251343    60.710539    40.064049 
17992000    271.06135    308.14627    250.99902    -2.862225    1.0884317    57.147252    40.069593 
17996000    288.86232    328.20087    297.58475   -3.8443008  -0.22433689    30.616122    40.015876 
18000000    277.11951    325.34547    274.45416   -3.4324654   0.85348834    50.891315    40.042349 
18004000    278.06468     320.8688    275.76284   -4.5713175   0.36258316    45.105964    40.036731 
18008000    286.32872    334.21348    300.81699   -4.2356656 -0.063951507    33.396495    40.009792 
18012000    269.04433    317.28762    258.23083   -3.3126698   0.60121307    59.056785    40.019589 
18016000    270.38202    326.50805    268.19641   -1.5880991    2.0345461    58.311639    40.063962 
18020000    276.01112    319.68224     276.2941   -2.3994071   0.44855903    43.388136    40.055787 
18024000    277.22791    310.49795    288.03582    -3.038233   0.64488118    22.462127    40.030271 
18028000    270.04279    302.47599    272.92186   -1.4502799   0.99284784    29.554128     40.05713 
18032000    280.31488    318.64777     288.0934     -2.20229    1.5508151    30.554367    40.046519 
18036000    284.83495    323.11383    296.08998   -2.9885405    1.2700742    27.023846    40.076457 
18040000    276.47697    322.90234    280.77408   -2.3030397    1.2840287    42.128253      40.0881 
18044000    270.59533    307.49448    287.91812   -2.1300206   0.13131896    19.576355    40.126678 
18048000     272.4954    315.08429    290.34516   -2.5408377   0.81184567    24.739139     40.18107 
18052000    266.42145    315.53836    267.02436    -3.131293    2.8655681    48.513999    40.136883 
18056000    271.25348    327.26739    263.81402   -2.5211839    1.8870284    63.453379    40.111679 
18060000    284.68994    327.68836    300.86296   -3.3951886    1.0610821    26.825398    40.125396 
18064000    284.83799    340.13695    310.95177   -3.3989279   0.81012684    29.185185    40.112503 
18068000    273.31594    301.53662    296.91309   -1.5845298    2.3968896    4.6235328    40.079574 
18072000    270.73138    296.14552    286.78406   -1.9139488    3.0506107    9.3614558     40.10079 
18076000    272.80544    309.31032    289.19384    -2.911572    2.1438232    20.116472    40.096997 
18080000    273.68004    322.67305    263.56837   -1.9281969    3.1770127    59.104676    40.042319 
18084000    285.31626    359.70306    283.81435   -5.1300841    2.2187951    75.888719    40.065164 
18088000    276.86961    336.02492    292.59829   -2.5280037    1.9783262    43.426624    40.041623 
18092000    265.85514    319.75636    265.53473   -1.3642083    4.2902734    54.221625    40.034776 
18096000    277.05816    332.95559    286.23235    -2.819006    2.4616361     46.72324    40.087208 
18100000    277.08303    340.37032    284.32446   -3.2790565    2.3540263    56.045861     40.15421 
18104000    278.43057    311.16969      293.398   -1.1101797   0.81071126    17.771684    40.174576 
18108000    275.24152    303.66684    289.26376   -2.0660672    1.6830924    14.403081    40.154707 
18112000    270.52393    308.26941    277.23603   -2.9802951    2.2805056    31.033374    40.152647 
18116000    279.39706    325.29035     284.8975   -3.5903988      1.08596    40.392852    40.189975 
18120000    277.60883    343.95002    279.52673   -4.6065892    2.8654605    64.423291    40.224283 
18124000    272.73237    316.46899    275.55712   -3.5392933    2.1556389    40.911872    40.222077 
18128000    273.71154    320.61916    266.05259   -3.4685946    3.4093899    54.566574    40.213825 
18132000    279.84394    338.48961    280.95047   -5.1390436    2.9823185    57.539141    40.247641 
18136000    276.39866     304.4842    278.81096    -4.754863    2.4530793    25.673236    40.210913 
18140000    282.66668    322.66427    294.85357   -4.3816102    1.5420589    27.810701    40.190084 
18144000    281.13905    322.04663    281.05633   -3.8467739    1.8254772    40.990303    40.186107 
18148000    277.63982    324.41229    278.42626     -4.03495    1.6859205     45.98603    40.151169 
18152000    266.55248    296.69159    273.11021   -1.8827981    2.7349645    23.581373    40.169817 
18156000    271.84479    330.44445    275.93098   -3.1349993    2.4592747     54.51347     40.15408 
18160000    283.34217    322.73711    293.43971   -3.1673644    2.4243554    29.297404    40.138348 
18164000    272.82144    309.84563    275.19448   -2.6888253    2.0996731    34.651153    40.144037 
18168000    267.12087    301.86092    267.85214   -2.5085718    3.1208587    34.008773    40.186201 
18172000    280.72158    348.55063    264.98191   -4.6830025    1.7201178    83.568719    40.182809 
18176000    283.52752    327.06957    284.85421    -4.688456    1.0887193    42.215358     40.15776 
18180000    275.45917      311.513    284.66115   -2.5710614    1.4443481    26.851851    40.136038 
18184000      281.419    319.73586    284.90029   -3.8935222    1.7631724    34.835565    40.155295 
18188000    279.02521    337.53494    280.78368   -4.9314038    1.1095086    56.751265    40.167525 
18192000    285.39146    313.26731    294.46947    -2.712342   0.46138624    18.797838    40.152384 
18196000    277.79483    328.81664    279.30928    -4.845607   0.79648231     49.50736    40.165979 
18200000     278.5344    321.23834    273.46743   -5.1818645    1.9356628    47.770906    40.204505 
18204000     288.6875    313.38074    303.78478   -4.7117995  -0.37893654    9.5959565    40.185082 
18208000    284.07132    307.16528    286.06828    -3.872323    0.9492466    21.096994    40.159935 
18212000    267.07388     287.4298    273.93642   -3.1371122    1.7861487    13.493375    40.167479 
18216000    273.41031    299.99902    270.67428   -2.7404733    1.7104114    29.324742    40.174905 
18220000    276.19073    298.35892    283.39705   -3.5842532   0.57635695    14.961871    40.177514 
18224000    286.60379    313.57021    312.52597    -4.480658  -0.18630079    1.0442469    40.160245 
18228000    275.83542    293.14878    281.84183    -3.053612   0.77697356    11.306953    40.177641 
18232000    275.32597    306.11345    282.33415   -4.5286841 0.0049034215    23.779295    40.167323 
18236000    296.11333    366.90473    293.57631   -6.0672608   0.43076745    73.328425    40.174594 
18240000    281.15557    318.80606    272.58068   -3.6659238   0.62670268    46.225372    40.174113 
18244000    280.25143    330.44162    279.85633   -4.7714594   0.51609909    50.585296    40.206268 
18248000    281.94175    312.12628    292.18858   -3.2886502   0.46747778    19.937704     40.22276 
18252000    280.06057    323.87861    275.23081   -4.9484334    1.5493862    48.647801    40.233483 
18256000    277.46793    325.48892     280.8712   -3.9346739    2.2799566    44.617723    40.265702 
18260000    283.45437    333.26674    286.00184   -5.2539833   0.31177648    47.264902    40.261252 
18264000     269.6641    300.26184    264.64902   -3.3097251    2.1576083    35.612819     40.25372 
18268000    283.40359    328.33706    280.99864   -4.4585202    1.9322869    47.338414    40.232969 
18272000    272.51282     304.6086    285.67455    -4.217115  -0.41993379    18.934045    40.210519 
18276000    282.73139    325.58688    290.81832   -4.3269579   0.29467736    34.768559    40.219955 
18280000    271.04523    304.97377    265.69785   -2.1410785    2.4580912     39.27592     40.21746 
18284000     277.1165    310.16994    295.42993    -2.966818   0.35809117    14.740007    40.219913 
18288000    286.75271    330.54097    287.95344   -3.7364058    1.0780781    42.587525    40.209823 
18292000     285.3554    331.23854    289.97162   -5.0208455   0.34549472    41.266923    40.199793 
18296000    268.35555    305.12395    263.95576   -3.1975477    2.9156016    41.168197    40.198951 
18300000    277.64795    331.23581    284.26988   -4.3298533      1.64391    46.965922    40.219011 
18304000    273.16191    319.72658    268.56159   -3.2490713    2.3851555    51.164986     40.20282 
18308000    273.27196    313.44894    277.66026   -3.9012049   0.86918047    35.788682    40.200695 
18312000     280.7237    315.68849    271.32155   -2.1774817   0.82028749    44.366945     40.18994 
18316000     277.8768    312.19798    266.84089   -2.4048158    1.7103953    45.357094    40.187113 
18320000    271.42373    309.46121    256.28603   -2.9278243    1.4758313    53.175179     40.19804 
18324000    280.43958    312.83527    280.74015   -3.8983899    1.6474134    32.095124    40.193591 
18328000    279.86147    332.73301    280.93416   -4.5661837    1.6984132    51.798857    40.213514 
18332000    272.93859    323.60122    284.62897   -3.8568765    1.8170291    38.972252    40.237893 
18336000    274.37655    303.82398     278.8027    -3.114953   0.81484242    25.021281    40.250674 
18340000    281.64865    314.04888    279.91352   -2.9104262    2.8198172    34.135367    40.236959 
18344000    280.79917    333.67281    282.09756    -4.042053   0.84258391     51.57525    40.243093 
18348000    276.63908    322.04196    263.52468     -4.17531    2.6861679    58.517277    40.230567 
18352000    273.77826    323.38979    272.95002   -3.7920442   0.62741493    50.439764    40.225609 
18356000    280.77117    336.66207    262.85316   -6.0996289    2.3677201    73.808906    40.241293 
18360000      286.204    356.87354    273.56685   -6.9708189    0.9007967    83.306685    40.249537 
18364000    285.00259    315.05639    282.70943   -3.0568588   0.91921071    32.346955    40.253478 
18368000    280.46575    331.29154    275.52823   -3.7396996    0.8777884    55.763309    40.242637 
18372000    276.97213    320.66927    275.14365   -3.3494199    1.7811916     45.52562    40.253364 
18376000    286.48382    331.32638    278.99529   -4.6198252    1.2301387    52.331083    40.235533 
18380000    290.07325     324.1871    299.94868    -3.506934   0.32067481    24.238418    40.246389 
18384000    288.08649    327.50447    281.67506   -4.7584369    0.9027848    45.829412    40.251584 
18388000    283.79525    338.11153    287.36438   -3.7351586    1.4345316     50.74715     40.23559 
18392000    281.43752    310.13932    270.94532   -4.6193159    1.0885627    39.194002    40.242201 
18396000    276.58862    305.45664    279.03714   -3.7256444    1.6108885    26.419501    40.252021 
18400000    275.53414    323.38454    259.25689   -4.0405885    2.6943171    64.127642    40.286166 
18404000    277.11726    316.52882     284.5091   -3.7364843 -0.097126324    32.019713    40.286109 
18408000    277.67539    312.62212    285.48622   -3.3384967   0.44805396    27.135898    40.274758 
18412000    275.29576    311.72052    278.20927   -3.6671399    1.0952628     33.51125    40.286126 
18416000    282.07029    313.59685    285.48351    -3.944741   0.95879914    28.113342       40.256 
18420000    277.13537    327.16454    283.14192   -4.3409989     0.877465    44.022615    40.234062 
18424000    275.51551    306.44144    292.17906   -3.4847209    1.2048445    14.262384     40.24736 
18428000    281.51747    329.49345    283.86338   -3.5218052     1.881446     45.63007    40.238959 
18432000    272.08115    328.28496    258.07032    -3.751765     2.762769    70.214633    40.240201 
18436000    279.73558    324.34389    294.08944   -3.2507087    2.2410288    30.254449    40.236803 
18440000    277.75945    318.95497    261.81177   -2.8408203    2.9796883    57.143192    40.217768 
18444000    274.44373    320.70641    265.05163   -3.7783388    3.9639654    55.654774    40.179166 
18448000    275.24342    314.32112    262.92952   -2.5836914    3.7535121    51.391593    40.174857 
18452000    273.33056    311.90646    280.95461   -2.9605332    1.3269701    30.951844    40.186449 
18456000    264.81226    298.60619    276.02653   -1.8180018    2.7942348    22.579669    40.188407 
18460000    272.46919    307.70184    292.91962   -3.3373204    1.3390999    14.782219    40.185612 
18464000    276.04425    315.96016    272.86475   -3.8614128    2.5317049    43.095404    40.174543 
18468000    276.23001    321.23239    290.92807   -2.7136532    1.5749911    30.304318    40.158055 
18472000    270.08016    309.12421    293.71683   -2.7675557    2.2258021    15.407383     40.15474 
18476000     278.0541     315.2702    286.25019   -3.0773291    3.4651534    29.020012    40.156529 
18480000    281.64754    327.35421    289.37585   -3.5954747    1.9390959    37.978361    40.166634 
18484000    276.46965    334.29932    264.67327   -4.8286495     3.424449    69.626052    40.176675 
18488000    277.83965    330.16481    272.71127   -4.0347549    3.1081655    57.453543    40.163878 
18492000    271.30347    321.49497    271.92037   -3.3024035    2.9340189    49.574599    40.159165 
18496000    271.89098    301.45385     281.4542   -2.5025017    2.7923199    19.999648    40.158225 
18500000     274.3208    320.66806    274.29593   -3.4549782    3.1187298    46.372133    40.177322 
18504000    265.29376    315.17226    259.99762   -2.8240514    3.3575244    55.174636    40.199931 
18508000    269.60803    319.40332    252.84704   -2.2599857    4.2952236    66.556281    40.207895 
18512000    270.81464    327.60173    266.24126   -2.9703477    2.3025702     61.36047    40.210484 
18516000    283.07491    330.04072     291.1777   -3.8499579    1.8032242    38.863024    40.212343 
18520000    287.57715    343.38494    294.22895    -4.689321    1.2101244     49.15599     40.20766 
18524000    268.87472    298.13236    268.95601   -1.5297241    3.1338017    29.176349     40.20887 
18528000    270.06968    291.47523    276.13096   -2.1724869    2.3267296    15.344265    40.184216 
18532000    266.98474    322.18917    275.22182   -3.3173656    2.8584359    46.967355    40.175175 
18536000    273.36843    335.01524    275.06703   -3.9882004    2.9391641    59.948215    40.198808 
18540000    279.24932    326.67059    285.51254    -4.065001    2.5911803    41.158044    40.203209 
18544000    277.53704    325.23528     290.5185    -3.802231      2.54847    34.716776    40.192377 
18548000    284.24344    347.57364    267.91519   -6.2557375    3.6706541    79.658455    40.190673 
18552000    269.52973    324.44139    269.70742   -5.2360585    2.9724474    54.733971    40.190502 
18556000    277.35562    339.47902    295.99981   -4.1387184    2.3250242    43.479209    40.197075 
18560000    276.83473    317.77619    294.73947   -2.7603571    1.7380129    23.036723    40.207965 
18564000    273.40868    303.09006    277.01943   -2.4831255    1.7453251    26.070634    40.210339 
18568000     269.9469    308.53178    273.21152   -2.8154544    2.5681331     35.32026    40.199659 
18572000    280.59521    313.84523    285.83987   -3.2554318    2.2925986    28.005361    40.179134 
18576000    276.24492    289.97226     301.3806   -1.8658502    1.3113532   -11.408343    40.172657 
18580000     280.0374    340.40937    282.65404   -4.7903859    2.0526719    57.755329     40.17738 
18584000    274.22368    310.90876    268.85938   -4.3901802    3.6990906    42.049386    40.174233 
18588000    274.48472    311.36503    279.65128   -3.6108219    1.9908835    31.713753    40.170268 
18592000    276.09102    320.40299    284.68978   -3.1708313    3.8213414    35.713202    40.170809 
18596000    280.69232    343.64845    279.95256   -5.0647846    3.7959828    63.695891    40.169895 
18600000    278.15256     328.4367    287.75311   -4.7677573    3.3154405    40.683595    40.166198 
18604000    269.15998     333.4441    258.62817    -4.721473    5.0261896    74.815934    40.185652 
18608000    270.72424    315.72957    271.34064   -3.1072547    4.6634087    44.388928    40.186656 
18612000    266.73813    319.06745    271.36039    -2.516203    5.3864566    47.707059    40.179694 
18616000    268.16499     315.6597     282.5803   -3.2675791    4.0866979    33.079393    40.174723 
18620000    277.73015    311.45596    286.98956   -4.0268892    3.7196228    24.466397    40.153099 
18624000    278.19778     346.1693    266.12109   -4.8835897    4.4386071    80.048206    40.152746 
18628000    277.64009    336.48783     275.1069   -4.8424059    3.7197968    61.380929    40.144637 
18632000     264.7324    316.36018    268.36648   -3.5169716    3.8132019    47.993698    40.152604 
18636000    275.91323    330.59284    274.03085   -3.9208797    4.3789082    56.561991    40.139466 
18640000    269.95652    329.46939    271.63185   -4.6261725    4.5637784    57.837537    40.129726 
18644000    275.96835    317.92026    289.07266   -5.0717066    3.4801584    28.847597     40.12434 
18648000    279.71026    330.64338    271.74725   -4.2632712    3.8320311    58.896126     40.10742 
18652000    276.77021    337.60713    269.05503   -3.9633246    4.1250492    68.552091    40.112431 
18656000    271.30948    317.52123    288.10836   -4.6482993     2.231662    29.412873    40.116503 
18660000    271.96623    320.50902    284.21491    -3.648519     2.665972    36.294108     40.13178 
18664000    278.83674    345.22045    273.05017    -3.700909     4.232857    72.170279    40.135776 
18668000    265.74729    324.48468    262.09344   -3.4714841    4.2725121    62.391242     40.13586 
18672000    274.36763    325.39366    280.97684   -3.3362347    2.2023917    44.416817    40.133511 
18676000    280.62705    344.27703    279.19049   -3.6960302    2.3997758    65.086541    40.140788 
18680000    274.30662    333.24368     273.3469   -4.0388648    3.2752265    59.896787    40.139879 
18684000    280.40735    330.57988    271.68505    -4.529611    2.7216617    58.894833    40.147448 
18688000    277.29622    330.91119    295.52354   -3.5640491    2.3896251    35.387656    40.166225 
18692000    273.18014    317.84754    277.59962   -3.1370102    2.7941042    40.247919    40.168775 
18696000     278.2007    323.07861     300.1255   -3.2807405    2.1114691    22.953103    40.170432 
18700000    270.41111    313.98656    281.36329   -4.0197763    3.6380237    32.623269    40.176744 
18704000    274.46731    343.87391    262.67554   -6.4544041    3.6375016    81.198363    40.154089 
18708000    282.66271     332.6258    288.30441   -3.7802179    2.3729308    44.321383    40.150838 
18712000    271.29084    341.28402    268.03683   -4.8445773    3.4572764    73.247187    40.159832 
18716000    272.65755    327.32246    263.10604   -5.1372265    4.6732648    64.216425    40.159974 
18720000     281.0719    340.61101    285.43627   -5.1258895    2.3297343     55.17474    40.157696 
18724000    284.77121    341.69228    275.52921   -5.8211002     2.949361    66.163067    40.176897 
18728000    280.31944    332.50409    256.14758   -4.5921017    3.4292091    76.356504     40.16579 
18732000    274.44623    316.40014    290.46121   -4.2684078    1.5460571    25.938935    40.166443 
18736000    281.30428    322.04441    304.42213   -4.9799265    2.0295806    17.622286    40.177431 
18740000    267.53655    293.65946    278.48039   -2.7740119    2.8917009     15.17907    40.177765 
18744000    271.89605    311.78308    277.58227   -4.5925111    3.6476017    34.200812    40.182705 
18748000    273.38475     312.1585     280.8953   -4.7585158    3.4256096    31.263201    40.174125 
18752000    282.38159     309.3138    288.83409   -4.3795767    2.2875062    20.479713    40.172764 
18756000    280.52994    339.71187    263.78906   -5.7611641    4.2642331    75.922818    40.172424 
18760000    274.30766    336.23462    256.74502   -5.6474241    4.5463505    79.489601    40.173214 
18764000    276.28383    311.31734     274.0629   -4.1079828    4.4251812    37.254439     40.17579 
18768000     273.5518    345.45648    262.46673   -5.7444338    4.2492091    82.989751    40.188892 
18772000     277.4269    337.14313    273.15115   -3.9161359    3.3149232    63.991983    40.192322 
18776000    271.93953    324.18488    279.87132   -3.9707448    3.2308575    44.313555    40.181526 
18780000    273.14624    306.20711    293.92716    -3.116808    1.8023151    12.279951    40.191454 
18784000    264.04936    293.96109    277.58681   -3.4514874    2.9605819    16.374277     40.18456 
18788000    283.98384    333.57984    289.43263   -4.4953003    3.6792793    44.147203    40.181151 
18792000    273.63888    316.10288    288.24535   -3.0408464    4.1158557    27.857523    40.172891 
18796000    271.60443    302.29059    289.21666   -2.6132338    2.9131644    13.073924    40.176444 
18800000     271.2818    311.27082    288.39497   -3.4998016    2.7901891    22.875847    40.150248 
18804000    275.23395    325.06408    300.63962   -4.2053072    3.1222899    24.424465    40.155636 
18808000    272.20639    307.34923    284.21222   -3.4603909    3.8086073    23.137012    40.150834 
18812000    279.26855    326.77317    269.70184   -5.1636241     3.798729    57.071331    40.148347 
18816000    270.39066    331.70771    279.31565   -4.0475772    3.8071109    52.392062    40.129497 
18820000    263.71808    306.21218     272.8651   -2.6207208    5.5958894     33.34708    40.122752 
18824000     274.3932    324.80084    281.12066   -2.6300223    5.3834676    43.680186     40.13988 
18828000    273.84301    345.30069     269.9243   -4.3106109    5.5296694    75.376387    40.139838 
18832000     272.2861     313.4688    296.25979   -3.2610806     3.892941    17.209019    40.145267 
18836000    264.61589    319.48099     273.3822   -4.3206099     5.515481    46.098794    40.138126 
18840000    282.10421    342.41854    276.08188   -5.2648637    4.6850495    66.336664        40.13 
18844000    261.25018    287.73286    272.48506   -2.0456485    3.6368905    15.247796    40.122095 
18848000    267.35622    295.40503    288.04266   -2.5667031    2.8716098    7.3623663    40.113726 
18852000    277.09272    340.28223    279.01896   -4.0501848    4.5094125    61.263279    40.109968 
18856000    274.03461     315.9051    302.22152   -3.6651878    3.8592202    13.683581    40.113187 
18860000    274.20098    309.59646    284.61956   -3.2929872    3.9137452    24.976899    40.116607 
18864000    273.08125    309.99054     304.1793   -3.2788467    3.5282972    5.8112401    40.118226 
18868000    272.45759    313.97022    289.72696   -3.6215842    3.2317786    24.243258    40.121553 
18872000     275.6659    313.46088    283.10163    -4.168911    3.5503541    30.359251    40.120532 
18876000    282.06055    340.44322    285.81978    -4.660992     3.328725    54.623439    40.108547 
18880000    272.91052    289.64756    300.64296   -2.6699757    2.6456205   -10.995396    40.112568 
18884000    269.59609    334.80757    270.87335   -4.9086793    2.8537926    63.934221     40.10958 
18888000    266.60648    309.71504     278.6709   -3.5604825    3.4357842    31.044137    40.103571 
18892000    272.98033    313.03917    280.95643    -4.031076    3.8202329    32.082741    40.111038 
18896000    279.13359    341.73813    273.56596   -5.3103432    3.8280712    68.172166    40.094029 
18900000     278.1651    327.86274    281.53959    -5.114536    3.9922692    46.323149    40.095972 
18904000    281.18683     333.2513    293.97191    -4.578714    3.2641311    39.279393    40.078715 
18908000    275.01021    326.55139    290.00274   -4.8152224     3.280293    36.548651    40.084084 
18912000    275.16437    319.84422    273.19819   -4.4169993    3.5074485    46.646033    40.091462 
18916000    274.09654    319.32596    257.43318   -4.6802534     4.465787     61.89278    40.096604 
18920000    282.66546    345.31754    272.94654   -5.5784743    3.9745719    72.370996    40.092785 
18924000    280.19724    322.11672    273.41693   -4.5366044    3.6085664     48.69979    40.083213 
18928000    280.24823    309.37537    313.64223   -4.3656887    1.6920493   -4.2668617    40.095379 
18932000    273.81784    323.77983    269.18204   -4.3658234    3.1953804    54.597785    40.093276 
18936000    273.84854    301.00123    297.16816   -4.1435878     3.074963    3.8330665    40.099537 
18940000     272.5973    317.33149     283.4546   -4.3994452    3.3018365    33.876884    40.086673 
18944000    272.68478    304.53681    263.00768   -3.3645549     3.908634     41.52913    40.069073 
18948000    284.77596    329.64621    290.32139   -5.0577925    3.2598795    39.324811    40.065363 
18952000    274.65596    313.21637    273.75823   -4.5766046    3.5960836    39.458132    40.060434 
18956000    277.40697    315.60661    285.25442   -4.7627359    3.3084259    30.352192     40.06892 
18960000    274.83895    310.88554    280.80853   -5.2056474    3.0151051    30.077013    40.069579 
18964000    273.02926    319.49152    259.10188   -4.9543438    4.1084135    60.389634    40.082134 
18968000     275.4322    306.28877    284.00863   -3.8347362    2.2346003     22.28014    40.094972 
18972000    271.64549    296.71755    287.24681   -3.5391699     1.897368    9.4707405    40.084636 
18976000    275.07003    309.03484    276.34085   -4.7072248    3.5719703    32.693996    40.070655 
18980000    270.69378    330.67025     260.1936   -5.8422314    3.1327097    70.476655    40.054807 
18984000    280.94629    296.98708    313.79611   -2.8559774   0.62200613   -16.809031    40.055262 
18988000     274.7976    320.14593    286.93569   -3.8936086    2.1693689    33.210235    40.042663 
18992000    275.78549    322.92378    286.70514   -3.6983075    2.4654602    36.218636    40.039751 
18996000    280.64091    331.91291    291.63685   -4.6308903    2.8608532    40.276064    40.039209 
19000000    276.68937    320.38874    274.76873     -4.40534    3.5735884    45.620013    40.050183 
19004000    272.99727    323.37427    277.83798   -3.5212144    2.0960112    45.536285    40.052928 
19008000    274.01712    306.54688    280.47639   -3.2392609    2.3436344    26.070485    40.055138 
19012000    278.49272    326.31445    286.25541   -4.1156457    2.4244383    40.059043     40.04858 
19016000     278.7061    334.31312    282.53483   -4.1178497    1.8236187    51.778286    40.043266 
19020000    279.17871    310.47826    285.08072   -3.8538282    2.3984489    25.397541    40.036586 
19024000    278.65599    330.91712    268.07905   -4.3460134    3.0306967    62.838073    40.034619 
19028000    271.74472    314.92754    279.71697   -4.0552324    2.5975329    35.210568    40.025422 
19032000    276.74903    330.95897    286.80628   -3.1568479    3.3136984    44.152695    40.030975 
19036000    279.54398    320.32235    292.91261   -4.4253262    1.5172184     27.40974    40.040248 
19040000    283.00517    334.23794    297.59497   -2.8938155    2.3668233    36.642969    40.045993 
19044000    273.57502    308.01202    282.17474   -2.3839558    2.0609474    25.837286     40.03504 
19048000    282.28136    338.84437     272.8447   -4.0577296    2.6149939    65.999676    40.048455 
19052000    272.88584    333.71857    275.88497   -4.1154171    3.0129535    57.833603    40.061294 
19056000    270.33392    332.50843    262.02404    -4.216661    2.6791483    70.484389    40.060494 
19060000    277.77503    325.34669    293.58499   -4.8106585    2.0793924    31.761698     40.05475 
19064000    276.67019    324.20622    295.78262    -3.741456      2.50161    28.423604     40.05338 
19068000    267.00497    312.27084    275.45569   -3.4141639    4.1681057    36.815157    40.049177 
19072000    274.92355    311.89092    287.30184   -3.7460237     2.795445    24.589076    40.049576 
19076000    283.86185    323.03622    289.07692    -3.947698     2.912063    33.959306    40.054892 
19080000     271.7093    323.72574    282.88029   -3.6480415    3.9931077    40.845448    40.051107 
19084000    276.38735    320.12681    292.26169   -3.5835806    1.9676076    27.865123    40.036993 
19088000    277.00363    340.22799    270.07539   -6.1259504     3.245028    70.152593    40.035664 
19092000    271.67373    325.00461    278.51272   -5.0136488    2.8268958    46.491884     40.02948 
19096000    278.12528    341.53112    289.00909   -5.4076138    2.3286338    52.522028    40.029418 
19100000    275.25756    333.25074    274.68912   -4.8378103     2.419973    58.561616    40.032781 
19104000    273.75374    313.90045    296.50943   -4.5185403    3.2410736    17.391019    40.037395 
19108000     272.4045    352.27412     275.7032   -5.7305784    3.5357864    76.570926    40.056443 
19112000    268.50485    307.66331    281.33025   -4.1334059    3.0878278    26.333063    40.059218 
19116000    283.82346    336.53436    287.50993   -4.5638855    2.5668134    49.024423    40.055058 
19120000    279.37504    346.89745     274.1637   -5.3762835    2.8285653    72.733751      40.0725 
19124000    280.26451     308.4197    302.60215   -4.3500801    3.3559999    5.8175503    40.073368 
19128000    277.86362     314.6488    305.68393    -4.214207    1.8491631    8.9648667    40.084378 
19132000    269.27946     309.4347    285.46961   -2.7855815    3.2645817    23.965089    40.092296 
19136000    271.23871    317.64342    287.45841   -3.1330534    2.7705432    30.185012    40.102354 
19140000     267.9361    314.27849    280.12992   -3.3484213    3.9888256    34.148572    40.103285 
19144000    272.18641    318.86493    282.56396   -3.6904275    4.3593847    36.300963    40.098452 
19148000    272.35974    317.77188    286.55437   -3.2971293    3.6301434    31.217513    40.093098 
19152000    271.09443    327.83125    251.17009   -3.6729516    5.9127367    76.661157    40.109712 
19156000    267.26481    322.38094    259.07401   -4.0634151    5.5044278     63.30693    40.114833 
19160000    268.48359    338.48335    278.07465   -4.4547048    4.8777442    60.408701    40.115878 
19164000    274.42391    319.13961    273.84721   -3.0658008    4.6106599      45.2924    40.117349 
19168000    272.33209    309.13451    296.31432   -3.8107316    3.9201269    12.820192    40.108605 
19172000    272.98089    328.64893    279.94971   -3.6821171    4.7624064    48.699225    40.118029 
19176000     269.7743    316.35749    279.35363   -3.1527115    4.0025663    37.003858    40.125305 
19180000    275.97293    340.19931    283.52638    -5.338936    3.8970078    56.672928     40.13293 
19184000    268.71542    332.00771     252.9693   -4.4147191     6.081872     79.03841    40.133748 
19188000    274.54601    313.52887    293.80556   -4.1609613    4.1858481    19.723308    40.134625 
19192000    271.70819    304.75915    293.25843   -3.3304631    4.3723557    11.500721    40.143869 
19196000    276.55613     348.4435    262.16863   -5.6247961    4.9231862    86.274876    40.142249 
19200000    274.36267     336.0969    284.65029   -5.0909956    4.1542807    51.446609    40.140725 
19204000    277.94292     340.3498    284.91476    -5.671268    5.6511885    55.435038    40.142141 
19208000    278.49149    317.28215    302.19401   -5.2648056    4.3786386    15.088135    40.129866 
19212000    275.46374    338.02643    288.86073   -5.8897946    4.7278162    49.165694    40.135346 
19216000    272.12567    304.93185    283.30964   -3.8499917    6.0150895    21.622207    40.139562 
19220000     273.6342    337.98991    278.46451   -5.7535714    5.5290478    59.525406    40.137016 
19224000    274.38038    309.33518    295.46271   -5.0961455    4.1853779    13.872468    40.143391 
19228000     277.5828     314.1431    286.87115   -4.4507772    4.1552274    27.271955    40.137811 
19232000    278.75011    328.05248    285.17361   -5.2003631     3.876978    42.878869    40.152358 
19236000    274.55746    305.96759    290.72861   -3.1122917    3.8118831    15.238974     40.15026 
19240000     274.4521    326.10773    294.63399    -4.739457    3.2444969    31.473744    40.156536 
19244000    279.33077    308.04193    299.87728    -3.293004    3.4210266    8.1646539    40.160222 
19248000    267.79911    316.99445    254.51929   -4.2221503    5.7107416    62.475162    40.161978 
19252000    269.57893    312.02872    272.22768   -4.4615875    3.8667392    39.801045    40.157559 
19256000    271.36299    328.96433    263.20982   -6.1966936    3.6626997    65.754514    40.153286 
19260000    281.18882     307.7529    326.80392   -4.2120938     2.557906   -19.051012    40.147061 
19264000    266.59819    316.85638    258.31326   -4.1088258    4.7484738    58.543122    40.150564 
19268000    274.76032    327.79539    270.13161   -5.5957544    4.3534621    57.663787    40.170045 
19272000    285.50797    336.88207    285.08077   -5.7387433    3.6535489    51.801303    40.182015 
19276000    279.24624    323.83804     286.9211   -4.9825096    3.5069209    36.916937    40.178923 
19280000    285.43347     333.8396    298.32267     -3.84191    2.6333777    35.516931    40.187204 
19284000    265.30085    310.61253    269.69493    -2.551207    4.1000118    40.917594    40.193772 
19288000    278.87086    342.02313    286.18006   -4.2830695    3.2308444     55.84307    40.198653 
19292000    264.54199     301.8057    263.57185   -2.3618247    5.8741411    38.233849     40.19784 
19296000    272.53319    320.59314    272.92189   -1.9659667      4.85641    47.671248     40.18828 
19300000    271.18407    322.27826    273.97493   -3.0377654    3.8305085    48.303335    40.198712 
19304000    267.44144    293.81257    275.62101   -1.6126137    4.1727716    18.191557    40.188944 
19308000    271.46836    326.26243    289.15047   -4.6622697    3.7804592    37.111963    40.178352 
19312000    267.16399    308.89368    288.63217   -3.7356996    5.2216229    20.261508    40.170077 
19316000    265.14478    319.46387    274.05224   -3.8619342     5.459396    45.411625    40.173806 
19320000    270.62615    310.68022    293.84668   -3.3450806    4.0450322    16.833546    40.176023 
19324000    271.89858    309.23635    304.21967   -2.0020605    3.2981298    5.0166818    40.171576 
19328000    263.85129     317.6104    262.45339   -2.6401309    5.4056549    55.157016    40.166575 
19332000    280.77086    334.71966    290.49858   -4.1581644    3.8203629    44.221076    40.162342 
19336000    270.38476    323.45562    266.19537   -3.7293282    4.5582975    57.260257    40.149331 
19340000    274.18585    308.21657    292.35255   -2.2850044    4.0798774    15.864026    40.154584 
19344000    270.94265    296.29247    297.89014    -3.198537    3.8646946   -1.5976671    40.146656 
19348000    269.21855    302.56459    282.65611   -2.8222064    3.8901086    19.908479    40.147973 
19352000    277.42056    334.46369    306.72915    -5.312707    3.8910948    27.734547     40.15324 
19356000    282.65503    324.31858    295.00112   -4.8235887    4.4294827    29.317452    40.144813 
19360000    265.67058    325.00512    262.38823   -3.6232884    4.8256573    62.616883    40.153868 
19364000     271.5018     320.2308    265.83711   -4.1050327    5.8802774    54.393694    40.155203 
19368000    271.77198    326.34152    275.04897   -4.8105989    5.6305315    51.292546    40.145011 
19372000    273.14678    323.07835    271.70392   -3.9641416    3.1604767    51.374431    40.139563 
19376000    277.18518    328.10222    293.97672   -4.2203419    3.7196166    34.125502    40.136988 
19380000    275.59933    327.41119    286.66464   -4.4968896    3.8267357    40.746545    40.137055 
19384000    280.24269    322.20575    293.31858   -5.3338329     4.080587    28.887164    40.144135 
19388000    279.15492    358.20292    262.87458    -6.227729    5.4590026    95.328341    40.141181 
19392000    263.55609    304.79016    275.96251   -3.3214278    5.3166787    28.827652    40.140676 
19396000    269.36279    335.28451    272.76472   -4.7539133    5.0945392    62.519794    40.144973 
19400000    271.11537    358.75237    260.52715   -5.6277203    6.0312321    98.225216     40.14945 
19404000    281.55942    335.38253     290.8679   -5.9672739     4.444277    44.514628    40.150873 
19408000    267.61278    333.49632    258.35873   -5.0040252    5.5837201    75.137587    40.146224 
19412000    282.51112    333.48178    308.49129   -4.4995439    3.6311282    24.990487    40.140004 
19416000    276.47608    325.01109    288.75898   -5.1154748    5.1439116    36.252104    40.133939 
19420000    282.36412    329.38703    286.60718   -3.6139634    4.4001962    42.779858    40.136258 
19424000    281.70335    342.68306    307.97024   -3.8389783    4.4864355    34.712816    40.155089 
19428000    273.04308    325.23253     276.6792   -4.6605572    6.4998285    48.553335    40.154685 
19432000    272.48374    346.93049    271.81397   -5.2367654    4.8693945     75.11652    40.162414 
19436000     272.2206    312.04845    278.30137   -4.4396836    5.1918105    33.747085    40.169412 
19440000    273.70561    313.93062    295.91609   -4.3088397    3.2522085    18.014524    40.169996 
19444000     266.1519    316.54124    260.80813   -4.2959617    5.3634331    55.733111    40.167181 
19448000    273.29146    349.84079    263.34135   -5.3604464    6.0974606    86.499441    40.182267 
19452000    272.41656    314.61345    283.77321   -5.4197217    4.1184749    30.840238    40.177843 
19456000    267.28667    291.28115    277.09614   -4.3808384     4.691568    14.185013    40.163265 
19460000    271.34304    323.34382    278.24367    -5.353483      5.15731    45.100148    40.156596 
19464000    268.03264    325.62629    261.36359    -5.295814    6.0338992    64.262695    40.149262 
19468000    271.74973    317.22763    279.63471   -4.0039909    4.0336579    37.592922    40.155424 
19472000    272.74898    325.55189     275.1808   -4.2875631    4.5962371    50.371095    40.152915 
19476000    279.22991    347.18682    265.46421    -6.967432    5.1685665    81.722611    40.149959 
19480000    268.02518    309.86604     280.6949   -3.9478012    3.6529823     29.17114    40.154843 
19484000    268.80321     315.3588    278.92596   -5.6143629    4.6855631    36.432837    40.161784 
19488000     284.0532    345.81881    283.32403   -5.8231272    3.8500432    62.494783    40.164743 
19492000    265.59362    312.90293    281.44309   -5.3228946    4.2836534    31.459834    40.168889 
19496000    273.88493    307.10095    282.14444   -4.6232778    4.9845278    24.956513    40.164159 
19500000    272.03329    310.37194    286.63152   -5.3166299    5.0994493    23.740424    40.159265 
19504000    272.37289    339.10363    254.88277   -6.6944963    6.4224328     84.22086    40.169132 
19508000    274.58191    330.00553    282.02289   -5.8963564    4.9343713     47.98264    40.165366 
19512000    278.54895    332.89061     286.2124   -7.5438827    4.4117657    46.678207    40.162067 
19516000    278.75884    317.49638    277.87876   -5.8935886    4.8634199    39.617622    40.174352 
19520000    272.97365    324.98946    277.40309   -6.0447617    4.6027015    47.586366    40.178758 
19524000    280.06677    311.03735    306.01779    -5.768931    4.1893103    5.0195547    40.174877 
19528000    268.00567    300.35457    271.60614    -4.491668     5.880199     28.74843    40.171638 
19532000    277.12398    315.41229     296.2469    -4.839311    4.8693463     19.16539    40.174536 
19536000    268.62331    315.31043    261.99829   -5.7011569    6.2544705    53.312138    40.168963 
19540000    275.17418     333.1245    284.56013   -6.6715456    5.6786049    48.564367    40.181876 
19544000    273.52275    307.90427    284.67816   -5.0556728    6.2483959    23.226108    40.166661 
19548000    275.37991     321.3834    284.50333   -6.5886952    5.1604078    36.880076    40.162547 
19552000    266.93552    288.04202    271.33092    -3.999316    4.9545105    16.711095    40.167492 
19556000    265.19754    288.86877    260.32097   -3.5647223    5.1183581    28.547797    40.166521 
19560000    268.39825    318.51408    276.18627   -5.8780177    4.1965407    42.327806    40.170785 
19564000    266.40836    327.54687     260.1909   -4.9334439    5.5025849    67.355971    40.178764 
19568000    271.49577    322.99622      272.583   -5.7621437    6.5547407    50.413226    40.183713 
19572000     266.3992    318.93538    257.73071   -4.3124297    7.0699029    61.204674    40.180896 
19576000     270.2574    319.72946    277.67321   -4.1622119    6.9475694    42.056252    40.182981 
19580000    266.67463    309.05126    283.09513   -4.2027598      6.29124    25.956132    40.193871 
19584000    259.19183    310.42107    271.86467    -4.558924    6.9738034    38.556408    40.188302 
19588000     272.4011     351.5107    274.90831   -5.5783398    5.0812205    76.602385     40.19659 
19592000    273.03058    328.16868    285.25546   -4.2133999    5.0857858    42.913225    40.193286 
19596000    258.99033    292.97125    273.46591   -3.1239852     6.278659    19.505335    40.191248 
19600000    271.87085    330.77669    281.79431   -5.4440751    5.9225934    48.982375     40.19099 
19604000    268.34185    309.86365    295.11811   -2.4839907    4.3951854    14.745536    40.186474 
19608000    261.66429    288.55784    286.09019   -2.6818098    4.7253945    2.4676428     40.18585 
19612000    267.66469    317.72821    295.21873   -2.9825723    5.1117498    22.509476    40.191229 
19616000    268.37733    326.63664    262.15253   -4.5177675    6.5995276    64.484106      40.1905 
19620000     273.1162    316.98661    301.95759   -4.1759892    3.7221718    15.029022    40.194604 
19624000     267.3112    332.50892    282.29838   -4.4767016    5.7273112    50.210544    40.202794 
19628000     265.3939    310.36644    268.54049   -4.8957462    5.1541344    41.825951    40.202398 
19632000    270.10069    320.83987    284.51031   -4.5716015    6.1655694    36.329554    40.186174 
19636000    261.59733    302.29018    264.89391   -4.0914711    7.4513314    37.396267    40.198429 
19640000    266.87839    310.84149    275.42675   -4.7192757    6.7864657    35.414738    40.191234 
19644000    272.58316    321.86206    262.12821   -5.6185838    7.3419491    59.733851    40.195193 
19648000    268.39122    307.95632    278.39955    -5.067137    6.2440873    29.556762    40.190679 
19652000    268.77811    325.15894    269.81382   -6.1439161    7.0993827    55.345124    40.182121 
19656000    272.08005    321.99023    288.62117   -6.7239326    6.4808676    33.369061    40.182749 
19660000    272.12353     335.5554     271.7082   -6.8398341    7.7676223    63.847195    40.185951 
19664000    267.08667    333.13074    274.78153   -6.5220657    6.7408489    58.349202    40.196226 
19668000    272.91179    330.83248    286.08617   -6.2095977    6.2936997     44.74631    40.196409 
19672000    267.74224    307.99432    290.61659   -4.7496029    6.1531372    17.377726    40.195799 
19676000     274.0176    348.42189    276.18829   -7.7053734     6.281425    72.233595     40.19914 
19680000    263.91086    322.69112    262.56499   -4.8234406    6.9777461    60.126131    40.199056 
19684000    268.19406    322.65519    273.53118   -5.5007179    6.2239119    49.124018    40.199814 
19688000    265.85855    289.19235     300.3677   -4.6818546    5.4731911   -11.175345    40.199251 
19692000    270.05264    313.98442    280.75682    -5.012187    5.8175019    33.227607    40.200331 
19696000    271.84912    314.14959    285.10155   -5.1030239    6.0684795    29.048038    40.199765 
19700000     275.3101    343.85117    279.36488   -6.1468816    6.7359265     64.48629    40.202366 
19704000    265.35354    315.50481    273.32436   -5.5119757    6.5664776    42.180448     40.19534 
19708000    272.80798    330.72168     285.1036   -6.4905357    6.0214708    45.618075    40.198546 
19712000     265.6004    318.43621    281.62706   -5.4999905    5.9512457    36.809152    40.199937 
19716000    285.92616    356.06787    300.09809   -6.9758329    5.4512554    55.969781    40.212111 
19720000    266.38103    316.06684    270.01992   -6.3158257    7.0470269    46.046918    40.218516 
19724000    271.79903    334.85192    275.54182   -6.9432377    7.0094105    59.310095    40.223154 
19728000    285.96149      333.523     311.4208   -5.7770208     6.322425    22.102196    40.222935 
19732000     282.6387     330.5377    297.98665   -6.4761683    6.3919922    32.551045    40.217018 
19736000    262.21858    291.37435    260.97055   -4.5240328    7.2726625    30.403808    40.215919 
19740000    261.40902    305.74416    278.96908   -5.1713906    6.6550281    26.775082    40.211006 
19744000    276.90135    315.08858    294.73309   -4.8372964    7.1209995    20.355491    40.200358 
19748000    266.09736    337.38111    260.35797   -6.1944062    7.0500865    77.023145    40.200883 
19752000    264.45029    311.15688    284.47584   -5.6473578    5.6792655    26.681048    40.201894 
19756000    264.45182    300.93304    256.66901   -3.9256025    6.8195275    44.264035    40.203164 
19760000    275.01917    324.61001    296.11309   -6.8059848    4.7650558    28.496917    40.198463 
19764000    277.24863    334.10095    294.19643   -7.0042722    4.6380015    39.904513    40.191287 
19768000    269.72946    310.89951    291.18412   -5.4403586    5.7903258    19.715385    40.188795 
19772000     278.9052    319.26919    305.54129    -5.386858    6.9066954    13.727895    40.192326 
19776000    267.64129    304.64016    276.87295   -6.5278142    7.1659431    27.767209    40.197145 
19780000    276.82792    337.69263    274.45828   -6.5600598    6.7527048    63.234348    40.201577 
19784000    269.01122     309.4652     282.7101   -5.3431908     6.524736      26.7551    40.195188 
19788000    276.25162    319.16381    283.64707   -6.4747901    6.6243546     35.51674    40.192939 
19792000    279.41712    348.26085    276.32795   -8.0837783    6.9778638    71.932904    40.197362 
19796000    279.32279    318.72058    293.49238   -5.7801008    5.1478347    25.228198     40.19084 
19800000     279.1614    353.24606    281.36478   -6.6827635    5.7598044    71.881277     40.19249 
19804000    277.06999    328.05293    296.44318   -5.4005771     4.379362     31.60975    40.191138 
19808000    271.07933    347.37246    277.71418   -6.4663062    6.3202923    69.658278    40.193674 
19812000    268.00858    318.86973    271.01546   -5.3973369    7.4843884    47.854263    40.192071 
19816000    277.47676    339.11668    285.61329   -6.3246223    6.5859753    53.503388    40.191073 
19820000    280.13763    339.47773    298.36652   -6.0952548    4.8147757    41.111214    40.187264 
19824000    271.69445    318.80262     274.0247   -4.0228924    5.9648791    44.777917    40.191792 
19828000    268.79418    332.40568    259.22577   -4.5530577    6.2850063    73.179909    40.185978 
19832000    266.11642    307.37756    287.65789   -4.4786417    5.8992669    19.719671    40.185435 
19836000     270.5617    330.48019    283.62131   -4.4362466    5.4730945    46.858875    40.183618 
19840000    273.12753    324.08138     268.1056   -4.4917484    6.4072304    55.975775    40.186981 
19844000    266.63116    313.10037    276.26912   -5.0199332    5.6962123    36.831247    40.184586 
19848000    269.72249    314.80183    271.76003   -4.7958382     5.565899    43.041803    40.186612 
19852000    273.50829    330.00006    265.47332   -6.5095066    6.3121242    64.526747    40.192149 
19856000    274.83643    321.50459    294.07524   -6.0304817    5.3586968    27.429349    40.192221 
19860000    274.88075     321.0697    274.38493    -5.496655     5.096833    46.684775    40.197245 
19864000    273.03564    318.77117    271.60349   -4.9599677    5.8027507    47.167685    40.199326 
19868000    266.39371    336.43852    257.48552    -6.261849    7.6206105    78.953005    40.200954 
19872000    281.45977    343.92618      281.537   -8.1388139    6.4292435    62.389177    40.203001 
19876000    276.57709    332.86567    284.31691   -6.8088702    6.1152254    48.548765    40.208479 
19880000    273.70604    308.48928    286.17324   -5.7745593    4.3339347    22.316041    40.202538 
19884000    265.03486    293.75566    270.97123   -4.1704169    5.5979573    22.784429      40.2022 
19888000    271.11385    334.84276    266.85289   -6.6110139    6.9466957    67.989865     40.19938 
19892000    269.48774    314.51955    273.50354   -6.3672627    6.7144084    41.016012    40.194432 
19896000    277.74798    322.48331    282.96269   -6.9929783    6.1756576    39.520614    40.200072 
19900000    271.11279    334.31778    264.65513   -7.2424402    7.1345893    69.662651     40.20346 
19904000    278.11674    327.04974    273.46232   -7.6434512    6.8737887    53.587417    40.204213 
19908000     267.5553    300.36242     270.3094   -5.8008772    7.4326458    30.053028    40.199018 
19912000    269.93551    306.03469    284.51851    -6.108506    5.6905771    21.516188    40.193909 
19916000    267.99081     308.6497     273.6342   -4.8445528    7.4751458    35.015496    40.202205 
19920000    282.44856    340.36186     294.0258   -6.5930332    6.2971511    46.336063     40.19739 
19924000    267.15362    302.26039    277.02376   -4.5014299    6.1633494    25.236626    40.196884 
19928000    277.25056    355.89094    262.61052   -8.6560239    6.8721332    93.280418    40.203523 
19932000    284.54668    339.15617    301.43443   -7.6878628     4.830538     37.72174    40.206377 
19936000    268.93245    309.39206    294.96784   -6.9167438    5.6927316    14.424213    40.199147 
19940000    277.63015     340.0946    278.46486   -9.0312844    5.7642031    61.629735    40.199417 
19944000     286.3634    354.10774    284.10958   -7.6994767     6.622665    69.998153    40.199331 
19948000    278.12839    300.18942    290.07766   -7.3296122    5.7845252    10.111762    40.198453 
19952000    272.54137    302.92449    263.49372    -6.634525    7.2489913    39.430768    40.191189 
19956000    283.56634    337.56224    282.04819   -7.7162525    5.4900833    55.514049    40.192735 
19960000    275.24453    337.06586    274.97694   -5.7401411    5.6763853    62.088925     40.19549 
19964000    266.24674    309.34482    271.83162   -4.1956249     6.816633    37.513204    40.195202 
19968000    275.80118    324.16663    287.67578   -5.4781466    6.0584804    36.490852    40.198165 
19972000    269.62186    325.20867    274.17967   -6.8135264    7.1183707    51.028998    40.190676 
19976000    276.66007    343.73602     283.3392   -7.6970061    5.5201739    60.396818    40.187109 
19980000    267.17133    315.81881     262.3291   -6.0392455    6.5860443    53.489702    40.180893 
19984000    276.17761    324.64782     285.0474   -7.0999589     5.841291    39.600424    40.183786 
19988000    273.65643     315.9614    281.26726   -7.0059478    6.2863961     34.69414     40.19028 
19992000    276.35712    319.01251    287.60062   -5.4367148    5.2420839    31.411889    40.191416 
19996000    268.50836    312.34118    268.65631    -5.964586    6.1261607    43.684869    40.199581 
20000000    271.63954    333.33707    249.53251   -7.5672086    7.4073632    83.804564    40.193908 
20004000    273.55332    339.34444    275.79412   -7.6330345    6.0039125    63.550325    40.199733 
20008000    277.52049    332.81702    289.64234   -8.2488221    5.6495385    43.174677      40.2015 
20012000    274.62178     327.7674    268.32608   -6.7276361    5.8968242    59.441328    40.205425 
20016000    274.87046    317.38569    277.04673   -7.0038575    5.8150672    40.338963    40.204799 
20020000    269.42265    290.99156    282.66161   -5.3376025      5.66416    8.3299457    40.201029 
20024000    278.16117    329.93532    304.25345    -7.123129    4.2507624    25.681869    40.198497 
20028000    277.89769    327.16418    288.21037   -6.6217348    5.8471666    38.953812    40.189993 
20032000    279.45078    330.44177     279.7162   -6.9720495    4.6391697    50.725563    40.190312 
20036000     277.8533     344.4822    280.76567   -7.6180382    4.9480286    63.716523    40.180441 
20040000    282.45221     330.6478    304.86843   -6.5774865    3.9419982    25.779369    40.185486 
20044000    273.56794    314.32082     289.4219   -6.8204656    4.7709102    24.898917    40.189759 
20048000     268.2372    320.54685    277.82874   -6.5626658    5.6858193    42.718109    40.186226 
20052000    273.87777    318.06008    283.59928   -5.4612213    5.6693748    34.460801    40.188103 
20056000    270.55944    318.16004    261.04046   -6.9488295    7.2271177    57.119579    40.186164 
20060000    278.40996    305.77899    288.79964   -6.4205394    6.7941908    16.979343     40.19221 
20064000    276.67329    333.63352    278.22426   -6.7343877    6.8632562    55.409264    40.196403 
20068000     270.7759    325.78684     279.2341   -6.6573319    7.2973657    46.552732    40.194338 
20072000    272.91902    290.57173    305.63613   -4.6765762    5.4683918     -15.0644    40.200889 
20076000    273.66259    317.75082    295.50177   -6.0501856    5.1797148    22.249052    40.197365 
20080000    276.97109    335.93821     290.2023   -7.0667106    5.4702043    45.735906    40.198372 
20084000    282.30029    338.29312    283.86851   -6.9829893    5.1951605    54.424612    40.193925 
20088000    277.58584    343.16637    293.70678   -8.1905005    4.8722617    49.459589    40.190427 
20092000    273.00268    322.85409    281.21252   -6.5948368    5.1626279    41.641564    40.194596 
20096000    272.86608    301.93199    281.21029   -4.5011329    5.1097167      20.7217    40.181163 
20100000    285.06034    346.16411    286.48562   -6.9003367    5.2375535    59.678492     40.18116 
20104000    278.30078    332.50971    287.66881   -6.4816284     5.355516    44.840894    40.188416 
20108000    278.61974    330.38813    264.26018   -7.1681315    6.4395401    66.127948    40.190965 
20112000    276.06961    340.57348    279.71573   -7.8121982     5.638222    60.857749    40.188206 
20116000    272.95332    290.56226    287.44713   -4.6381798    5.4483971    3.1151293    40.184411 
20120000    279.20494    321.26795    274.85977   -7.7268362    6.4991079    46.408175    40.189712 
20124000    279.38895    313.78946       302.01   -5.4286068    4.8835726     11.77946    40.188897 
20128000    267.66662    313.17624    256.60194   -4.7920722    6.6879658    56.574295    40.179459 
20132000    277.24402    336.38367    282.13431   -6.8822249    5.6367186    54.249369    40.181935 
20136000    280.32065    327.50641    277.77599   -5.2613999    6.2771852    49.730412    40.181629 
20140000    262.49849    298.71266      279.788   -4.3607457    6.3825729    18.924662    40.185554 
20144000    272.34539    344.01155    268.76689   -7.6044021    6.9447944    75.244661    40.187186 
20148000    268.17242    310.01992    273.37788   -5.8718598    6.1848447    36.642048     40.19491 
20152000    269.44917    327.03137    268.42267   -5.9361752    6.5188914    58.608696    40.194025 
20156000      266.237    315.54693    273.85717   -4.9684113    6.3515511    41.689762    40.186944 
20160000    266.84713    307.41597    275.64695   -5.2366076    5.4316777    31.769017    40.185263 
20164000     278.3572    321.56727    292.57318   -5.8770447     4.350618    28.994086     40.17549 
20168000    278.39395     320.3308    283.11074   -6.1857446    5.5515036    37.220056    40.174549 
20172000    275.67681    321.64436     289.0321    -7.225234    5.3066809     32.61226    40.170343 
20176000    277.80463    325.78833    284.65644    -8.270247    6.2002259    41.131894    40.171535 
20180000    279.56085    320.91357    291.54072   -7.0705911    5.1867501    29.372857    40.178172 
20184000     275.5528    334.84913    276.67231   -5.9002886    6.2478889    58.176814    40.177864 
20188000    272.66053    307.54391    301.19861   -5.0531466    5.2997329    6.3452927    40.179327 
20192000      271.192    328.59332    269.56272   -5.6679923    5.7539338    59.030599    40.178531 
20196000    274.96246     326.0021     282.3585   -5.1609941    5.3913432    43.643595    40.180467 
20200000    263.39332     302.4764    275.84382   -4.7359292    6.3822102    26.632581    40.182906 
20204000    274.13814    322.21827    279.21738   -5.4698454    6.2121026    43.000887    40.187068 
20208000    281.49042    344.28998    293.08934    -5.990599    5.2305432    51.200641    40.184658 
20212000    271.99534    337.28733    269.41963   -6.5869386    7.2576254    67.867703    40.190371 
20216000    265.07691     319.8167    267.84631   -5.2598823    6.8307039    51.970385    40.195956 
20220000    276.58824    312.14286     299.6104   -5.7130669    4.4803564    12.532463    40.198877 
20224000    275.40347    313.02318    286.66635    -6.155097    5.4428791    26.356827    40.201482 
20228000    272.22162    308.05532    279.28635   -5.5853353    6.1611269    28.768971    40.200094 
20232000    277.22755     318.2944    276.15958   -5.3701973    5.8242187    42.134816    40.206309 
20236000    265.43458    283.13095    277.63245   -4.2430917    5.6711089    5.4984956    40.207278 
20240000    274.09243    307.34273    300.13751   -5.9469795    4.8472012    7.2052228    40.206918 
20244000    274.38599    309.64919    276.41713   -4.6150826    6.0376507    33.232055    40.203748 
20248000    283.27961    340.64739    267.41394   -6.9690689    6.4409034    73.233449    40.207512 
20252000    281.71425    330.33517    293.71177   -6.2265721    4.4719953    36.623396    40.206331 
20256000    273.89491    322.14136     273.8154   -6.8697904    6.3877085    48.325961    40.202674 
20260000    277.86182    331.76558    291.76893   -5.9286532    4.5507273    39.996646    40.198106 
20264000    277.11965    313.22309    283.78874   -6.2689597    5.6408428    29.434349    40.195021 
20268000    275.92768    333.03834    277.38687   -7.3073887    5.7179133    55.651471    40.194198 
20272000    283.69388    328.22183    289.06291   -6.2453144    5.2731193    39.158919    40.195316 
20276000    280.97535    313.99136    304.57944   -6.2418774     4.588209    9.4119186    40.195225 
20280000    278.93828    327.64643    298.02033   -6.8909387    4.7602065    29.626095    40.198314 
20284000    280.72254    328.67829    274.03938    -6.223816    5.9469248     54.63891     40.19968 
20288000    274.25199    327.20252    291.47961   -6.7272866    6.1535497    35.722912    40.203885 
20292000    264.88779    306.27225    262.55534   -5.3003296    6.1136568    43.716917    40.199805 
20296000     270.9562    325.02682    281.32284   -5.2810499     5.760204    43.703978    40.196927 
20300000    281.64821    330.74612    303.25331   -6.1019771     4.602903    27.492815    40.187643 
20304000     276.7792    336.45316    273.23495   -7.4138035    5.8050178    63.218216    40.181444 
20308000    269.18177     297.8196     276.3693   -4.8058376    6.2114391    21.450307    40.173084 
20312000    271.39176    301.55779    281.02685   -4.5610362    6.6250138    20.530942    40.172851 
20316000    267.07521    321.37131    277.12985   -6.4734956    6.7135301    44.241468    40.165182 
20320000    270.08371    316.75324    285.37674    -5.688919    6.1893789    31.376502    40.167089 
20324000    262.41195    299.13028    262.46679    -7.208402    8.1595851     36.66349    40.165167 
20328000    275.05924    316.18283    290.45029   -5.6780464    6.6181117    25.732538    40.168978 
20332000    268.25448     341.5078    258.53249   -8.7825466    6.7241048    82.975305    40.173294 
20336000    276.58569    333.22796    280.18471   -7.2162542    5.4268828     53.04325    40.168043 
20340000    285.70608    325.71851    281.00115   -7.0166613    4.9354404    44.717361    40.170194 
20344000    278.67099    312.88255    289.82616   -6.4340306    4.5688573    23.056385    40.174224 
20348000    284.63802    323.01227    307.81529   -6.2824633    3.1406101    15.196983     40.16846 
20352000    280.50656     316.8906    287.23314   -6.4853102    4.9647254    29.657466    40.168725 
20356000    273.81775    325.61161    272.07478   -7.3492152    5.7783771    53.536831    40.165594 
20360000    275.68115    333.42987    273.87978    -7.666745    5.2810232    59.550092    40.164716 
20364000     285.2845    351.28867    284.84467   -7.3451483    4.5002506    66.443999    40.164405 
20368000    275.43918    311.34144    297.34794   -5.4526134    4.3453276    13.993497    40.156929 
20372000    279.10846    322.49529    287.30041   -6.5527536    5.2126201    35.194875    40.159142 
20376000    281.43031    332.67118    303.58799   -5.8336154    5.3519857    29.083194    40.151734 
20380000    282.06389    324.22696    300.45151   -6.3070997    4.4541649    23.775453    40.152991 
20384000    276.20125    328.67337    281.21339   -7.4987528    5.4780348    47.459981    40.152515 
20388000    274.87321    313.93606    287.60307   -5.8855256    4.6715652    26.332988    40.152458 
20392000    279.79566    316.85205    291.00955    -5.496239    4.7095824    25.842499    40.147822 
20396000    271.70121    315.74578    264.85874   -5.9044142    5.9508396    50.887039    40.155448 
20400000    285.43998    336.60764    292.41711   -7.6223792    4.6666283     44.19053    40.150459 
20404000    268.09434    306.81424    275.80911   -7.1031444    5.7871768    31.005128    40.149172 
20408000    284.38492    346.27885    278.62866   -7.9854907    5.1112872    67.650193     40.14116 
20412000    270.71764    316.28743    273.75364   -6.8206551    6.5655548    42.533795    40.143259 
20416000    281.19073    330.72257    290.98899   -6.7598573    5.1035997    39.733587    40.144998 
20420000    272.41663    314.04979    271.22938   -5.5526957    6.2660366    42.820412    40.147887 
20424000    282.73406    335.75963    282.71177   -6.5050427    5.8301019    53.047859    40.157959 
20428000    271.81734    339.18623    283.05801   -7.0992848    6.0254044    56.128215    40.163606 
20432000    276.06231    304.15907    304.45846   -5.7428258    4.6912768  -0.29938275    40.168295 
20436000    266.61549    286.43202    276.46763   -4.6332386    5.5907658    9.9643882    40.160876 
20440000    268.36408     315.6125    267.85815   -5.2209966    5.9045072    47.754353    40.163036 
20444000    271.94288    345.66044    261.63326   -6.4983045    5.9533569    84.027187    40.167604 
20448000    275.19041     326.2482    268.97893   -5.0525291     7.110149    57.269268    40.166625 
20452000    275.89818     309.1971    279.87403   -6.1344564    5.6811624    29.323062    40.169883 
20456000    280.40492    335.46695    270.53709    -8.285386    6.8833827    64.929868     40.16934 
20460000    276.89564    324.25891    289.77484   -7.6756653    5.3458104    34.484065    40.169962 
20464000    272.31191    313.18752    274.24177   -5.9305077    6.6760228    38.945749    40.173682 
20468000    271.66229    330.13062    265.41118   -7.2377136    7.3233652    64.719446    40.172127 
20472000    269.98671    313.86615    273.72748   -7.6366558    5.5689457    40.138667    40.173789 
20476000    275.73109    307.59897     284.1083   -8.2028513    5.5017592    23.490666    40.178614 
20480000    280.65965    333.46494     286.0265   -9.0887464    5.7468869    47.438443    40.184732 
20484000    270.62219    288.34873    286.43166   -6.0404303    4.2774666    1.9170648    40.177638 
20488000    278.27419    334.29264    291.03656      -7.7522    4.5797399    43.256075    40.179248 
20492000    268.08411    299.92427    276.20599   -5.5841318    6.0002543    23.718272    40.174321 
20496000    279.16872    338.21746    285.30536   -6.7605244    5.0926384    52.912103    40.177331 
20500000    274.81492    323.44893    275.06122   -6.8226915    5.8991809    48.387711    40.179491 
20504000      270.281    324.68511    256.11342   -7.3132497    7.1823044    68.571687    40.175188 
20508000    266.70598    315.21114    258.40471   -7.0129565    6.6932423    56.806435    40.178227 
20512000    276.13035    301.10837    284.24435   -6.4009965    6.0496117     16.86402    40.181424 
20516000    271.77405    302.11765    263.07922   -6.6063004    7.0918003    39.038435    40.177624 
20520000    273.44508    307.38164    284.60128   -7.0894678     5.650806    22.780357    40.181326 
20524000    279.71036    315.11248    292.27439   -6.2234314    5.2033642    22.838086    40.179697 
20528000    272.07732    319.35436    276.55703   -6.7498951    6.6568338    42.797335    40.184222 
20532000    285.13363    321.94196    286.16164   -7.2437497    6.0559058    35.780327    40.185435 
20536000    289.45709    381.79413    265.16489   -10.533389    6.6664812    116.62923    40.185396 
20540000     277.6113    346.23589    269.75724    -8.438364    6.9542815    76.478643     40.18939 
20544000    272.78339    300.56877     267.5966   -6.3374378    5.7609839    32.972168    40.193964 
20548000    271.64948    309.29583    278.44433   -6.5312743     5.705475    30.851496    40.198118 
20552000    273.65253    321.61959    268.36353   -7.6976905    7.0150359    53.256059    40.196392 
20556000    272.18938    308.39938     281.6742   -8.2332475    6.3955033    26.725184    40.199296 
20560000    284.36564    323.36778    306.46732    -8.016181    5.8703771    16.900461     40.19001 
20564000    273.14657    305.89435    286.12455   -6.9638467    7.0758797    19.769798     40.18942 
20568000    275.56163    325.46898    283.67591   -7.8711112    6.4534148    41.793068    40.191961 
20572000    277.87284    344.89572    291.45013   -8.2608611    5.9735776    53.445587    40.192752 
20576000    270.93634    320.41874    255.52186   -6.6418965    7.6005901    64.896877    40.190068 
20580000    276.22032    302.45962    293.95565   -5.8080008    5.5858247    8.5039693    40.182206 
20584000    277.14377    320.89736    286.88236    -6.003878    5.4988465    34.014992    40.182604 
20588000     266.7041    287.33502    277.41233   -4.5674701    6.0760479    9.9226911    40.179948 
20592000    279.19574    323.18272    285.37793   -7.0548699    5.5098012    37.804787    40.183666 
20596000    278.92004    316.82076    299.73713   -5.9221934    5.6712824     17.08363    40.186186 
20600000    273.24326    322.34277    286.44174   -7.1844761    6.5408221     35.90103    40.184711 
20604000    271.27524    323.21987    287.15074   -6.1664681    5.9552679    36.069135    40.183475 
20608000    281.73685    341.89166    278.39471   -6.6986936     7.115347    63.496943    40.180715 
20612000    282.35761    347.09724    299.29986   -10.131476    4.7536293    47.797378    40.177821 
20616000    272.30835    313.14609    268.01629   -6.3584252    6.4793768    45.129807    40.177891 
20620000    271.47586    308.97464    282.25245   -5.2952384    5.6689014    26.722189    40.178949 
20624000    282.60325    317.75694    304.35424   -6.5852767    5.4890208    13.402694    40.174404 
20628000    280.61912     324.1734    274.27652   -8.3913293    5.5502389    49.896881    40.184415 
20632000     275.4815    347.46794    264.74069   -9.5245141    7.1869151    82.727251    40.186476 
20636000    278.44755    301.81285    285.21196   -6.3573709    5.3085049    16.600893    40.187196 
20640000    281.82576    329.79364    293.51241   -8.0309437    4.9973627    36.281231    40.185041 
20644000    283.66904    330.78657    286.74937   -7.1512399    5.0361614    44.037201    40.188519 
20648000      273.081    312.77741    273.07448   -7.8803587    6.0562446    39.702933    40.188446 
20652000     283.7829    310.07218    315.48494    -6.169051    4.9698695   -5.4127533    40.189836 
20656000    280.94191    345.98016    269.70857    -9.515841    7.0498413    76.271583    40.187065 
20660000    281.61255    322.99436    286.40955   -8.2729769    5.5896662    36.584809    40.184882 
20664000    275.58751    318.25923    272.48892   -8.4196421    6.7642343    45.770311    40.185303 
20668000    277.60323     304.1274    302.48326   -7.7621097    5.2796354    1.6441431    40.183332 
20672000    279.93216    330.43483    300.28393   -7.7801964    4.5279741    30.150899    40.187672 
20676000    280.64671    319.95239    282.34616   -7.9659575    5.8592356    37.606226    40.188075 
20680000    271.99603    307.95502    275.48248   -6.1043641    5.9063384    32.472539    40.189673 
20684000     280.1031    323.41666    288.12533   -6.5115285    4.4636322    35.291326    40.191995 
20688000    286.91005    320.65585    286.63477   -7.1802678    6.1004125    34.021074    40.190405 
20692000    286.50395    321.55601    290.39864   -7.0919034    5.7160494    31.157371    40.185721 
20696000    281.57022    314.70194    287.85997   -8.4389146    5.6574533    26.841975    40.189657 
20700000    272.20451    326.37827    262.75371   -8.7102139    6.2974475    63.624567    40.189299 
20704000    277.23703    319.44417    268.13079   -8.5075379    4.7569315    51.313379    40.184121 
20708000    269.47948    295.48755    286.94751    -5.312794    4.4615579    8.5400383    40.175138 
20712000    273.27759    322.74153    263.08559    -7.496726    7.0890051     59.65594    40.180341 
20716000    275.73231    325.19803    253.90736   -8.1401545    7.5514904    71.290664    40.179945 
20720000    278.62146     320.8003    300.19941    -7.702041    4.9332206     20.60089    40.181467 
20724000    276.66732    295.53033    291.03914   -5.3903739    4.8858033    4.4911917    40.180287 
20728000    269.46521    314.50026    271.08646   -6.3806694     7.399821    43.413797    40.175926 
20732000    264.52931    297.06096    259.29676    -6.234046    6.6095386    37.764202    40.181651 
20736000    282.48075    347.57493    288.31138   -7.3099995    6.2794584    59.263551    40.183831 
20740000     273.8927    319.93062    266.57375   -5.9865991    6.2697028    53.356874    40.181446 
20744000    276.79815    324.60195    287.36258   -5.9086755    5.6545122    37.239373    40.175605 
20748000    273.25278     312.7915    277.26697   -6.3449346    6.8000736    35.524525    40.178731 
20752000    271.51986    323.05036    272.41002   -7.0161755    7.0708095    50.640332    40.174286 
20756000    270.99379    311.93875    258.26153    -7.294138    6.8153977    53.677217    40.177085 
20760000    281.20548    325.46462    275.77351   -7.7223412    5.3936317    49.691104    40.177981 
20764000    272.48298    295.72638    283.75877   -6.5500722    4.1912431    11.967602    40.174081 
20768000    272.73711    312.37961    282.84384    -7.091191    4.6843894    29.535765    40.180714 
20772000    274.86334    320.80081    271.06375   -7.5920762    5.9920447    49.737065    40.182594 
20776000    279.04592    340.26376    287.75418   -8.7779587    6.4411042    52.509578    40.182788 
20780000    273.08538    315.81683    265.29735   -6.8890505    6.6898603    50.519477    40.180455 
20784000    284.85876    343.80653    282.66892   -9.2864683    5.1550083    61.137608    40.189364 
20788000    289.22991    337.29755    296.32724   -7.6146529     3.824875    40.970305    40.185271 
20792000    273.15003    308.69072    278.87194    -7.027949    5.2571984    29.818782     40.18008 
20796000    290.23479    342.47183     298.2376   -10.125461    4.2774049    44.234229     40.18911 
20800000    284.27979    326.72307    284.67847   -8.4890039    6.1986356    42.044603    40.192897 
20804000    277.19765    302.92307    293.78652   -5.9543773    5.3529481     9.136547    40.185662 
20808000     268.8763    329.22711    264.05476   -7.4796373    7.0014623    65.172354    40.184334 
20812000    278.04498    326.42265    289.32098   -6.7418392    4.9212836    37.101668     40.18378 
20816000    289.83282    344.57531    302.56498   -8.0255032    4.5552686    42.010329    40.186093 
20820000    271.03707    302.90659    281.23189   -6.0550549    5.3953432    21.674701    40.187158 
20824000    282.97358    337.74975    292.71811   -7.4621403       4.7962    45.031637    40.186205 
20828000    281.40255    345.54197    283.77654   -8.6328099    5.7818249    61.765434     40.18933 
20832000    269.74008    320.57313    267.74594   -6.5306991    6.9750735    52.827183    40.192269 
20836000    275.64544    327.07141      273.057   -7.7032183     6.191754    54.014409    40.194317 
20840000    267.84889    315.36699    271.73772    -7.583819    7.0617479    43.629275    40.195143 
20844000    281.10666    346.70215    280.05692   -8.0305629    6.2852508    66.645226    40.199447 
20848000    270.45024    323.25612    270.51246   -6.7857981    7.3699701    52.743661    40.200115 
20852000    268.16703    291.56618    275.62762   -7.1175379     6.427762    15.938559    40.205665 
20856000     272.3607     299.9918    281.90499   -7.1671981     6.226861    18.086814    40.202624 
20860000    270.26179    314.14704    276.05358   -6.4874664    6.3090078     38.09346    40.206525 
20864000    277.66352    335.45904    296.10227   -7.5429048    6.8392024    39.356766    40.205666 
20868000     285.7276    332.68672    296.45234   -9.8364898     6.831125    36.234384    40.202212 
20872000    283.44225    319.85343    289.73382   -8.6183399    6.1129474    30.119613    40.200196 
20876000     279.7221    325.64965    284.16133    -7.635642    7.2282931    41.488319    40.197465 
20880000    283.51419    329.25344    286.95328   -7.2071298    7.3069518    42.300161    40.198013 
20884000    276.84227    324.78621    279.96921   -7.8628123    6.8927503    44.816999    40.189958 
20888000    269.56861     316.2928     266.6955   -7.9237622    7.7735751    49.597302    40.188886 
20892000    269.01855    302.36327    265.48143   -8.1883584    7.2855799    36.881841    40.192673 
20896000    276.25864    325.23215    298.67359   -8.4751562    6.0142351     26.55856    40.201849 
20900000    284.09607    349.93702    285.72635   -7.6638171    6.7990742    64.210672    40.198172 
20904000    270.44238    316.44099    276.81326   -6.4897969    7.2504894     39.62773    40.191861 
20908000    270.38356    295.89363     285.8882    -6.499314    7.5860373    10.005427    40.185917 
20912000    274.02371    330.23153    281.26752   -6.9124795     6.898924    48.964012    40.188115 
20916000    261.85355    319.80934    266.45245   -7.1712546    8.3143978    53.356888    40.192515 
20920000    279.24342    333.52542    283.92894   -8.0832439    7.5648583    49.596484    40.190956 
20924000     275.0968    308.12097    286.22859   -6.9020249    8.4437876    21.892375    40.184015 
20928000    267.01879    322.24763    266.68222   -6.6910913    8.0852206    55.565407    40.187749 
20932000    284.41516    344.03839    295.73973   -8.2995581    7.4512598    48.298659    40.183819 
20936000    273.16102    312.16281    283.97521    -8.391852    7.2076844    28.187591    40.181728 
20940000    272.88408     331.9226    258.60557   -7.5545459    9.0539953    73.317039    40.191542 
20944000    277.10251    347.78865    267.63523    -9.004909    8.3542789    80.153419    40.193149 
20948000     286.7004    344.80218    304.24488   -8.7632837    7.0123269    40.557296    40.194925 
20952000    278.87286    325.31093    286.34045   -7.6324713    7.3946884    38.970485    40.188563 
20956000    273.80634    331.42975    266.11559    -8.763557    8.4881075    65.314164    40.190143 
20960000    270.20221    320.82051    275.14953   -8.3809604    8.7306111    45.670975     40.18729 
20964000    281.46465    329.98622    297.35119   -7.4930997    6.9717112    32.635036    40.185302 
20968000    268.39496    325.42034       263.19   -6.8391238    8.4438728    62.230338    40.185236 
20972000    275.32883    315.64808    291.18436   -7.0415424    7.1565094    24.463718    40.179216 
20976000    270.39428    298.78873    288.86562   -6.9799571     7.667785    9.9231079    40.180533 
20980000    276.85873    320.47945    284.97744   -8.4503109    6.8327642    35.502014    40.187793 
20984000     284.7153    341.59682    305.58849    -8.268645    6.8062448    36.008332    40.185742 
20988000    266.07667    314.56842    268.58701   -6.4130646     8.888579     45.98141    40.181755 
20992000     279.1218    310.98787    290.42765   -7.4069251    6.7904046    20.560222      40.1722 
20996000    271.51217    332.60346    276.49994   -6.9611295    7.8307376    56.103519    40.175395 
21000000    269.23154    323.13019     275.7809   -6.1683698    8.2723607    47.349281    40.181755 
21004000    269.63259    333.04024    278.15849   -8.0168216    7.4719756    54.881757    40.178728 
21008000    271.97951    310.04001    274.21514   -7.0820959    8.0554058    35.824873    40.180725 
21012000    275.21226    316.43015    309.45167    -6.843299    6.3963497    6.9784802    40.177417 
21016000       282.21    339.62326    296.11751    -8.430758    7.1487676    43.505747    40.173327 
21020000    269.59778     317.7129    286.26978   -9.0213734    7.5653835    31.443124    40.172016 
21024000    273.26205    312.71872    286.75273   -6.7465968    7.3173776    25.965983    40.174683 
21028000    281.96974    341.88617    290.90526   -8.1884255    7.9059614    50.980906    40.176987 
21032000    267.83458    342.93048    262.58314   -8.5361627    7.6665891    80.347346    40.177652 
21036000    275.27177    320.11284    290.69967   -8.5858434    6.9987936    29.413166    40.176542 
21040000    276.63914    309.04326    286.81473   -8.1181203    7.4550297    22.228533    40.179563 
21044000    271.63629    335.56911    269.54168    -9.533178    8.1666022    66.027429    40.182155 
21048000    266.99244    325.24687    262.19429   -8.5508179    8.2835087    63.052575    40.187531 
21052000    271.36391    310.85513    273.07355   -6.8095474    7.5716815    37.781582    40.187526 
21056000    273.64676    311.48311    275.28977    -7.746805    7.3948716    36.193338    40.185679 
21060000      278.812    330.42838    288.77349   -8.8206416    6.4233811    41.654886    40.190839 
21064000    275.32259    340.59553    270.93146   -8.9790796    6.6082914    69.664064    40.197018 
21068000    273.34353    312.06185    270.72904   -8.1931556    7.1480673     41.33281    40.197012 
21072000    268.98914    310.29106    272.59125   -9.3080874    7.3243436    37.699804    40.196548 
21076000    267.54733    300.17929    280.06888   -8.2925509    7.0528559    20.110411    40.196225 
21080000     281.6407    323.60068    283.86532   -7.8988303    6.4402805    39.735358    40.200111 
21084000    269.98874    319.53758     276.6353    -8.253597    6.8904348    42.902278    40.198494 
21088000    277.45245    349.82585     293.9826   -10.586693    6.6662994    55.843244    40.199985 
21092000    272.54076    308.05037     287.4432    -8.323473    7.3005141    20.607169    40.197108 
21096000    271.43828    299.22321    286.13225   -7.9876186    6.9129658    13.090963    40.203843 
21100000    270.50649    311.19253    284.12281   -7.9376464    7.8310827    27.069722    40.205115 
21104000    279.03762    324.39735    285.26395   -7.2708908    7.3910837    39.133399     40.20039 
21108000    278.48636    326.35913    289.69437   -7.5269723     7.278136    36.664755    40.194902 
21112000    275.10784    320.45987    273.89951   -8.6833647    7.9655495    46.560359    40.191724 
21116000    276.28294    342.89906    266.90112   -9.8677906    7.9871184    75.997938    40.189519 
21120000    267.58536    313.65709     258.8574   -6.3441921    8.9891784    54.799688    40.192108 
21124000    274.20562    309.83714    283.69301    -6.642943    8.2801824    26.144131    40.186758 
21128000    278.70776    330.23746      277.016   -7.7551145    8.0477387    53.221455    40.189674 
21132000    278.74984    316.49705     301.1458   -8.0031124    6.3482866    15.351243    40.189016 
21136000    270.54054    326.66812    259.80258   -8.3512579    9.5838123    66.865537    40.189013 
21140000    281.43208    339.69192    277.65382   -8.6724034    8.0497209    62.038099    40.192208 
21144000    278.95877    323.81339    299.71261   -8.1275138    6.9574235    24.100781    40.186082 
21148000    272.13776    308.21719    285.41014   -6.7020605    7.4608888    22.807057    40.188395 
21152000    279.35232    322.80749    296.85643    -6.855058    7.3064089    25.951054    40.190652 
21156000    278.52002    332.38395    285.65767   -6.9101797    7.1564634     46.72628    40.189829 
21160000    273.77705    326.47236    272.01335   -8.1232116    7.6590419    54.459011    40.191599 
21164000     270.5236    325.47698    263.04865   -7.0031641    8.2779429    62.428331    40.193154 
21168000    271.81214    318.83152    260.93186   -9.4139747      8.58204    57.899655    40.192016 
21172000    278.27401    317.03402    286.97331    -7.690581      7.19117    30.060711    40.195278 
21176000    265.66746    307.97436    280.94633   -6.3962195     6.321286    27.028035     40.19071 
21180000    271.92304    314.39616    269.64302   -6.6378795    6.9652959    44.753143    40.189685 
21184000    283.92904    336.38839     295.9441   -8.7272921    6.7200386    40.444296    40.187128 
21188000    278.20994    342.30928    279.09638   -8.6799699    7.5205774    63.212903    40.187258 
21192000    273.51599    327.90301    274.27041   -8.2854324    9.1064021    53.632598    40.183393 
21196000    279.31547    323.53884    304.51535   -8.5566931    6.0023733    19.023489    40.185438 
21200000    269.08681    292.56067    263.22134   -8.4812873    7.1066542    29.339327    40.187784 
21204000    283.27886    322.51241    306.53816    -9.620504    6.2685407    15.974242    40.188275 
21208000    272.02766    301.30275    268.53034   -7.4196601    7.7982846    32.772409    40.192473 
21212000    284.88851    336.65524    290.87536   -8.4705714    7.0413725     45.77988    40.191053 
21216000    286.54778    343.21862    298.46591   -10.108592    6.3127344    44.752709    40.193993 
21220000    270.79559    298.43827    296.68614   -7.5163688    7.7284807    1.7521271    40.197311 
21224000    280.58883    338.72372    281.92761   -9.7971066    7.2120286    56.796108    40.200046 
21228000    285.42666    341.08856    286.34404   -9.9984088    7.4255659    54.744514    40.195036 
21232000    276.59394    331.83132    269.93321   -9.1713824    6.7847602    61.898106    40.196522 
21236000    277.89841    322.96425    275.66188   -8.9989967    6.9187444    47.302371    40.199432 
21240000    276.55074    318.06661    282.15485   -7.0182919    6.2771609    35.911758    40.199627 
21244000    268.68998    300.27003    269.32026   -8.3089054    8.0782695    30.949766    40.200312 
21248000    272.04122    306.93157    286.36688   -7.8778986    6.2701481    20.564683    40.199646 
21252000    280.20133    330.05044    288.70801   -8.5204002    6.4037931    41.342433    40.199452 
21256000    286.30362    340.42592    281.99002   -10.494599    7.1484065    58.435903      40.2004 
21260000    275.96032    301.65128    292.10488   -8.0870311    5.9656123     9.546407    40.197889 
21264000    271.85572    306.71843    271.81495   -7.8005204    7.3850476    34.903478    40.196176 
21268000    268.10593    320.11389    270.83712   -8.2102451    8.2979491    49.276773    40.195051 
21272000     275.8307    327.01275    272.71758   -8.9676805    8.2673474    54.295164    40.203351 
21276000    282.06002    318.70635    285.85985   -9.5134604    7.0793537    32.846496    40.201828 
21280000    278.09506    334.08666    266.37434   -9.6165951    7.5685834    67.712323     40.20284 
21284000    272.27882    350.71336    266.15164    -9.587248    9.0579682    84.561719    40.202813 
21288000    272.27546    307.09789    280.94117   -8.3230357    8.4641291    26.156713    40.199538 
21292000    276.48561     335.2249    275.41924   -8.9738904    8.2880657    59.805665    40.198057 
21296000    273.37935    322.83225    282.35746   -8.0002231    7.6969655    40.474787    40.197344 
21300000    273.62636    312.76796    287.01088   -7.6419387    8.2774708    25.757078    40.197981 
21304000    274.16103    320.04626    272.22028   -8.0776424    8.3154153    47.825981    40.199351 
21308000    273.36231    323.65193     284.8389   -7.3328504    8.3715037    38.813028    40.199953 
21312000    269.49488    306.50939      272.617   -7.6366441    7.8155365    33.892391    40.198664 
21316000    275.14096    330.72931    258.32217   -9.6039259    8.7173911    72.407141    40.200247 
21320000    276.60325    312.61467    290.91366    -7.871266    7.7558995    21.701009    40.204424 
21324000    273.14138     304.3401    296.71741   -6.9270656    7.5178659    7.6226901    40.202636 
21328000    274.30078    325.95169    281.02157   -8.2544177    6.9471409    44.930111    40.205133 
21332000    274.52301    314.07225    269.94448   -9.4012412    8.1060252    44.127774    40.197624 
21336000     276.5783    329.11451    280.87023   -9.0203926    7.5003247    48.244274    40.194675 
21340000     277.3628    312.71067    286.39875    -9.329639    7.1065656    26.311919    40.193853 
21344000     269.8199    305.68212     284.4533   -9.3387191    6.7125207    21.228818    40.191822 
21348000    280.13003    337.15681    271.75123   -9.4264639    8.6559961    65.405577    40.195292 
21352000    273.16753    313.93009    273.52299   -8.9754323    7.4456931      40.4071    40.191221 
21356000    274.60333    321.86625    270.84199    -7.902355    6.8085747    51.024256    40.194424 
21360000    273.10493     301.6112    282.50791   -8.0707838    6.3706972    19.103288    40.198588 
21364000    280.28416    316.19059     304.6121   -8.4011881    5.1988472    11.578494    40.192545 
21368000    277.45808    324.99032    289.00129   -8.1562831    6.6993911    35.989022    40.189535 
21372000    273.66683    311.50427    273.53312    -6.908406    6.9381803     37.97115    40.187784 
21376000    276.21716     310.1136    306.59745   -7.2377884    6.2404538    3.5161495    40.181454 
21380000    273.20244    308.13202     277.7228   -7.3797747    7.2394551    30.409214    40.185464 
21384000    280.55339    317.44489    298.11853   -8.3512103    6.4398751    19.326365    40.187059 
21388000    283.12367    329.16813    294.36331   -8.5240885    6.3379608    34.804829    40.188147 
21392000     269.8313    310.11508    262.14396   -8.9019881    9.2654125    47.971122     40.18307 
21396000    274.07446    320.60318    287.58318    -8.134405    7.2741933    33.019996    40.181765 
21400000    275.07625    324.43221    274.26964   -9.1204419     7.700347    50.162567    40.183705 
21404000    276.63062    311.71148    287.32138   -8.1111224    7.2413789    24.390106    40.178992 
21408000    282.18753    320.22904    289.05499   -8.3749927     6.784093    31.174046    40.180678 
21412000    271.76571    298.15794    285.87073   -8.2959416    7.8370919    12.287202     40.17789 
21416000    277.62301    309.74715    273.80578   -9.6309423    6.0262941     35.94137    40.173989 
21420000    282.23105    312.65869    296.67121   -9.5540984     7.449106    15.987476    40.177566 
21424000    279.86513    330.90459    266.62674   -9.1648004    7.2422393    64.277851    40.176898 
21428000    273.70396    297.98867    288.82485   -8.0137682    7.2888464    9.1638156    40.180277 
21432000    275.29595    320.45104    279.55933   -9.7860344    7.3535902    40.891708    40.178037 
21436000    273.76203    320.29254    272.81879   -9.4941637     8.971264    47.473747    40.177447 
21440000    273.25837    319.04733    277.44294   -9.8456155    9.0162442    41.604391    40.180739 
21444000    272.81425    313.69689    280.13787   -9.0236176    8.2169008    33.559021    40.179914 
21448000    288.60179    345.75023    306.87753    -10.00518    6.1666847    38.872698    40.181505 
21452000    277.32381    327.17523    284.70782   -10.236743    7.3626157    42.467411    40.184593 
21456000    286.33392    322.59464      296.477   -10.197416    7.0827581    26.117639    40.183633 
21460000    277.95881    318.51625    280.84561   -8.1663423    7.5702104    37.670639    40.185881 
21464000    270.65054    282.70395    285.41046   -8.9160835    7.4859421   -2.7065185    40.181849 
21468000    277.69926    331.76485    274.95506   -10.402633    7.7160688     56.80979     40.18111 
21472000    277.94938    331.29347    280.00085    -9.228528    7.5392909    51.292615    40.181656 
21476000    282.73219    341.37925    273.15153   -10.668588     7.535902    68.227718    40.184661 
21480000    277.46364    331.01363    272.18648   -11.612318    7.7561457    58.827154    40.183905 
21484000    291.21176    352.72266    266.92839   -12.877684    8.7455089     85.79427    40.186983 
21488000    277.28127    326.35476    266.28758   -11.011895     8.525799    60.067177    40.184911 
21492000    294.34048    327.59111     316.3084   -11.095228    6.7939704    11.282712    40.185836 
21496000     281.2816     326.2305    274.83538   -11.047053    8.9628103    51.395124    40.186432 
21500000     277.6945    329.51127    277.28187   -11.313198    8.2444498    52.229403    40.188418 
21504000     277.2336     322.7203    286.07272   -10.732303     8.004027     36.64758    40.189088 
21508000    292.03959     344.8486    302.97942   -11.051089    7.0180998     41.86918    40.190202 
21512000    280.87708    329.81138    265.43917   -11.633107    8.1444852    64.372209    40.192489 
21516000    278.05586    315.32114    281.44929   -9.3181707    6.7737185    33.871857    40.196839 
21520000    288.00525    338.39757      275.611   -11.891237    6.8822693    62.786573     40.19891 
21524000    279.90755     338.0347    270.87625   -11.407148    8.2462679    67.158454    40.199528 
21528000    286.53694     327.4162    279.67458   -12.097142    7.8200873    47.741622    40.200742 
21532000    279.26352    322.26873    298.71208   -11.586328    6.7099871    23.556651    40.202925 
21536000    291.72184    343.74804    313.62009   -12.088257    6.9843327    30.127944    40.201693 
21540000    284.88917    335.88446    288.28964   -11.806428    7.1506484    47.594823    40.199539 
21544000    284.04946    337.85761    285.27648   -11.100298    7.7647549    52.581132     40.20024 
21548000    280.78387     302.7021    298.06708   -10.004808    7.3370989    4.6350166    40.198646 
21552000    275.97382    304.54661     283.4744   -9.6597181    6.9173606    21.072205    40.199498 
21556000    278.98208    316.77333    286.89685   -10.804182    8.2967694    29.876477    40.196063 
21560000    274.69802    321.36777    282.73841   -9.6716847    7.2665033    38.629353    40.195069 
21564000    277.80577    301.97586    267.26846   -8.9588423    6.9587801      34.7074    40.195979 
21568000    286.78541    317.49304     289.1429   -9.4524249    7.3040462    28.350133    40.196481 
21572000    274.50004    330.34744    273.64056   -9.9989661    8.0251217    56.706872    40.190638 
21576000    285.07937    323.37115    295.13007   -11.156549    6.8786422     28.24108    40.182972 
21580000    277.71158    306.24248    288.56104   -9.2821887    8.1364732     17.68144    40.180725 
21584000    278.21576    318.45428    260.98475   -9.1411206    8.7661729    57.469534    40.180672 
21588000     285.4468    323.79721    282.79736   -9.7592426    7.9195897    40.999845    40.182428 
21592000    276.30098    332.77015    277.40201   -9.6173744    8.8959232     55.36814    40.179149 
21596000    275.87016    320.15997    277.43028    -10.02511    8.6874582    42.729686     40.18293 
21600000     276.0689    319.26662    275.44661   -10.210528    8.0492209    43.820011    40.186115 
21604000    273.01986     320.5409    263.74496   -8.9683575    8.2280666    56.795939    40.185136 
21608000     268.2764     306.5701    274.36189   -8.0931991    8.2367552    32.208208    40.185205 
21612000     283.8719    339.91651    289.87673   -10.181936    6.7023052    50.039784     40.18687 
21616000    278.62332    323.30376    288.57083   -8.5765076    6.4812124    34.732929    40.186081 
21620000    269.34161     298.7338    262.48823   -9.1004764    8.2838881    36.245572    40.186949 
21624000    279.97498    293.78278     296.4825   -7.8036421    5.9316349   -2.6997193    40.185295 
21628000    282.03847    320.52536    293.25492    -9.518277    6.7016557    27.270441    40.186517 
21632000    277.91331    333.65739    271.93084   -9.0795064    7.6964253     61.72655    40.184478 
21636000    269.66515    321.07182    271.02567    -9.734621    8.1498309    50.046149    40.184381 
21640000    269.42665    305.60258    277.36027   -8.3516121    7.4395916    28.242314    40.183447 
21644000    279.96649    325.65765    281.83031   -8.9984353    6.3607665    43.827346     40.18021 
21648000    278.04321      315.833    284.20433   -8.7939048    7.1076542    31.628672    40.181724 
21652000    277.38825    332.50242     275.9453   -10.552187    7.7338909    56.557123    40.182649 
21656000    281.30435    358.43312    259.52782   -10.830588    8.7667051    98.905296    40.182845 
21660000    274.95246    323.30693    280.02623   -8.6337004    7.3997936    43.280701    40.181977 
21664000    273.11987    327.92881    291.82782   -8.9137667    7.4870805    36.100992    40.178721 
21668000    271.42926    317.76838      278.319   -8.1181118    8.5595436     39.44938    40.177191 
21672000    272.97213    315.38491    284.25326   -7.9402544    8.6147336    31.131646    40.180048 
21676000    281.23634    316.13658    318.21242   -9.1131562    5.6845493   -2.0758333    40.180585 
21680000    267.72632    311.37291    273.15028   -8.0986137    9.7479403    38.222626    40.185517 
21684000    274.80994    332.36565    304.20855   -9.1582972    7.9144176    28.157101      40.1839 
21688000    278.69807    348.71322    274.71547   -9.7599123    9.4428862    73.997753    40.184143 
21692000    275.90783    335.52082    274.17237   -9.7074603    9.2987102    61.348453    40.183414 
21696000    273.01194    316.78231    268.30211   -7.6223666    8.5280581      48.4802    40.184494 
21700000    277.50165    312.20318    313.44095   -7.4900582    7.4401338   -1.2377673    40.184366 
21704000    269.81713    321.08246    288.68165   -7.4008047    9.5512056    32.400811    40.180814 
21708000    279.27486    318.77021     303.3241   -8.2379035    8.4369547     15.44611    40.177475 
21712000    262.00462    323.38166     264.5642   -7.2567839    8.8430023    58.817457    40.179205 
21716000    263.67726     312.4999    251.47038   -6.7362512    9.7247233    61.029511     40.17853 
21720000    270.00931    321.21849    280.14833   -7.1676799    9.5957197    41.070151    40.175392 
21724000    266.62805    307.81837    266.16236   -7.0325704    8.9102934    41.656007    40.172445 
21728000    277.80741     306.9743    291.36675   -7.1765343    8.8493031    15.607542    40.170745 
21732000    269.29631    318.13907    272.89294   -7.7121562    10.225444    45.246131     40.17115 
21736000    266.07849    312.48049    270.65612   -7.6655354     10.16643    41.824373    40.172726 
21740000    274.06691    326.03494    290.67655   -7.1352099    8.4230229    35.358397     40.17306 
21744000    273.39953    309.83289    286.74191   -6.9057677    7.9955832    23.090971     40.17406 
21748000    269.36606    323.14109       281.33   -8.9691751    9.3505541    41.811087     40.17087 
21752000    263.68489    313.06195    279.51351    -7.519525    9.0928745    33.548442    40.169897 
21756000    272.32415    322.09334    294.31932   -7.1989554    7.6383018    27.774022    40.167294 
21760000    272.37999    321.35084    282.42993   -7.8202761    9.1818841    38.920905    40.163662 
21764000     273.4238    341.87162    291.34526   -8.1122909     8.923211    50.526352    40.166278 
21768000     264.8644    290.74405    285.44006   -6.0401603    8.9024767    5.3039905    40.169669 
21772000    272.25564    337.51006    271.77116   -8.7381152    9.5682338    65.738899    40.169237 
21776000    268.86847    312.99139    276.62167   -6.3155015      9.13006    36.369721    40.169323 
21780000    275.12598    335.96772    291.38774   -8.4765171    8.7811913    44.579976    40.170201 
21784000    275.17091    346.70543    290.25247   -9.5994517    9.0791287    56.452959     40.17722 
21788000    269.27032     310.8818      297.022   -8.9430481    9.4936641    13.859802    40.175191 
21792000     277.5385     335.6752    296.85344   -9.7354877    8.5824605    38.821761     40.18022 
21796000    266.02179    314.52493    275.46176   -8.1594819    9.0647551    39.063171    40.180964 
21800000    274.31908    327.60633    284.47628    -7.619363    9.1884776    43.130056    40.181815 
21804000    262.25675    290.87929    281.49904   -7.0302935    9.7646173    9.3802498    40.178846 
21808000     269.0119    311.70527    263.49709   -8.1954721     10.55493    48.208186    40.172901 
21812000     269.3271    284.23336    302.91156   -8.3240912    7.5837278   -18.678196    40.172212 
21816000     266.7843    316.31807    278.92558   -9.2034291    9.6232745     37.39249    40.171166 
21820000    266.62059    321.02359    268.95272   -8.8696877    10.092517    52.070867    40.174257 
21824000      269.623    344.20766    261.99171   -11.354303    10.552089     82.21595    40.178372 
21828000    271.25828    312.36477    260.84733   -10.159497    10.114967    51.517443    40.178515 
21832000    257.44924    287.69575    256.54797   -8.5890318    10.795526    31.147777    40.175308 
21836000    272.02802    316.26408    289.05535   -10.426478    10.099542    27.208734      40.1741 
21840000    270.04979    329.04784    289.19504   -9.9222016    10.082226    39.852795    40.177628 
21844000    264.99053    315.85645    266.65478   -9.7523848    10.738819    49.201667    40.178492 
21848000    262.29892    311.15463    257.12511   -8.6712634    10.161289    54.029522    40.180546 
21852000    276.28653    314.53862    294.46958   -8.5122365    8.8471553    20.069043    40.183778 
21856000    271.80672    332.20996    272.79507   -9.7130383    10.391062    59.414888    40.184634 
21860000    284.25755    348.11071    280.42313   -11.079935    9.6734727     67.68758    40.178954 
21864000    276.45459    319.75655    293.63137   -11.080149    8.9159163    26.125181    40.179344 
21868000    274.07949    313.31871    271.36666   -10.512819     10.23549    41.952056    40.177731 
21872000    276.44336    306.60839    294.08593   -10.615531    9.5417158    12.522459    40.180698 
21876000    277.09751    321.18692    284.87514   -10.407268    9.0345763     36.31178    40.180754 
21880000    277.11612    305.04293    288.78512   -10.262447    8.9312317    16.257806    40.178542 
21884000     276.5563    322.98473    290.03053   -11.459524    9.5488054    32.954207    40.178329 
21888000    282.18839    343.24661    292.37833   -10.017461    9.0373146    50.868284    40.174827 
21892000    272.95927    312.50926     289.8613   -8.7399677    9.4803815    22.647958     40.17517 
21896000    267.51552    308.78707     277.3116   -8.6521009    9.4287923    31.475478    40.176271 
21900000    269.97843    320.82047    272.16149   -9.6345921    9.5501691     48.65898    40.177619 
21904000    269.59073    325.20328    277.09819   -10.302928    8.5565652    48.105092    40.176451 
21908000    272.73493    308.63152      271.048   -9.1835607    9.4006788     37.58352    40.176176 
21912000    267.39102    309.28353    289.06196    -8.850795    8.9778296    20.221573    40.174319 
21916000    274.84669    335.37404    275.54728   -10.775435    8.8858604    59.826758    40.175001 
21920000    269.33026    302.79588    293.49077   -8.8339443    8.8183855    9.3051075    40.180988 
21924000    266.32042    313.77137    266.61907   -9.1653934    10.422579      47.1523    40.183088 
21928000    265.54879    316.74874    283.84485   -8.9701696    10.010754    32.903887    40.180276 
21932000     277.0945     335.9988     292.5019   -10.356687     9.817438    43.496901    40.176704 
21936000    267.42005    340.73171    265.57026   -10.099488    10.687571     75.16145     40.17381 
21940000     262.4163    306.17319    289.30884   -8.4813827    9.4571465    16.864355     40.17319 
21944000    267.24609    300.63336    276.10607   -7.3066396    10.626601    24.527294    40.172282 
21948000    268.17255    312.65706    286.10932   -10.005439    8.0103702    26.547741    40.168635 
21952000    268.03212    324.09046    289.30856   -8.5649673    9.2406342    34.781904    40.171379 
21956000    272.64795    335.97686    265.41558   -9.7286354    9.3048301    70.561282    40.171387 
21960000    260.21588    308.68594     263.3554   -8.2158704    9.7334173    45.330546     40.17031 
21964000    269.09015    303.37904    291.87574   -7.6224623    8.3150803    11.503296    40.170524 
21968000    272.86216    318.73065    291.68858   -9.2818508    8.8897288    27.042074    40.171048 
21972000    266.70865    334.23119     258.2853   -9.4809554    11.607438    75.945885    40.172631 
21976000    269.60688    323.81483    280.10993   -8.3578588    10.256175    43.704903    40.170785 
21980000    263.34831    317.35748    283.01255    -8.000282    9.9171795    34.344934    40.166837 
21984000    269.08354    314.13338    294.66654   -8.8864047       9.7226    19.466832    40.168802 
21988000    267.63999    331.50035    280.72364   -8.5673515    10.017734    50.776711    40.169926 
21992000    265.89998    320.75369    287.42234    -8.233444    9.5701976    33.331344    40.171553 
21996000    264.00334    304.60818    273.34827   -8.7737319    10.887147    31.259908    40.173641 
22000000    270.01411    326.19024    287.24024   -8.4958096    9.6596018    38.949996    40.177088 
22004000    277.12129    331.35366     285.5594   -9.6823638    10.565482    45.794252    40.175092 
22008000    273.98835    328.02738    299.09836   -7.8526396    9.3626351    28.929013    40.171669 
22012000    258.91894    301.75097    261.74137   -7.9531582    10.699476      40.0096     40.17303 
22016000    265.29437    301.94859    263.52988   -9.2299444    10.078928    38.418715    40.167138 
22020000    276.60601    333.74351     285.6039    -10.88567    10.069813    48.139607    40.166427 
22024000    268.76339     319.1428    268.33769   -10.611407    10.812272    50.805107    40.167683 
22028000    276.02998    342.74085    290.15545    -11.17939    9.9528521    52.585397    40.169273 
22032000    280.91326    324.80976    307.35891    -10.73582    7.6370909    17.450848    40.169356 
22036000    274.57653    314.15789    294.33163   -9.9623985    9.7611971    19.826253    40.171945 
22040000    272.88255    301.11478    285.22159   -8.7645319    11.153111    15.893191     40.17103 
22044000    279.33734    323.46551    287.26635   -10.104518    8.6030941    36.199158    40.171338 
22048000     275.5819     301.3344    300.12898   -8.8249584    9.5149774    1.2054142    40.170206 
22052000    270.24403    316.00048    288.75601   -11.579791    9.8780383    27.244476    40.168755 
22056000    268.53983    306.73275    286.40594    -10.45103    10.224017    20.326804    40.163878 
22060000    264.36342     304.8442    269.28948   -9.7808682    11.223113    35.554717    40.160571 
22064000    267.48543    322.70768    263.97922   -10.970591    10.645128    58.728465    40.159586 
22068000    265.64919    311.50816     255.9489   -9.8198711    10.870579     55.55926    40.159764 
22072000    275.16009    330.47101    279.43548   -11.091226    10.165941    51.035533    40.162471 
22076000    270.62207    304.04419    292.43404   -9.9980097    9.2252929    11.610154     40.15732 
22080000    282.92589    340.60166    277.80837   -10.001783    9.8983237    62.793288    40.158118 
22084000    277.78355    321.01855    291.60579   -9.4484951    8.4181409    29.412758    40.153946 
22088000    279.48517    325.74999     271.7287   -10.216218    9.5658771    54.021291    40.155259 
22092000    273.77309    310.66968    275.84412   -11.095944    10.360567    34.825555    40.154361 
22096000    275.84879    297.01915    304.26162   -9.0650187     8.505537   -7.2424689    40.153752 
22100000    270.56258    322.31995    252.99265   -10.700706    10.312146    69.327299    40.150774 
22104000    267.47845    317.25344    273.22641   -9.7485091    9.6669553    44.027029    40.154034 
22108000    274.00115    322.37236    278.68357   -10.501372    9.0231207    43.688788    40.153245 
22112000    273.68792    319.54086    282.04022   -10.696955    9.2493755    37.500644    40.149968 
22116000    278.07262    313.31409    281.88967   -10.288044    10.197538    31.424419    40.150346 
22120000    286.83441    346.56244    298.01878    -11.85605    9.7930938    48.543661    40.155632 
22124000    269.98206    329.43505    263.80475   -10.764344    11.578142    65.630308    40.157322 
22128000    268.46281    304.83994    283.41208   -9.1733031    10.680985    21.427864    40.161046 
22132000    269.54779    309.30149    295.77117   -10.284705    9.7687994    13.530326    40.157459 
22136000    270.17754    323.35892     279.0071   -9.9122926    9.9137671    44.351818    40.155615 
22140000    263.59372    309.65022    270.63886   -9.5374715     10.70825    39.011364    40.153362 
22144000    271.85713    312.36157    272.71939   -9.2270621     11.68778    39.642177    40.154469 
22148000    268.90798    328.83186    288.57477   -9.7681934    11.268157    40.257093    40.155459 
22152000    276.14943    317.49929    284.85213   -9.2420481    10.928337    32.647167    40.157465 
22156000    272.06493    325.57158    275.09762   -9.3417533    10.040515     50.47396    40.154306 
22160000    278.82686    341.47363    289.26037    -9.628789     10.00494    52.213258    40.156904 
22164000    270.17945    302.67469    281.69332   -8.8448955    10.290958    20.981365     40.15763 
22168000    266.82554    324.82705    270.00213   -9.7574387    11.111086    54.824916    40.158713 
22172000     276.2639    323.87399    274.35586   -9.4249053    10.446411    49.518133    40.164193 
22176000    279.63067    338.64962    293.04669   -9.9696001     10.00115    45.602933    40.169669 
22180000     270.9149    315.96978    274.56219   -9.0150635    10.914801    41.407598    40.169678 
22184000    259.22468    308.67846    273.17068   -9.0879126    10.786053    35.507782    40.170487 
22188000    268.62744    326.21527    271.97557    -10.60987    10.801629    54.239706     40.17387 
22192000    270.92522    324.09406    276.42969   -10.311066    10.913566    47.664371    40.178272 
22196000    272.80179    346.96999    253.25024   -9.6746854    11.108642    93.719751    40.176664 
22200000    270.76958     322.8646    294.83755   -9.3641511    9.7298495    28.027049    40.176701 
22204000    270.64537    328.97903    259.84633   -9.3061602    11.165517    69.132705    40.176733 
22208000    267.81413    305.43909     286.6416    -8.774046    11.037796    18.797488    40.172271 
22212000    275.21069    326.49019    301.94185   -9.5978071    10.025608    24.548333     40.17149 
22216000    271.22349    307.39328    295.25685   -9.0250684    9.5496256    12.136437    40.171449 
22220000    267.10063      328.029    267.85412   -9.3788782    11.678015    60.174874    40.171977 
22224000    272.44868    315.99521    284.40704   -9.4638714    10.501138    31.588174    40.170137 
22228000    277.76311    328.50567    303.03926   -9.9963139    9.6160163    25.466414    40.167645 
22232000    279.70085    322.45048    285.54946   -10.431911    9.3496384     36.90102    40.164794 
22236000    272.19605    308.54407    284.41464   -9.6137618    10.127096    24.129433    40.164289 
22240000    266.68857    319.74575    263.30218   -8.9296177    11.044219    56.443567    40.163425 
22244000    265.25103    320.97862    274.19067   -10.240325    9.8692519    46.787953    40.164187 
22248000    276.80945    317.89225    296.16381   -10.198016    9.5797108    21.728442    40.164098 
22252000    273.46214    311.06385     301.7786   -11.254975    7.7530656    9.2852469    40.166095 
22256000    272.85096    335.80572    262.23085   -11.854012    10.946697    73.574863    40.164215 
22260000    269.40549    324.75457    278.36848   -11.012224     11.06225    46.386081    40.162759 
22264000    268.12277    295.36411    289.05657   -9.8897764    9.4988114    6.3075325    40.160201 
22268000    282.89491    339.93265    280.84796   -10.514248    10.108873    59.084694    40.159478 
22272000    279.59316     330.5528    284.46397   -10.063274    11.369017    46.088833    40.162526 
22276000    272.23664    326.93087    281.99205   -10.580818    11.259315    44.938823     40.16262 
22280000    269.52401    303.48833    271.65673   -9.1895007    11.603551    31.831598    40.166399 
22284000    269.55209    323.47855    275.47935   -9.7063865    11.764164      47.9992    40.164935 
22288000    269.25118    317.63504    289.95607   -9.6871961    11.824955    27.678971    40.163452 
22292000    274.19068    337.74551    278.61376   -11.978827    12.945285     59.13175     40.16256 
22296000    273.75913    337.48968    272.75669   -10.492603    12.545607    64.732997    40.165817 
22300000    262.44561    296.97481    274.58314   -9.3418678    12.586282    22.391673    40.165666 
22304000    265.96833    330.47143    267.06667   -11.200853    13.050641    63.404758    40.168441 
22308000    278.76945    319.97381    290.40017   -11.327745    11.524029    29.573636    40.169535 
22312000    273.79348    324.82488    283.62894   -11.391048    11.294519    41.195935    40.169171 
22316000    271.64743    319.42545    292.24011   -10.284456     11.32647    27.185341    40.170891 
22320000    271.70619    324.72847    283.52683   -11.169022    11.764224    41.201642    40.171099 
22324000    278.04668    335.87757    277.21131   -12.095561    10.691686     58.66626      40.1772 
22328000    272.12972    322.38912    291.32222   -11.409076    11.117305    31.066908    40.175113 
22332000    271.12347    319.78714    275.63805   -10.743385    11.516217    44.149081    40.177829 
22336000    275.58785    335.38034    284.77995   -12.530845    11.668746    50.600385    40.176146 
22340000    276.41203    325.30816    292.85873   -11.844374    10.172509    32.449429    40.175595 
22344000    267.57559    326.55505    268.96489   -11.634474    11.420245    57.590165    40.177063 
22348000     268.1747    322.42099    264.93012   -11.072061     11.51408     57.49087    40.180469 
22352000    275.34727    307.26505     290.9475   -10.222202    10.851148     16.31755    40.179231 
22356000     262.1643    304.02307     257.7331   -9.3217743    11.853923    46.289976    40.178246 
22360000    269.26272    328.82993    285.98038   -11.444545    12.433025    42.849553    40.182301 
22364000    267.52129    321.72285    274.44014   -10.805317    11.047113    47.282711    40.182777 
22368000    274.31809    311.31695    280.06704   -9.9936267    10.852457    31.249912    40.176697 
22372000    271.91255    311.38926    301.59309   -11.016638    10.884524    9.7961731    40.172738 
22376000    266.75339    307.80667     269.8798   -10.501613    12.099265    37.926873    40.171573 
22380000    288.38546    350.47346    312.20657   -13.078653    8.5676079    38.266889    40.175439 
22384000    272.55756    310.39895    272.74982   -10.935082    11.487693    37.649133    40.170679 
22388000    270.37604    332.49391    269.82856   -10.663924    11.049911    62.665344    40.168834 
22392000    273.34041    317.37223    281.57662   -9.5934019    11.048184    35.795611    40.173152 
22396000    267.16964    321.54695    253.57178   -10.409464    12.367804    67.975169    40.175097 
22400000    266.17559    313.85367    272.91578   -10.940666    10.944735    40.937885    40.173182 
22404000    273.76991    334.34861    280.53569   -10.842487     10.89672    53.812913     40.17373 
22408000     275.4987    343.07271     293.0356   -11.656924    10.661177    50.037113    40.175537 
22412000    271.32796    312.48362    285.95436   -8.9599639    11.447002    26.529263    40.170541 
22416000    275.95377    332.21854    293.03243   -10.121112    10.108198    39.186115    40.166361 
22420000    262.96473    298.57864    288.21663   -9.4377421    11.182346    10.362015    40.167996 
22424000    280.00675     322.7433    304.38911   -9.6679746    9.7814569    18.354191    40.169097 
22428000     272.0445    317.59485    272.83664   -9.8135551    11.194778    44.758217    40.170052 
22432000    264.52237     294.0136    284.57131   -8.9165815    11.225969     9.442292    40.170004 
22436000    260.38152    305.38149    264.12212   -10.929805    12.579201    41.259378    40.167578 
22440000    273.80167     335.5092    285.91963   -11.942549    11.304675    49.589567     40.16647 
22444000    273.91698    339.75836    279.13089   -12.476259    11.578664     60.62747    40.169037 
22448000    266.22132    326.74425      269.884   -12.046684    12.181964    56.860254    40.169186 
22452000    270.89376    325.96887    303.15359   -11.549175     10.39136    22.815284    40.168702 
22456000     272.1486    334.01239      288.862   -11.631465     10.42729    45.150384    40.168472 
22460000    272.75026    331.36973    273.07066    -10.97443    11.391832    58.299077    40.167838 
22464000    262.09998    312.59781    270.90611   -10.577471    12.673622    41.691707    40.171092 
22468000    274.14926    321.47119    295.88551   -12.060446    11.640561    25.585681     40.17052 
22472000    268.35948    307.33665    284.95194   -10.767987    11.191052     22.38471    40.170808 
22476000     274.9836    334.28081    277.53384    -10.55475    11.997518    56.746974    40.171871 
22480000     268.7625    310.76094     286.5637   -10.880286    11.620611    24.197236    40.174204 
22484000    273.74445    311.76411    294.09016   -10.243529    10.079804    17.673951    40.175765 
22488000    268.17072    316.99514    282.15438   -10.538934    11.279477    34.840764    40.177538 
22492000     268.5021    307.02198    288.71186    -10.78563    9.7982302     18.31012     40.17755 
22496000    264.26202    322.94234    273.88693   -12.278861    10.538877    49.055412    40.180535 
22500000    275.49969    331.00564    280.90503   -11.931935    12.030184    50.100608    40.179323 
22504000    282.18154    334.53082    291.26296   -11.879642    10.763889    43.267854    40.181948 
22508000    272.48727    315.99254    286.20436   -10.791399    10.494039    29.788184    40.182423 
22512000    272.51609    312.67006     281.8225   -12.106544    10.641967    30.847553    40.182745 
22516000    275.51417    329.16418     285.3444   -13.329572    10.430514    43.819777    40.185068 
22520000    264.29257    310.41462    262.08015   -11.785277    11.934209    48.334477    40.187294 
22524000    271.78423    299.35635    297.91448   -11.247427    10.776214    1.4418776     40.18324 
22528000    271.42717    325.70802    277.90547   -11.380589    11.300187    47.802547    40.183225 
22532000    278.82276    331.58062    290.29995   -10.601612    11.940003     41.28067    40.183309 
22536000    279.53573    358.68226     279.3702   -14.162689    11.588894    79.312063    40.182435 
22540000    277.53366    331.31847    283.33371   -11.148799    10.507258     47.98476    40.182784 
22544000    281.07148    349.58295    281.63337   -12.951351    10.622791    67.949574    40.182851 
22548000    267.40075    313.61991    272.19597   -11.258797    12.550221    41.423933    40.183617 
22552000     265.6479    323.99894    264.66054   -11.402869    12.151095    59.338395    40.189001 
22556000    281.37846     308.8048     302.3751   -11.468093    10.443936    6.4296993    40.188743 
22560000    267.92885     299.4657     302.8002   -10.697036    9.6895692   -3.3344922    40.188342 
22564000    267.02831    309.35383    270.04672   -10.816633    11.649032    39.307104    40.186924 
22568000    272.04279     328.8568    282.37064    -11.62173    11.717666     46.48616    40.187996 
22572000    274.52013    330.33833    273.83487   -11.919479    12.268528    56.503468     40.19282 
22576000    269.10973    328.24284    272.52386   -11.952554    11.071572    55.718978    40.192555 
22580000    273.80522    321.36464    275.95281   -11.572975    11.191818    45.411821    40.194117 
22584000    280.51202    329.93439    290.11062   -11.415218    11.396625    39.823769    40.196587 
22588000     278.7716    331.50383     283.0754   -11.947977    10.905578    48.428433    40.200235 
22592000    279.51761    329.75773    297.62073   -11.996693    9.7678055    32.137002    40.198604 
22596000    276.64565    315.95411    284.19507   -10.897209    11.458791    31.759043    40.200872 
22600000    274.34341    320.15209    270.67921     -11.9187    11.902669     49.47288    40.200349 
22604000    277.67741    331.85228    283.80567   -12.332663    11.220181    48.046618    40.200779 
22608000    263.99548    307.45845    275.39418   -10.863025    13.025001    32.064266    40.201015 
22612000    279.57954    329.12397    294.13936   -12.771363     12.11438    34.984614    40.201687 
22616000    278.97312    314.26574    288.40871   -11.822687    11.676221    25.857027    40.201011 
22620000    273.04105    301.16182    285.41276   -11.566633    10.944073    15.749062     40.19884 
22624000    271.47458    322.10007    287.73585   -11.926281    10.532637    34.364218    40.194961 
22628000    272.31559    317.08706    276.61551   -11.572343     11.12115     40.47155    40.196185 
22632000    274.50695    352.58639    272.69209    -12.15507     12.08518    79.894292    40.196353 
22636000    277.72202    343.27093    278.63845   -12.715367    11.677852    64.632483    40.197078 
22640000    264.27424    307.64894    281.89035   -10.533105    12.432912    25.758585     40.20002 
22644000     280.5238    338.26201    312.00828   -11.600647    11.241152    26.253727    40.198578 
22648000     277.6722    322.41816    297.39654    -11.87218    11.343001    25.021618    40.198196 
22652000    269.47053     320.3008    291.81832   -11.021396     11.07169    28.482476    40.197728 
22656000    272.16923    330.88381    279.11723   -10.919181    10.797297    51.766576     40.19852 
22660000    274.10849    310.80443    299.24552   -10.370977    11.592519    11.558908     40.19547 
22664000    271.76389     337.1614     270.4525    -11.44675    12.679836    66.708895    40.198194 
22668000    262.85385    313.91017    264.44199   -11.474773    12.347856    49.468183    40.202392 
22672000     270.7779    329.29287    272.01768   -12.705995    13.374635    57.275181    40.204264 
22676000    274.26917    288.87497    297.17434   -10.846602    10.544429   -8.2993675    40.202572 
22680000    274.36314    316.49561      274.718   -11.580108    13.384664    41.777616    40.202948 
22684000    272.12891    331.27399     295.0322   -12.745315    12.194259    36.241785    40.201226 
22688000    267.66355    327.96176    261.31071   -12.846008    13.288881    66.651045    40.201289 
22692000    266.20182    314.57316     260.5078   -12.149079    13.336059    54.065361    40.201625 
22696000    268.19737    312.24065    271.80177   -10.875917    12.365171    40.438874     40.20164 
22700000    265.97587    306.45805      286.598   -11.024226    11.940227    19.860058    40.197227 
22704000    277.59467    331.59799    289.28191   -11.116427    11.348599    42.316081    40.198086 
22708000    267.44517     304.5094    278.62695   -9.7755858    12.618824    25.882445    40.195636 
22712000     268.9094    312.28364    271.06852   -10.057519    12.523327    41.215124    40.198543 
22716000    272.24895    316.59537    291.49787   -10.516004    10.174461    25.097502    40.194777 
22720000    264.09362    308.39817    285.33218   -10.930097     10.66073    23.065991    40.194908 
22724000    263.24648    296.84225    267.77403   -10.145426    11.265636    29.068217    40.197787 
22728000    268.04227    316.10657    286.56427   -10.670064    12.117582    29.542296    40.199916 
22732000    276.14916    338.80362    278.27869   -12.079277    13.112598     60.52493    40.202036 
22736000      275.666    308.37935    289.66133   -11.094989    12.479705    18.718026    40.205889 
22740000    269.14444    327.60184    271.54389   -10.843516    12.459664    56.057948    40.207754 
22744000    272.44381    310.73613    297.00953   -11.224605    9.8867426    13.726595    40.207679 
22748000     278.3007    325.27297    288.34145    -11.33087    10.654911    36.931523     40.20383 
22752000    269.98458    322.12345    282.63321   -9.3139853    12.208346    39.490236    40.203406 
22756000    270.90398    327.02307    282.47412   -10.577398    10.774112    44.548953    40.206454 
22760000    269.38525    304.10229    302.72901   -10.508375    10.210629    1.3732762    40.204575 
22764000    266.88915    312.13338    268.14675   -10.396309    11.851322    43.986634    40.203829 
22768000    268.61351    309.94995    281.92805   -9.9040901    11.280463    28.021902    40.205826 
22772000    273.59271    317.47974    287.71912   -9.8857444    11.228323    29.760626    40.207516 
22776000    261.58097     305.9217    268.68622   -10.624762    11.821177    37.235472    40.207026 
22780000    275.08014    332.52731    296.84043   -10.443483    10.946329    35.686883    40.208746 
22784000    270.70234    321.42948    285.51442   -12.097698    11.656626    35.915059    40.208634 
22788000     280.0993    314.20213    296.05862   -12.452246    11.227016    18.143509    40.209857 
22792000    277.52869    331.81425    284.11062   -12.767584    11.425867    47.703631    40.209219 
22796000     268.6873    307.58808    278.26127   -11.551105    11.108328    29.326814    40.210634 
22800000     278.7398    336.30028    275.70249   -13.794035    12.312056    60.597782    40.212285 
22804000    276.08683      310.265    281.85591   -11.367376    11.586901    28.409094    40.213782 
22808000    272.71829    304.13132    281.97671   -11.028928    11.786303    22.154611    40.212785 
22812000    274.50031    332.88895     276.1553   -12.948998     12.45047    56.733651     40.21022 
22816000    272.32036    299.11926    268.38204   -11.756038    12.734928    30.737222    40.212829 
22820000      268.892    298.77845     288.7062   -12.085029    11.843965    10.072254    40.210224 
22824000    284.70226    335.27916    293.59045   -13.267031    12.252623     41.68872     40.21005 
22828000    278.03481    329.13165    291.43481    -14.30227    11.480388    37.696845    40.212463 
22832000     278.7739    339.20018    283.25699   -12.956008    11.400776    55.943193    40.215133 
22836000    275.69957    327.88678    282.88925   -13.407713    12.308455    44.997531    40.214444 
22840000    274.28922    327.75298    274.43908   -12.730505    12.786694    53.313906    40.216439 
22844000      269.954    321.26463    261.34281   -13.814298    12.784877    59.921822    40.219413 
22848000    274.69995     329.0663    287.57408   -12.624468    11.455903    41.492223    40.215718 
22852000    274.78768    332.31618    272.84768   -13.456026    11.044842    59.468498    40.217632 
22856000    278.04125    326.01685    270.08441   -12.877623    12.375722    55.932446    40.222082 
22860000    274.96627    307.41619    277.21106   -11.496887     11.23964     30.20512    40.223391 
22864000    271.65719    315.34905    277.66413   -11.992733    12.657708     37.68492     40.22177 
22868000    274.23367    315.66708    288.48983   -11.888288    11.593543    27.177259    40.218384 
22872000    268.73379    302.33034    284.73854   -11.259275     10.09044    17.591801     40.21735 
22876000    277.78151    329.97335    283.07139   -12.814687    11.447575    46.901959     40.21791 
22880000    278.96129    323.58499    292.78965   -12.257384    10.621123    30.795335    40.215638 
22884000    272.33068    325.10375    261.22472   -13.595757    12.885531    63.879035    40.213793 
22888000    272.23475     307.1119    277.48835    -13.32598    12.089162    29.623555    40.211555 
22892000     281.3278    337.31826    273.34505   -14.676855     12.26801    63.973213    40.211149 
22896000    272.46282    318.20497    269.16808    -12.49708    11.980218    49.036888    40.210073 
22900000    278.11842    315.58029     289.8015   -11.773191    10.076314     25.77879    40.207498 
22904000    275.17495    303.24127    294.86889   -12.262563    11.213638    8.3723797    40.208207 
22908000     272.6594    314.51935     278.3074   -12.458114    10.890986    36.211957    40.208233 
22912000    273.14858    313.95307    268.39056   -11.560608    11.881145     45.56251    40.208288 
22916000     274.4893    324.90605     272.3093     -12.3555    11.940982    52.596755     40.21208 
22920000    271.00645    308.26436    278.42245   -11.641918    11.365266    29.841908    40.212231 
22924000    273.60168    322.93897     261.3017   -12.344513     13.20346    61.637269    40.216067 
22928000    281.12671    330.39735     279.2708   -12.360117    10.909591    51.126553    40.218476 
22932000    286.33242      338.165    282.92929    -11.88017    11.211404    55.235717    40.217485 
22936000    270.91549    315.36956    258.92707   -11.768585    11.224141     56.44249    40.214806 
22940000    277.59608    311.17914    288.66423   -11.594697    10.994933    22.514908    40.212857 
22944000    277.27673    326.35201    294.50161   -11.263633    9.7256499    31.850399    40.206758 
22948000    287.96588    358.31301    283.82862   -12.805204    9.7598195    74.484383    40.205453 
22952000    268.03353    304.52898    268.56812   -10.968647    10.760181    35.960861    40.204948 
22956000    278.85628    342.86848    275.61311    -12.62402    10.445023     67.25537    40.206908 
22960000    269.74979    300.84401    275.79148   -12.145891    10.686689    25.052523    40.205248 
22964000    285.33891    325.73483    279.69239   -12.052636    9.7288068    46.042444    40.206063 
22968000     274.7412    329.38097     262.0333   -12.008982    10.040511    67.347668    40.205245 
22972000    284.49408    303.26705    301.60754    -11.94747    8.9244335    1.6595121    40.203979 
22976000    269.99771    302.87538    283.84832   -11.233706    10.749263    19.027064    40.205777 
22980000    281.00612     355.6395     272.2804   -13.180412    11.845117    83.359108    40.208017 
22984000    277.98158    319.33423    266.47003   -11.628587    10.322196    52.864192    40.205565 
22988000    280.99211    332.84939      276.321   -12.368936    8.9403128    56.528394    40.206806 
22992000    276.78178    322.27919    283.12065     -12.4412    10.135435    39.158534    40.206313 
22996000    274.33453    344.11585    277.80297   -12.860645    11.188875    66.312885    40.207012 
23000000    281.61801    326.11277    289.37742   -12.213896    9.9356217    36.735349    40.206938 
23004000    275.78849    318.15167    275.91874   -10.804159    11.106623    42.232926    40.202795 
23008000     284.2346    330.70828    304.38168   -12.668996     9.991235    26.326605      40.2032 
23012000    267.85241    297.78469    285.93832   -10.373465    10.748357    11.846374    40.204954 
23016000    270.85755    304.68591    278.31698   -10.792217     10.37479    26.368933    40.205857 
23020000    276.99979    329.59083    269.67118   -12.698344    10.623687    59.919641    40.205532 
23024000    275.06354    315.29717    285.17757   -12.654781    10.154197    30.119594    40.202511 
23028000    276.52703    336.75554     270.2447   -13.302215    12.058679    66.510839    40.197032 
23032000    275.02015    323.63663    278.23797   -12.705729     11.25958    45.398664    40.193334 
23036000    274.12262    324.28527    278.61914   -11.949938    12.025296     45.66613    40.194862 
23040000    273.05347    323.15767    275.56195   -13.668661    11.708037    47.595717    40.195633 
23044000    277.59777    317.51219    274.84685   -11.992804    11.531734    42.665341    40.197604 
23048000    274.72498    322.02289    288.91761   -12.177334    11.419869    33.105283     40.19645 
23052000    280.06161    338.18153    282.01103   -12.256516    10.830357    56.170502    40.196555 
23056000    265.32466    313.97246    268.04765   -11.280722     12.92412    45.924812    40.191921 
23060000    260.62339    320.38216    247.41373   -12.841476    13.418244     72.96843    40.193236 
23064000    266.95404    326.68789    280.58633    -12.65928    12.995855    46.101559    40.189256 
23068000    266.72556    312.01068    278.71056   -10.967528      13.4528    33.300121    40.193712 
23072000    262.84913    307.63914    270.19134   -10.895977    13.016405    37.447797    40.193945 
23076000    272.34235    332.66862    263.13355   -13.009427    13.581225     69.53507    40.193955 
23080000    271.03251     306.9761    263.67105   -10.669703    13.822507    43.305051    40.195261 
23084000    283.77533     326.6829    298.70581   -11.326309    11.483617    27.977096    40.194123 
23088000    287.01209    338.98019    310.26785   -12.447713    11.334365    28.712343    40.194303 
23092000    268.29571    328.02159    266.41066   -12.555393    12.752643    61.610928    40.192803 
23096000    266.92431    312.03057    272.70692   -11.730982    13.466247    39.323648    40.191916 
23100000    273.56873    310.70625     290.6381   -10.244054    12.294443    20.068142    40.193897 
23104000    275.25908    328.01633    281.91238   -11.813819    11.372679    46.103942    40.192289 
23108000     260.5462      303.224    278.64491   -10.847062    13.331532    24.579095    40.193927 
23112000      271.653      332.741    275.41789   -11.924454    13.638545    57.323112    40.193232 
23116000    270.72181     327.5929     292.1184   -12.488191    12.200778    35.474495    40.191203 
23120000    271.49063     318.3262    277.65001   -12.627352    12.484489    40.676186    40.191361 
23124000    270.56001    326.21148    290.46622   -12.110905     11.97672    35.745253    40.189712 
23128000    265.39385    297.17774    298.59198   -9.3147543    12.124728   -1.4142388    40.192784 
23132000    259.66736    308.85878    277.43969   -10.707139    13.313488    31.419086    40.192393 
23136000     265.3602    290.90096    292.35511   -9.2848286    12.199237   -1.4541463    40.188798 
23140000    277.22073     327.1098    285.58338   -11.008789    11.731533    41.526425    40.188736 
23144000    260.75308    326.18953     261.8712   -11.512604    12.844371    64.318323    40.187167 
23148000    266.78042    316.12223    266.70621   -11.479553     12.92545    49.416027    40.186693 
23152000    268.75545    306.08265      289.652   -9.3190018    12.440523    16.430654    40.186602 
23156000    263.43292    314.76284    271.04314   -10.038447    12.313637    43.719699    40.191308 
23160000    271.87948    332.79746    268.22717   -11.390147    13.865919    64.570288    40.190909 
23164000    269.83655    332.47166    278.61423   -11.148632    13.279255    53.857422    40.189317 
23168000    275.81103    328.86351    290.16228   -10.797534    12.066787    38.701234    40.190119 
23172000    275.74553    327.17061    295.93784   -12.053388    12.047883    31.232766    40.190351 
23176000    272.83249    305.30624    293.24058   -10.933943    11.880842     12.06566    40.194575 
23180000    272.20592    317.65266    287.07036   -11.510608     11.67617    30.582305    40.193731 
23184000     271.6569    311.91197    273.55625    -11.83753    12.526785    38.355724    40.193397 
23188000    280.33156    342.64233     275.3843   -13.030927    13.684595    67.258033    40.193802 
23192000    277.59536    323.57929      288.919    -12.31319    11.481235    34.660287    40.194794 
23196000    278.27988    337.04527     280.1654   -12.971198    12.671724    56.879863    40.193202 
23200000    264.41557    315.30769    264.95218   -11.469668    13.023681    50.355511    40.195037 
23204000    273.13702     320.7277    290.32361   -12.038233    11.577772    30.404086    40.194426 
23208000     272.1907    312.26662    283.79152   -12.255065    11.515662    28.475104    40.197519 
23212000    276.97875    347.36085    277.42535   -14.192342    12.521197    69.935501     40.19664 
23216000    270.31416    313.07657    269.48533   -13.174838    13.341386    43.591237    40.198097 
23220000    273.82295    332.51835    278.52372   -13.939016    12.394635    53.994629    40.198112 
23224000     282.7971     339.8076    301.74168   -14.412841     11.23376    38.065914    40.198256 
23228000    270.52419    320.60375    294.23418   -13.401753    12.131601    26.369574    40.197299 
23232000    270.53578    325.13477    264.99696    -13.12258    13.380234    60.137812     40.20305 
23236000    270.92039    312.52572    275.21952   -11.866508    12.722946    37.306202    40.201627 
23240000      280.164    324.82373    307.94463   -12.673562    11.535678      16.8791    40.198545 
23244000    284.57517    332.11468    295.65699    -14.66909    11.184889    36.457698    40.197967 
23248000    267.10105     293.8331    291.76956   -12.260252    11.437499    2.0635398    40.195257 
23252000    278.61571    313.32161     292.2244   -12.089437    11.680094    21.097211     40.19575 
23256000    269.63296    302.51401    287.12666   -11.298053    11.872531    15.387351    40.196253 
23260000    274.93398    298.04046    298.67607   -11.112968     10.73034  -0.63561407    40.196731 
23264000    263.85115    299.71462    270.65476   -10.975309    12.136193    29.059863    40.197724 
23268000    280.31046    326.98641    281.61177   -13.117376    12.385085    45.374645    40.199244 
23272000    276.65542    320.99884    297.29372   -11.993245    12.170346    23.705121    40.199178 
23276000    273.13303    316.57721    275.67824    -12.45764    12.638245    40.898966    40.196677 
23280000    274.55142    335.01698    267.47722    -13.76026    12.736173    67.539757    40.198196 
23284000    283.02473    332.54224    281.28435   -13.870016     11.90937    51.257891     40.19497 
23288000    277.15918    327.57265    268.60438   -13.354341    12.901724     58.96827    40.195559 
23292000    272.35859    313.08149    267.05897   -12.304169    13.704427    46.022522    40.196433 
23296000     279.9877    352.49388    276.29033   -14.393052    12.638759    76.203548    40.194345 
23300000    275.98717    328.76863    282.49791   -14.166272    12.180054    46.270721    40.196826 
23304000     276.7279    320.47474    271.83117   -13.972879    13.116587     48.64357    40.195278 
23308000    276.84338    319.21074    287.91315   -14.284169    11.316799    31.297586    40.197331 
23312000    279.24275     306.5101    279.66216   -13.867989    12.628681    26.847943    40.200822 
23316000    275.14305    311.78397    276.26224   -13.158068    11.931417     35.52173    40.199895 
23320000    275.52343    321.40571    280.30418   -13.117045    11.741217    41.101531    40.204342 
23324000    273.96203    325.90262    270.47649   -14.009957    13.529241    55.426139    40.204023 
23328000    276.22066    331.52144     282.3741   -14.336195    12.358082     49.14734    40.203231 
23332000    276.47658    335.41833    289.50328   -14.519439     12.18177    45.915052    40.206395 
23336000    266.95537    296.25565    272.69624   -13.598908    13.835865      23.5594    40.207153 
23340000    270.71162    319.27365     258.8872   -14.074101    13.679564    60.386454    40.210719 
23344000      282.365     324.3179     307.9191   -13.477845    11.899279    16.398803    40.209551 
23348000    282.00751    331.14041    292.16363   -14.128045    12.600163    38.976784    40.209077 
23352000    270.49195    335.07582    265.46503   -16.280383    14.646178    69.610791    40.209261 
23356000     276.2196     315.4672    291.78346   -13.816975    13.523062    23.683747    40.209939 
23360000    270.79177    287.67046    294.05575   -11.585187    12.390459   -6.3852924    40.211315 
23364000    281.19022    329.87605     290.0824   -14.055462    12.495888    39.793644    40.210996 
23368000    274.81786    304.03445     283.8206   -14.191856    13.574443    20.213848     40.21046 
23372000    277.28295    346.57183    278.65141     -14.8076    13.036832    67.920418    40.213076 
23376000    279.06563    332.62868    302.72361   -14.672993    12.048931    29.905068    40.210181 
23380000      279.086    327.26013    288.00034    -13.68271    12.626289    39.259792    40.209125 
23384000    281.12446    340.16755    273.64349   -14.519052    13.520354     66.52406    40.206965 
23388000    268.67429    307.00951    274.44969   -11.997968    13.445211    32.559812    40.205507 
23392000    276.30294     310.9876    295.98823   -13.477598       12.483    14.999374    40.203708 
23396000    277.18359    351.53718    293.87272   -15.677266     13.00185    57.664463    40.206923 
23400000    277.35453    337.49671    284.61789   -13.415511    12.015492     52.87882    40.209138 
23404000    271.52961    329.75968     281.6081   -13.830432    13.624315    48.151579    40.208164 
23408000    281.98775     323.0935    298.56218   -13.244167    11.706954    24.531319    40.208495 
23412000    272.73482    332.36682    272.98164   -12.690301    13.963876    59.385185    40.207036 
23416000    269.82883    297.10138    283.79689   -11.865192    13.442317    13.304486    40.208745 
23420000     280.4982     331.3348    281.33527   -14.346057     13.88232    49.999532    40.210818 
23424000    261.86873    304.17291    260.70127   -12.602926    13.715576    43.471631    40.211837 
23428000    274.19343    311.23913    286.14123   -13.516305    12.316482      25.0979    40.211337 
23432000    270.65164    308.12993    279.99832   -13.128951     12.88214    28.131602    40.210781 
23436000    279.51362    323.40096    307.82033   -13.792126    11.729124     15.58063     40.21161 
23440000    281.43739    334.88081    284.47384   -16.285229    11.784318     50.40697    40.210363 
23444000    277.62301    317.83824    289.56636   -15.194863      12.5292    28.271881    40.213796 
23448000    282.19496    336.25205    304.94103   -15.442509    12.247044    31.311023    40.212937 
23452000    272.04496    310.30577    280.77394   -14.106652    12.299362    29.531826    40.212749 
23456000     276.4705    335.32081    272.59487   -15.615896    12.676234    62.725942    40.213882 
23460000     276.4339    318.00222    295.93635   -14.027515    11.294986    22.065865    40.214324 
23464000    266.89233    303.84401    285.61952   -12.901792    12.416884    18.224483    40.213055 
23468000    274.41457    324.37485    279.98213   -14.043221    11.887107    44.392719     40.21531 
23472000    272.39864    319.59423    276.06492   -12.801561    12.788607    43.529311    40.215468 
23476000    272.39544    310.68429    277.99395     -13.4908    11.683419    32.690338    40.211802 
23480000    270.54198    310.87285    268.34447   -13.702251    12.920231    42.528373    40.213613 
23484000    278.73758    326.04617    265.69512   -13.863063    13.697373     60.35105    40.214919 
23488000    277.70657    320.14791        280.9    -13.58863    12.885115    39.247907    40.212551 
23492000    276.86318    325.52049    287.47682   -14.281223    13.092203    38.043665    40.214763 
23496000    271.51491    314.50801     286.7029    -13.86811    12.249591    27.805111    40.213884 
23500000    268.72762    307.98469    292.99607   -13.086828    11.383054    14.988619    40.213612 
23504000    269.34897    318.75669    263.51353   -12.652533    13.274694    55.243165    40.214755 
23508000    273.46637    299.95921    298.58047   -11.032743    12.408874    1.3787392    40.216379 
23512000    281.70221    353.49652    267.71327   -15.417603    14.278691    85.783248    40.217698 
23516000     271.9367    316.76856    276.18316   -13.948891    14.383546    40.585394    40.218338 
23520000    271.41075    313.28285    274.01382   -13.137082    13.938931    39.269031    40.217063 
23524000    276.65019     329.2215    279.76815   -13.799787    13.067292    49.453347    40.216328 
23528000    271.96212    315.23375    292.66157   -13.635947    12.011239     22.57218     40.21774 
23532000    276.78935    319.35806    283.56206   -12.729024    12.025736    35.796001    40.218132 
23536000     277.7661    332.72666    274.24797    -14.41629    13.052913    58.478695    40.221393 
23540000    269.95715    330.43852    272.01858   -13.994465    13.261372    58.419933    40.220872 
23544000    276.28981     324.6858    292.88109   -14.297624    13.927352    31.804711    40.217897 
23548000    270.27225    312.81447    258.48405   -13.213603    14.693891    54.330422    40.218525 
23552000    281.23787    325.44621    303.67921   -14.073254    13.196576    21.766995    40.218891 
23556000    269.20216    304.74708    297.03447   -12.397874     12.83405     7.712613     40.22232 
23560000    266.37315    325.23313    266.97033   -12.476518    15.108332    58.262794    40.224517 
23564000    266.73748     327.7418    275.43395   -13.058769    15.689357    52.307846     40.22142 
23568000    280.16295    334.79105    292.33381   -12.756712    14.438214    42.457242    40.223531 
23572000    268.84611     325.4019    276.51427   -14.139222    15.105679    48.887624    40.222995 
23576000    262.84551    316.23836    269.75454   -13.742685    14.778299    46.483824    40.220435 
23580000    269.19617    337.46524    269.64328   -15.683508    15.846811    67.821958    40.222713 
23584000    268.86099    330.85222    265.71675   -15.005617    14.427089    65.135466    40.221775 
23588000    267.92816    294.56969    296.20783   -13.641887    13.932959   -1.6381392    40.218644 
23592000    265.81373    320.36307    273.56176   -13.958267    14.107153    46.801314    40.218683 
23596000    277.62157    331.52642    302.59689   -13.803233    14.501917    28.929532    40.216083 
23600000    264.03377    300.14275    277.51496   -14.017455    16.109293    22.627789    40.217684 
23604000    278.73637    328.71024    285.22448    -14.12701    14.624315    43.485759    40.220475 
23608000    270.18297    314.56647    276.28319    -15.43389    15.012603    38.283275    40.219013 
23612000    272.77261    337.05912    283.73971   -14.926494    14.322616    53.319404    40.221164 
23616000    282.36978    337.15419    289.07111   -15.410142    14.033223    48.083074    40.221106 
23620000    270.41549    331.72012    282.76094   -13.693055    14.109094    48.959182    40.220422 
23624000    257.11296    309.65213    250.29508   -14.206119    15.729326     59.35705    40.216459 
23628000      271.047    324.78539    278.09283   -14.972758    14.588376     46.69256    40.214531 
23632000    268.92599    330.45767    262.82365   -14.877847    15.438417    67.634021     40.21686 
23636000    268.97418    311.58591    266.88096   -12.537039    15.301755    44.704946    40.217395 
23640000    278.73379    347.25622    266.25675   -16.204025    14.598493    80.999468    40.220565 
23644000    275.08963    316.89655    289.70568   -13.288356    14.296566    27.190869    40.219732 
23648000    267.74182     300.0616    276.96172   -13.011621    14.588553    23.099878    40.219839 
23652000    281.15856    344.48955    291.52235   -14.858925    14.383531    52.967203    40.224649 
23656000    272.96953    307.81379    272.87116   -12.865246    14.662823    34.942629    40.221013 
23660000    279.39275     303.0933    299.03891   -13.513645    12.608255    4.0543889    40.222102 
23664000    267.78227    299.13045    285.06563   -12.359287     13.23792    14.064822    40.216993 
23668000    273.41547    328.57423    260.80609   -14.743341    14.710294    67.768136    40.218496 
23672000    276.55687    320.91238     291.8576   -14.689714    13.621797    29.054778    40.218645 
23676000    268.57823    322.00945    262.03721   -14.208625    14.877759    59.972246     40.22152 
23680000    275.27724    335.61298    285.68321   -14.222306    13.370668    49.929771    40.228998 
23684000    268.78495    303.65031    282.66574   -13.013489    13.782761    20.984569    40.227306 
23688000    277.51215    342.51815    283.80532   -14.582415    12.555163    58.712829    40.228013 
23692000    278.31131    325.59626    273.63931    -14.72939    13.365393    51.956951    40.228399 
23696000     272.1645    332.03954    278.60178   -14.445954    14.044242    53.437759    40.229109 
23700000     265.7577    299.89701    280.99907   -13.278088    13.850629     18.89794     40.22762 
23704000    267.36867    326.76538    282.35709   -12.886577    13.991185    44.408286    40.229979 
23708000    265.62398    314.91235    272.87005   -13.252368    14.985604    42.042302    40.228572 
23712000    271.40115    318.81802    274.95151   -13.255062    13.696346    43.866507    40.227763 
23716000    269.55893    316.56831    264.52456   -13.711392    15.421279    52.043741    40.226644 
23720000    276.20783    330.03099    296.60443   -14.455836    13.863432    33.426561     40.22532 
23724000    261.92226    304.95102     268.2157   -13.656778     14.68485    36.735316    40.225956 
23728000    262.44557    316.49375     264.2111   -12.864534    15.336104    52.282648    40.227833 
23732000    267.31401    303.04571    275.26091   -12.989894    13.897556    27.784806    40.228169 
23736000    273.80907    314.67853    273.40867   -14.584009    14.080572    41.269864     40.22757 
23740000    264.11912    300.27511     271.1728   -13.937191    14.397073    29.102309    40.228515 
23744000    268.73413    321.16656      289.147   -14.870071    13.109725    32.019565    40.230331 
23748000    270.75209    306.38482    275.46383   -13.295249    13.428894    30.920996    40.230761 
23752000    277.79639    344.54144    279.85647   -15.160246    14.708681    64.684972    40.228376 
23756000    280.99842    341.62898    290.79936   -15.784966    13.792443     50.82962    40.230203 
23760000     277.4998    320.51878    282.75876   -14.229459    13.648145    37.760024    40.226519 
23764000    279.81926    344.48094    282.88996   -15.840851    13.160829    61.590975     40.22707 
23768000     271.2239    331.95601    274.29933   -14.652016    14.747171    57.656679    40.228445 
23772000    271.02865    313.75342    292.38875   -15.371074    12.945127    21.364673    40.228693 
23776000     266.6179    318.78891    274.49778   -15.379272    13.413992    44.291133    40.228401 
23780000    280.32722    326.42451     298.4483   -15.674985     12.95085    27.976216    40.228135 
23784000    260.15766    291.40569    271.65222   -14.455883    14.034679    19.753474    40.225217 
23788000     270.7686    311.85737    278.57524    -15.19128     14.20389    33.282134    40.226407 
23792000    271.76476    313.72132    292.43368   -14.843644    14.396273    21.287636    40.228629 
23796000    282.46294     323.9085    306.98688   -16.492799     13.10804    16.921615    40.227954 
23800000    274.06822    345.63197    269.88698   -16.215029    14.434039     75.74499    40.229094 
23804000    274.33021    308.30617    272.17677   -14.893821    15.056564      36.1294    40.230466 
23808000     275.6122    330.82222    266.62107   -16.088418    15.193604    64.201157    40.230592 
23812000    273.77522    327.13953    270.84789   -15.589603    15.129839    56.291643    40.232152 
23816000    276.98114    333.16848    291.06509   -15.153748    13.143966    42.103386    40.230956 
23820000    260.27684    296.32309    259.38482    -13.69389    15.096413    36.938271     40.23125 
23824000    278.10123     331.0212    281.23147   -15.394477    14.206773    49.789725    40.232932 
23828000    276.30929    308.95293    288.60266    -13.01908    14.126319    20.350271    40.233586 
23832000    277.44992    309.10209    306.13957   -14.202442    11.927702    2.9625166    40.233424 
23836000    283.58089    328.17865    304.57467   -13.641236     11.51063    23.603985    40.234753 
23840000    272.79805    321.92429    270.44158   -14.213525     14.60146    51.482708    40.235474 
23844000     270.1715    319.18343     274.3257   -13.824159    13.431471    44.857729    40.233717 
23848000    280.06954    323.69629    301.77446   -14.114928    11.373779    21.921827    40.230177 
23852000    277.28482    322.64723    276.45016   -14.044161    13.706664    46.197075    40.230549 
23856000    265.93873     313.4998    246.54299   -14.410587    14.393191    66.956808    40.231924 
23860000    282.95882    341.94918     284.3089   -16.532606    12.899381    57.640273    40.231006 
23864000    270.82111     325.7832    267.78589   -15.295317    14.068596    57.997305    40.232786 
23868000    270.77917    326.90308    280.13484   -15.801805    12.649891     46.76824    40.233269 
23872000    281.80215     333.0223    294.95933   -15.562081    12.458402    38.062964    40.232757 
23876000    283.24467     330.4581    291.58623   -15.046929    13.052088    38.871871     40.23422 
23880000    268.62626    310.04886    268.68805    -13.30892    13.249736    41.360802    40.236942 
23884000    282.58847    332.97183    283.60024   -14.539981    12.319525    49.371585    40.236972 
23888000    271.70746    324.93982    272.25195   -13.570894     12.11398    52.687875    40.235277 
23892000    270.64086    307.47068    262.37703    -13.56886    13.576621    45.093658     40.23534 
23896000    281.57068    329.96586    281.26478   -15.021587    13.036376    48.701089    40.237076 
23900000    278.42055    348.75363     264.2974   -17.380537    14.292967    84.456234    40.233552 
23904000    280.52718    333.31558    299.06262   -16.316726    13.539297    34.252968    40.232807 
23908000    275.14329    314.94361     273.9102   -16.330643    13.919909    41.033403    40.229991 
23912000    267.50689    296.29896    266.93787   -14.236849    14.919991    29.361087    40.230088 
23916000    279.27667      314.931     294.4609   -14.927366    12.712116    20.470101    40.229014 
23920000    275.38453    322.45681    283.64356    -14.24107    13.726032    38.813254    40.227457 
23924000    272.24279    299.74352    288.94378   -13.186883    13.607018    10.799739    40.226845 
23928000    272.75268    348.35671     271.9127   -15.197869    14.794102    76.444008    40.227873 
23932000    275.68298    335.53199    279.05539   -15.244886    13.316633    56.476593    40.227839 
23936000    277.52731    326.93146    294.94415    -16.18126    13.465626    31.987305    40.228304 
23940000    269.54177    325.47594    266.77576   -14.622208    15.050128    58.700178    40.231085 
23944000    279.42296    323.63541    304.46213   -14.917146    13.583129    19.173285    40.229385 
23948000    273.62076    324.30399    288.78051   -14.996224    13.934991    35.523477    40.228332 
23952000    278.94048    330.07858     290.5141   -14.931796    13.048911    39.564481    40.228366 
23956000    277.91537    341.92145    279.26059   -14.298306    12.797878    62.660858    40.227286 
23960000    270.08769    331.75342    271.43997   -14.221295    13.193769    60.313445    40.227919 
23964000    280.71484    330.31223    295.75178   -14.171955    12.118904    34.560448    40.228203 
23968000    274.05756    331.14029    274.03142   -14.029017    13.851981    57.108874    40.227258 
23972000    260.16267    307.61357     262.3602   -12.606732    13.918731    45.253372    40.226961 
23976000    276.03662    312.79491    285.50163   -13.957519    12.687112    27.293279     40.22369 
23980000    274.48937    328.51225    291.79045   -14.857828    12.706494    36.721797    40.221014 
23984000    273.14788     307.0028     283.0811   -13.904639    14.125972    23.921696    40.222218 
23988000    267.76217    307.29172    277.25886   -14.150895    14.618096    30.032861    40.224424 
23992000    274.77208    299.19195    285.35581   -13.290654    13.963761    13.836142    40.223024 
23996000    279.81836    324.20309    273.16874   -15.150558    13.687365    51.034349    40.226229 
24000000    272.84094    313.74549    275.73297   -14.349594    13.087399    38.012521    40.224328 
24004000    278.48291    328.51041    291.28054   -15.119345    11.888534    37.229876    40.224351 
24008000    277.61237    323.49523    272.83203   -14.875779    14.156729      50.6632    40.222376 
24012000    275.75877    296.81122    285.44338   -12.682241    12.280542    11.367839    40.221149 
24016000    266.45293    307.23108    274.92036   -14.811178    13.613835    32.310715    40.220767 
24020000    278.24564    325.17052    281.56726   -15.927493    12.649264    43.603262    40.221196 
24024000    273.80658    309.14368    272.93163   -14.013517    14.006653    36.212049    40.218835 
24028000    278.65939    343.89793    290.08106   -15.940253    13.172685    53.816869    40.213944 
24032000    280.60962    325.86922     287.4059     -15.3856    13.020445    38.463322    40.214132 
24036000    273.90723    322.06664    290.56441   -15.619084    12.521358    31.502228    40.215824 
24040000    280.68953    314.34864    279.87571   -14.129966    13.668038    34.472927    40.214731 
24044000    268.38385    331.16572    253.89456   -14.813764    14.784031    77.271162    40.213442 
24048000    283.71914     314.5024     290.4819   -14.171122    13.339675    24.020498    40.213141 
24052000    276.28402    329.82251    284.60221   -15.166053     12.75814    45.220306    40.210172 
24056000     275.1138    323.82655    281.15488   -14.074574    13.585084    42.671662    40.208356 
24060000    274.82133    311.97995    278.66513     -13.8913     13.80101    33.314823    40.209493 
24064000    276.86096    315.29842    294.98089   -14.017244    12.978994    20.317525    40.207932 
24068000    271.28746    323.39202    270.47803   -15.041942    13.331464    52.913991    40.202977 
24072000    266.08896    311.65609    265.26733   -13.435509    14.255564    46.388763    40.203591 
24076000     277.4289     331.3727    273.61892   -13.895976    13.980348    57.753779    40.203303 
24080000    281.25559    337.82782    290.22155   -15.204331    13.200108    47.606272    40.205515 
24084000    278.10674    342.53605    265.13105   -15.728954    13.988574    77.404993    40.207985 
24088000    271.77499    299.26197    292.96906   -14.075947    12.876349    6.2929136     40.20702 
24092000    275.32288      326.398    269.72364   -14.790991    14.668848    56.674353    40.206543 
24096000    274.48073    315.29736    280.75852   -14.426427    14.250666    34.538839    40.203035 
24100000    280.42082    334.68408    287.93448   -14.718804    13.757827    46.749599    40.203743 
24104000    274.91109    315.67907    278.51297   -14.240243    14.263746    37.166105    40.203996 
24108000    269.47875     310.9172    284.57588    -14.24076     13.74575    26.341317     40.20172 
24112000    275.32242    330.79041    273.40136   -15.432258    14.175503    57.389048     40.20188 
24116000    270.85558    313.80408    265.52349   -16.206571    14.954913    48.280583    40.200443 
24120000    279.10335    330.42346    287.23674   -15.792299    13.032905    43.186713    40.199373 
24124000    269.59219    316.68307    268.73001   -14.362468    14.355247    47.953053    40.201593 
24128000    268.75421    308.13641    273.28599   -13.431708    14.227879    34.850416     40.20163 
24132000    277.55431    318.27581    295.83289   -13.719308    13.494693    22.442913     40.20201 
24136000    266.92434    311.66278    274.95946   -14.154467    14.748016    36.703314    40.203129 
24140000     269.8919     311.0076      280.526   -14.891063    13.836327    30.481593    40.201095 
24144000    277.77142     324.7229    281.56819   -15.085612     14.06898    43.154712    40.204034 
24148000    275.09682    313.12711    284.75034   -14.438503    13.385649    28.376775    40.205515 
24152000    271.69987    313.90553    278.02422   -14.676444    14.275106    35.881316    40.206786 
24156000    263.94532    300.26871    276.98015    -14.75715    14.033344    23.288559    40.205814 
24160000    277.14508    332.19565    286.96664   -15.994301    14.772016    45.229003    40.205412 
24164000    278.11831    313.74301    294.24298   -14.443419     14.26663    19.500028    40.208498 
24168000    278.22229    326.74723    282.93243   -15.418313    14.376087    43.814802    40.208458 
24172000    288.06378    342.48623    297.71838   -16.596192    12.711007    44.767841    40.208032 
24176000    266.09095    309.48356    268.97728   -13.852823    14.201297    40.506276    40.208509 
24180000    276.42396    335.17606     270.5376    -15.72198    14.979474    64.638463    40.208283 
24184000    276.09927    314.52074    283.58632   -13.282555    13.324216    30.934425    40.205277 
24188000     280.3842    327.61148    290.84155   -14.925186    13.661085     36.76993    40.203044 
24192000    277.73621    317.10359    293.33109   -14.262668     13.38576    23.772505    40.202353 
24196000    268.29854    298.12914    283.14628   -14.666254    13.376008    14.982857    40.204998 
24200000    282.64189    325.78047    291.26091   -16.266183    14.293421    34.519557    40.206216 
24204000    275.23915    320.25638    287.26396   -14.614299    13.894186    32.992429    40.207489 
24208000     271.4949    312.78284     282.4975   -14.237575     14.10672    30.285348    40.207024 
24212000    271.60786    305.38104    267.11919   -15.486881    15.050827    38.261845    40.208854 
24216000    287.03215    346.44457    285.64043   -16.594379    14.315384    60.804139    40.207164 
24220000    279.90818    331.45873     280.5737   -16.664631    14.156433    50.885028    40.210349 
24224000     268.2314    311.00566    266.85266   -15.467082    14.671813    44.152998    40.208468 
24228000     275.6532    305.47811    272.01136   -15.364292    14.666529     33.46675    40.207783 
24232000      282.459    319.37806    293.32765   -16.115673    13.482396    26.050409    40.205754 
24236000    274.11186     313.9704    284.95789   -14.991921    15.104003    29.012515    40.206246 
24240000    289.55665    349.61496      279.674   -15.888322    15.454774    69.940954    40.203157 
24244000    276.66519    342.84277     281.4102   -16.398698    14.667526     61.43257      40.2079 
24248000    284.05128    348.65961    283.98599   -16.333064    14.233822    64.673623    40.206426 
24252000    281.21044    343.46564    281.12305   -15.681563    15.396581    62.342593    40.206148 
24256000    286.16134    370.11985     267.2306    -17.38389     15.11794    102.88925    40.207579 
24260000    265.44995    312.06452    259.73355   -14.566783    15.682831    52.330972    40.204609 
24264000    272.94612    330.72516    284.21152   -15.464217    14.125426    46.513635     40.20669 
24268000    271.18369    327.06797      279.558   -16.499086    15.045712    47.509968    40.208526 
24272000    269.00724    317.78578    264.89437   -15.929579    16.189709    52.891411    40.208524 
24276000    272.19303    331.72135    275.62165   -17.497486    15.325568    56.099703    40.208374 
24280000    266.61638    320.69123    277.78443   -14.261857     14.86304    42.906802    40.207846 
24284000    268.07573     309.2738    279.85379   -13.912128    13.960855    29.420011     40.21018 
24288000    279.30271     313.9769    294.34307   -15.695928     15.02819    19.633826    40.211017 
24292000    281.08225    339.24629    291.34743   -16.096545    14.008689    47.898862    40.211211 
24296000    274.16201    326.67397    274.16044   -15.641814    14.298458    52.513534    40.210898 
24300000    271.68937    331.08768    270.92968   -16.138599    14.974277    60.158004    40.213202 
24304000    277.91317    338.08909    267.12793   -16.621089    15.609007    70.961161    40.213016 
24308000     280.9299    317.69598    286.81045   -14.961094     14.06535    30.885524     40.21249 
24312000    268.47503    300.21939     281.8148   -14.556267    14.240511     18.40459    40.215117 
24316000    279.76318    329.27332    284.23182   -15.524316    14.090979    45.041493    40.217568 
24320000    272.58602    335.87096    276.28086    -15.93984     15.14815    59.590099    40.217427 
24324000    271.57728    327.87829    284.95805   -14.994774    14.719458     42.92024    40.217253 
24328000    273.63974    331.54844    278.56537   -15.925436    14.885997    52.983071    40.218364 
24332000    277.55441    334.60724    275.78742   -14.839861    15.498332    58.819824    40.217602 
24336000    278.50893    336.80743    293.24766   -13.879327    13.408441    43.559767     40.21823 
24340000    266.29421    321.71866    275.20914   -12.485391    14.567227    46.509522     40.21999 
24344000    264.91798    299.80501    273.64969   -11.666044    14.387371    26.155317    40.219164 
24348000    276.81427    332.56023    279.67667     -13.5698    14.640406    52.883556    40.219938 
24352000     265.9679    324.02046    274.93436   -13.449153    15.409282    49.086099    40.219521 
24356000    272.31803    319.84507    294.25701   -13.739551    14.826951    25.588061    40.218333 
24360000    266.72976    330.99527    264.84244   -14.066522    15.482876     66.15283    40.215681 
24364000    278.88673    321.58706    293.07395   -13.220119    13.427538    28.513105    40.217265 
24368000    271.52574    327.38358    270.62774   -14.184147    15.754715    56.755842    40.214385 
24372000    271.10641    326.16986    279.57217   -14.024696    16.277566    46.597694    40.215717 
24376000    271.08868    341.99376    264.84093   -15.644501    15.528877    77.152831    40.214269 
24380000    273.16488    326.14725    268.80588   -15.185577    15.147559    57.341365     40.21439 
24384000    274.72617    322.44087    278.70155   -15.720094    14.627266    43.739316    40.213799 
24388000     268.7875    317.10564    271.11578   -14.871875    14.912489    45.989867    40.213959 
24392000    275.43385    312.84667    293.37129   -13.397277    13.437365    19.475372    40.211377 
24396000     274.4706    347.48305    284.60141   -15.419919    14.847656    62.881637    40.212499 
24400000    267.04062    326.33512    259.95605   -14.599756    15.731913    66.379066     40.21492 
24404000    266.26635    311.75138    280.66905   -13.387397    14.929923    31.082331    40.215192 
24408000    274.96867    318.57408    273.68876   -14.506915    15.390097    44.885324     40.21587 
24412000    266.98965    316.24179    268.37027   -16.053238    15.922926    47.871523    40.220102 
24416000    267.91244    323.68022    267.16611   -15.584596    15.830623    56.514115    40.222173 
24420000    270.09391    310.72177    285.48549   -14.551636    14.710869    25.236276    40.224751 
24424000    266.22474    302.72952    294.74691   -12.925059    15.443099     7.982617    40.224615 
24428000    267.29434    312.83459    277.08173   -13.986178    15.328331    35.752861    40.225321 
24432000    265.40326    330.20677    278.26129   -15.623033    16.069987    51.945486    40.224679 
24436000    269.62291    332.06272    273.58405   -15.230716     15.86256    58.478674    40.223105 
24440000    275.77828    347.44386     277.8367   -16.234342    14.760588    69.607162    40.223127 
24444000    272.22704    353.70425    267.95525   -16.138884    15.338339    85.748995    40.221217 
24448000    270.20504    317.81201    280.23209   -13.444564    14.614063    37.579916    40.219352 
24452000    267.03618    310.44114    282.98349   -12.772755    15.255898    27.457654    40.216681 
24456000    268.52293    308.29393    277.96884   -14.585532    15.117885    30.325097     40.21681 
24460000    269.41132    304.53636    279.04097   -14.290168    14.340068    25.495383    40.216457 
24464000    274.56742    330.42132    277.53308   -15.713464    15.081011    52.888235     40.21845 
24468000     277.2865    315.36887    291.00533   -15.553532    14.476661    24.363531    40.214935 
24472000    271.45646    302.35283    293.92303   -15.197049    13.936143     8.429794    40.211845 
24476000    273.64751    335.16839    280.04982   -15.676487    15.346536    55.118569    40.211085 
24480000    278.63203    337.53553    292.22725   -15.806536    14.822161    45.308276    40.210128 
24484000      270.837    302.70217    267.09952    -14.65109    16.381753    35.602651    40.207724 
24488000    273.59821    333.93601    279.76992   -16.482299    15.316932    54.166095    40.207706 
24492000    267.77515    336.80369    252.72957   -16.487708    17.049241    84.074122    40.208694 
24496000    271.06846    329.75121    276.09589   -16.267738    15.264743    53.655313    40.208787 
24500000    275.66053    331.39623    270.57571   -15.645785    15.704786    60.820523    40.209284 
24504000    274.01075    317.18812    290.23129   -15.843283    14.310578    26.956829    40.208214 
24508000    276.30967      331.419    284.57191   -16.293706    15.534212    46.847089    40.207311 
24512000    281.54494    329.27109    278.53658   -16.223273    15.578354    50.734513    40.205805 
24516000    272.47566     321.3223    276.85879   -16.413512    14.923264    44.463507    40.204505 
24520000    274.15994    307.04312    265.49276   -15.262703    15.214661    41.550359     40.20334 
24524000    272.02131    314.76434    283.91235   -15.822595    13.998766    30.851994    40.204024 
24528000    268.53923    310.50128    276.95487   -16.628561    15.098913    33.546416    40.203858 
24532000    273.16406     322.2239    280.45356    -15.79257    14.170418     41.77034    40.202383 
24536000    270.14282    321.12233    278.79679   -16.758132    14.902653    42.325547    40.201189 
24540000    279.07334    333.24516    292.30846   -17.012255    14.840072    40.936699    40.200757 
24544000    270.53982    318.60723    292.61597   -15.930963    14.355286    25.991261    40.201077 
24548000    269.23838    313.74862    256.33156   -14.900455    15.885917    57.417054    40.202722 
24552000    276.73977    317.25821    297.49003   -16.181958    14.046888    19.768188    40.203481 
24556000    270.35225    309.81939    271.33516   -15.516386    14.993674    38.484231    40.201129 
24560000    273.24676    307.36726    286.74937   -15.779182    15.199105    20.617891    40.202252 
24564000    276.54064    344.34708    287.48764   -16.726122    15.223202    56.859441     40.20387 
24568000    282.20951    363.10282    284.73338   -17.521093    15.128694    78.369444     40.20351 
24572000    284.67948    341.51943    298.88745   -15.885399    14.821925     42.63198    40.204539 
24576000      270.067    308.01326    281.25528   -14.825164    14.400694    26.757978    40.205178 
24580000    264.51403    320.51217     274.2655   -15.186609     16.61395    46.246677     40.20426 
24584000    269.39289    338.47165    269.57869     -15.4227    16.605029    68.892958    40.205875 
24588000    274.81492    333.37862    292.65159   -16.611279    16.208711    40.727029    40.206952 
24592000    270.67606     302.3661    286.98002   -14.480183    16.079487    15.386078    40.204851 
24596000    269.63056    328.38017    262.81469   -16.577345     17.27663    65.565482    40.205551 
24600000    268.83836    310.15038     255.2747   -15.109724    17.873243    54.875677    40.205551 
24604000    276.03787    322.30453    299.41529    -15.20082    15.651357    22.889238    40.203417 
24608000    271.34832    316.45867    288.29796   -15.694663    16.474311    28.160703    40.203892 
24612000    273.98534    316.70712    291.56652   -15.894943    14.748961    25.140593    40.206163 
24616000    271.89164    323.30876    280.77189   -16.408655    14.913256    42.536871     40.20729 
24620000    264.75104    293.45373    261.19888     -14.7111    15.978156    32.254843    40.205835 
24624000    271.60925    315.36713    282.06538   -16.285476    16.173213    33.301742    40.205393 
24628000    278.70638    331.52202    304.59742   -16.392021    14.905909    26.924598    40.201888 
24632000    281.15306    329.69118    292.91951   -17.575114    15.422939    36.771671    40.202684 
24636000    267.17221    316.45909    273.67339   -17.129369    15.432628    42.785702     40.20126 
24640000    267.28912    312.97744    285.14061    -16.65002     15.78417     27.83683    40.203582 
24644000    274.02704    332.53154    273.18801   -16.368837    15.868626    59.343536    40.203817 
24648000    275.91052    319.03082    287.79423   -15.727369    15.638878     31.23659    40.205711 
24652000    271.03779     321.2777    267.84289   -16.728829    16.563345    53.434813    40.205615 
24656000    270.98142    314.33998    289.08998   -15.935699     16.05822    25.250006    40.207082 
24660000    266.99406    299.59612    281.30557   -14.305686    15.414486    18.290555    40.208635 
24664000    267.14818    314.80247    268.77509   -16.354602    17.727901    46.027377    40.209748 
24668000    274.07994    326.33115    302.01938   -17.205786    14.472187    24.311767    40.212013 
24672000    280.44659    337.01868    287.22943   -17.238111    15.649519    49.789247    40.211796 
24676000    269.52455    307.71292    275.85008   -14.335324    16.303533    31.862836    40.212436 
24680000     268.0136    315.99764    285.97712    -15.00498    16.113621    30.020516     40.21262 
24684000    278.48961    337.53203    279.67739   -16.030984    17.408051     57.85465    40.211249 
24688000     263.4414    309.14947    256.80713   -14.698867     17.69107    52.342338    40.210191 
24692000    269.58074    305.73276    295.45167   -14.979213    14.910502    10.281089    40.203454 
24696000     273.9177    326.82157    269.42438   -16.382692    16.087485    57.397192    40.205396 
24700000     279.5281    317.05525    314.66346   -14.250483    14.330235    2.3917929    40.202444 
24704000    277.25618    343.56845    283.13998   -16.725503     15.41997    60.428474    40.204931 
24708000    277.83085     314.9511    293.83223   -15.352825     14.48108    21.118871    40.202831 
24712000    277.70441    332.59492    273.54595   -15.603688    16.353277    59.048975    40.203283 
24716000    280.36595    331.71143    307.21821    -17.31225    14.265979    24.493218    40.201319 
24720000    266.87625    296.75042    274.53576    -15.87459     16.81378    22.214663    40.201119 
24724000    275.25255    311.95995    279.00731   -15.273011    16.590498    32.952642    40.203635 
24728000    273.49576    329.74417     268.2198   -16.746873    15.830768    61.524364    40.200747 
24732000    280.22034    329.52613    291.02836   -17.672276     16.50177    38.497768    40.197706 
24736000    273.46491    342.55916    270.36153    -17.73609     16.39604    72.197626    40.198375 
24740000    274.64776    335.39764    305.85588   -16.046866    15.225514    29.541764    40.199685 
24744000    262.87782    317.13557    271.57576    -16.26856    16.651631     45.55981    40.199721 
24748000    262.06211    288.84444    291.92964   -13.652966     15.96166   -3.0852001    40.197056 
24752000    258.90507    280.77279    275.36153   -14.080295    17.015137    5.4112527    40.197251 
24756000    267.56105    332.60959    261.96573   -16.706408    17.598943    70.643857    40.198373 
24760000    265.49048     306.4586    280.60513   -16.390994    16.761956    25.853466    40.199762 
24764000    262.94206     313.7484    273.53373    -16.64254    15.916995    40.214669      40.1975 
24768000    269.82271    325.22425    285.74512    -16.85604    16.322518    39.479135    40.196587 
24772000    272.19988    347.71834    264.42523   -17.752524    18.264663     83.29311    40.195322 
24776000    268.97977    320.17274    289.12904   -16.450838    17.241332    31.043703     40.19458 
24780000    263.48937    297.80884    276.04326    -15.45197    17.974584    21.765574    40.195195 
24784000    278.02963    315.67446    306.62961   -15.541595     15.86259    9.0448468    40.191096 
24788000    277.74868    330.28485    270.13735   -17.442982    18.174001    60.147505    40.189545 
24792000    269.94176    319.34995    277.07649   -16.343692    17.807904    42.273461    40.190156 
24796000    265.20096    302.92121    272.88843   -15.348167    18.027352    30.032778    40.189275 
24800000    261.45486     305.8916    274.20333     -13.5096    16.721511    31.688274    40.188761 
24804000    268.16189    323.20496    280.53705   -14.359762    16.087845    42.667914    40.188651 
24808000    265.39112    329.41844    267.98171   -15.349137    16.818468    61.436727    40.185548 
24812000     276.5722    359.09458    262.08378   -16.872009    17.279486    97.010798    40.186215 
24816000    278.88868    335.17209    295.89006   -14.952573    15.424975    39.282026    40.187559 
24820000    265.33763    316.52435     291.2377   -14.968128    15.626314    25.286657    40.186285 
24824000    275.38183    330.78233    285.30004   -16.042963    16.272508    45.482292    40.185832 
24828000    277.12883    315.23016    308.28065   -14.890342    14.705345    6.9495135    40.186062 
24832000    271.84747    333.77556    279.55686   -14.767652    16.198707    54.218703    40.187418 
24836000    266.95741    313.06059     298.5866   -14.156892    14.618701    14.473986    40.184522 
24840000    261.39803    314.60428    265.64172    -14.87086    17.161608    48.962561    40.180508 
24844000    272.25959    331.94836    283.54709   -15.890798    15.235914    48.401272    40.181057 
24848000    274.28934    329.48875    282.67009   -16.201836    14.258406    46.818654    40.180455 
24852000    261.78931     309.5635    264.17859   -13.865189    16.080582    45.384911    40.178394 
24856000    270.65269    314.58529    287.90679   -14.545598    15.824653    26.678493    40.178526 
24860000    269.84545    321.61673    276.54744   -14.352856    16.772134    45.069288    40.178145 
24864000    268.58553    301.80344    293.85528   -14.116277    15.280762    7.9481542    40.177359 
24868000    267.43072     303.0198    270.20815   -13.783907    15.834347    32.811655    40.177997 
24872000    268.22636    308.41706    286.23601   -14.773176    15.028268    22.181048     40.17833 
24876000    272.03344    295.23612    294.06387   -15.288411    14.743333    1.1722554    40.177161 
24880000    263.07865    312.74252    264.09195   -15.519516    15.907943     48.65057    40.175789 
24884000    273.61213    327.03856    298.85821   -14.132929    15.141672    28.180345    40.175728 
24888000     274.8738    334.90773    294.80516   -15.217487    14.536129    40.102573    40.172299 
24892000    270.81754    334.54728    270.99187   -15.561409    15.063097    63.555409    40.175215 
24896000    269.05748    315.06795    294.03226   -14.834601    15.878803    21.035692    40.177084 
24900000    266.74643     311.5946    275.48362   -15.187271    16.712392    36.110982    40.175377 
24904000    271.48324     324.6999    297.98261   -14.434409    15.213005     26.71729    40.174798 
24908000    271.14875    327.25287    270.99981   -14.917114    17.226191    56.253059    40.175319 
24912000    261.06619    319.88744    265.62246   -15.355667    17.154634    54.264979    40.173178 
24916000    269.55448    333.83941    275.76345   -15.662535     16.97305    58.075965    40.173104 
24920000    268.30433    329.35252     287.9027   -15.956647    15.526244    41.449823    40.172664 
24924000     268.8668    330.47915    260.80119   -15.834267    17.395701    69.677957    40.174021 
24928000    268.50963    307.98578    273.96229   -15.285581    16.319019    34.023495    40.175715 
24932000    272.01926    328.42406    283.83308   -16.020861    16.041677    44.590975    40.175828 
24936000    260.94616    325.59612    279.24271   -16.007507    15.991989    46.353411    40.171586 
24940000    269.01705    331.82157    260.95398   -15.213565    17.268809    70.867593    40.171759 
24944000    262.56604     305.2281    282.64808   -14.219521    17.266898    22.580022     40.17395 
24948000    274.50774      341.837    273.79289   -16.747727     17.05277    68.044118    40.176398 
24952000    272.36967    305.74518    315.94949   -14.493521    15.043733   -10.204307    40.173702 
24956000     269.7057    322.70196    279.55252   -13.329622    16.931562    43.149434     40.17669 
24960000    272.27581    336.77035    307.41839   -13.981083     16.31826    29.351966     40.17422 
24964000    254.89098    312.91149    270.41047   -13.428955    18.138251    42.501019    40.173404 
24968000    264.10007    334.97042    282.76684    -15.47409    16.875494    52.203582    40.171697 
24972000    264.52919    320.54011     283.5611   -15.163785     16.61725    36.979012    40.170698 
24976000    267.24472    313.39493    286.99545   -13.799426    16.469843    26.399475      40.1666 
24980000    266.09658    313.59024    276.37331    -13.54513    16.481808    37.216932    40.165281 
24984000      264.817    322.38177     276.2961   -13.849054    14.976726    46.085664    40.163457 
24988000    261.67767    309.76708    281.09223   -13.947585    15.576847    28.674854    40.161353 
24992000    268.30569    324.90537    273.16654   -14.455128     15.56052    51.738835    40.163941 
24996000    271.77331    317.02651    284.25683    -14.91399    15.310859    32.769681    40.164914 
25000000    272.22406    325.89458    267.95832   -13.705327    16.509621    57.936257    40.162006 
25004000    272.28455    307.01264    282.86025   -13.751493     15.55341     24.15239    40.163566 
25008000    271.55375    323.33811    289.61576   -14.460749     14.93929    33.722353    40.163721 
25012000    259.23682    315.47381    255.13911   -13.752649     17.76077    60.334699    40.163152 
25016000    266.07681    314.31477     278.9372   -14.186332    15.564334     35.37757    40.163846 
25020000    281.87301    352.94851    296.58909   -15.958469    14.918074     56.35942    40.165958 
25024000    267.19727    331.71533    281.19514   -15.162749    16.046179    50.520192    40.164083 
25028000    270.55305    320.10546    286.84894   -15.030443     15.10436    33.256523    40.164228 
25032000    270.78378    327.89033    267.34394   -15.660474    17.612901    60.546392    40.165186 
25036000    264.40112    308.74038    272.09475   -14.088007    16.462641    36.645626    40.163923 
25040000    267.20752    313.90882    267.54717   -13.715059      15.8718    46.361654    40.161858 
25044000    263.93735    299.33108    272.33002     -13.9192    16.342683    27.001058     40.16257 
25048000     265.8139     330.0502    274.42173   -15.133585    16.445832    55.628475    40.161127 
25052000    262.66705     312.1895    266.88236   -13.718616     16.84312    45.307141    40.160652 
25056000    262.74004    314.73922     275.5215   -14.155822    17.685446    39.217725    40.160677 
25060000    268.52018    335.11401    282.05877   -14.620225    16.588843    53.055232       40.163 
25064000    266.14511    320.83034    274.16124   -15.237867    17.395732    46.669098     40.16556 
25068000    266.91496    305.52755      276.811   -14.605723    16.577104    28.716549    40.162126 
25072000     261.9366    306.16282    268.49571   -16.091228     16.83246    37.667109    40.161183 
25076000    269.56294    319.07673    285.10793    -15.76639     17.08895    33.968799    40.160602 
25080000    264.48972    307.16807    276.41157    -14.43959    17.042434    30.756499    40.159885 
25084000    268.36343    315.15519    284.03145   -15.165268    16.545016    31.123745     40.15914 
25088000    263.54997    297.03988    284.42942   -15.797953     16.99453    12.610462     40.15751 
25092000     273.2478    331.96051    285.33538   -15.775515     16.45412    46.625131    40.159484 
25096000    267.96773    317.58463    285.85917   -13.916518    17.433743    31.725463    40.161697 
25100000    267.64982    322.17933    276.46821   -15.098027    17.576751    45.711124    40.159848 
25104000     263.1708    331.67526    265.63649   -13.954524    18.197086    66.038767    40.159338 
25108000    271.67687    322.52726    294.90232   -15.136589    17.283852    27.624943    40.158303 
25112000    265.71612    333.67458     259.9893   -14.402155    18.475747    73.685284    40.156244 
25116000    277.85558    325.61651    305.77415   -14.663854     16.49751     19.84236    40.155733 
25120000    270.28353    315.90703     295.8138   -14.469906    15.979397    20.093233    40.155288 
25124000      267.906    308.40188    285.02895   -14.829244    16.636142    23.372931    40.153882 
25128000    276.63649    337.07371    291.95925    -15.92857    16.997583    45.114461    40.153684 
25132000     268.4759    324.09785    269.92885   -15.862603    17.743813       54.169    40.152723 
25136000    269.77897     325.6157    283.57712   -15.520229    17.572194    42.038578    40.153199 
25140000    266.73085    315.70171    274.74314   -15.273763     18.12535    40.958567    40.152792 
25144000    263.71607    328.14174    258.60178    -16.52468    17.625412    69.539962    40.154973 
25148000    269.28793    307.35263    303.93973   -15.339632    15.603897    3.4129032    40.151004 
25152000    263.57083    317.32633     266.2059   -15.859926    17.194618    51.120431    40.151277 
25156000    270.12757    325.08036    282.07827    -15.50199    16.996823     43.00209    40.152983 
25160000    270.42432    333.62051    269.76018   -15.889089     16.23658    63.860331    40.152761 
25164000    270.75334    335.89689    280.03967   -15.663038    17.375518    55.857216    40.151139 
25168000    269.55611    308.49904     285.1525   -14.073631    17.573372    23.346541    40.151122 
25172000    279.65634    347.01507    292.63987   -15.904002    17.116302    54.375207    40.153172 
25176000    267.84465    324.24195    271.62807   -15.720489    17.473643    52.613888    40.153802 
25180000    269.74693    303.81872    300.67602   -14.026373    15.871152    3.1426977    40.150709 
25184000    271.55165    296.68274     292.1539   -14.655908    15.989054    4.5288495     40.15095 
25188000    262.34327      309.653    260.41843   -14.499581     17.21037    49.234575    40.149944 
25192000    264.68342    322.09861    259.91339    -16.26032    17.666718    62.185217    40.148149 
25196000    269.12243    317.58125    289.15714   -14.900319    16.236037     28.42411     40.14792 
25200000    273.74157    312.26205     308.2629   -15.057556    15.091246    3.9991515    40.146655 
25204000    275.73563    324.32536    280.91249   -16.064403    16.231571    43.412865    40.146869 
25208000    267.50565    306.11804    277.84423   -14.821737    16.739317    28.273813    40.148227 
25212000    266.92024    303.91949    289.78062   -14.549083     16.01446    14.138869    40.147606 
25216000    272.52087    315.94549    277.57757   -15.671367     16.68123    38.367922    40.146131 
25220000    273.05302    322.23151    275.60179    -15.60276     15.56456     46.62972    40.148311 
25224000    270.59847    310.41929    274.08503   -14.746438    15.608473    36.334254    40.150617 
25228000    270.24148    327.40283    273.19371   -14.852342    16.328893    54.209118    40.151385 
25232000     273.0954      329.022    293.79798   -16.558102    16.331442    35.224027    40.152069 
25236000    275.29667     336.3401    297.19423   -16.345979    16.553441    39.145864    40.151409 
25240000    273.70849    331.60532    287.76067   -16.174066    17.113594    43.844647    40.151499 
25244000    265.74092     318.6469    276.64707   -16.014085    18.735561    41.999836    40.151105 
25248000    266.41102    332.51937    271.90104   -16.832422     17.38055    60.618329    40.150457 
25252000    275.39786     351.4701     271.0403   -15.990752    19.005888    80.429799    40.153569 
25256000    265.96459    307.77824    272.98875   -15.760365    19.218612    34.789494    40.152912 
25260000    273.57411    303.66376    292.94267   -15.116301    17.599017    10.721093    40.153506 
25264000    263.12811    321.82696    263.50616   -15.086478    18.454972    58.320796    40.154737 
25268000    273.56975    338.04873     284.8518   -16.726631    17.218661    53.196933    40.155725 
25272000    268.71937    326.29927    275.39297   -15.625171    18.174839    50.906297    40.157311 
25276000     285.7497    365.54785    295.41437   -17.361916    16.442921    70.133487    40.159064 
25280000    259.53307    307.01012    269.60803    -14.37355    17.417512    37.402092    40.160995 
25284000    269.56579    323.94591    279.18506   -15.697952     16.80088    44.760856    40.159335 
25288000    275.10437    332.97551    288.04509   -17.226972    16.582892    44.930419    40.157991 
25292000    272.94291    311.77662    291.74254   -16.204284    16.622301    20.034077    40.158136 
25296000    278.61686     337.9628    300.18798   -17.922081    15.722454    37.774823    40.157364 
25300000    273.77593    316.48909    291.85635   -16.285175    16.130321    24.632735    40.157635 
25304000    277.16101    352.38817    290.55829    -17.72167    15.749605    61.829873    40.158188 
25308000    270.84197     325.9209    286.47266   -16.438371    17.453782     39.44823    40.157992 
25312000    268.32838    321.78045    288.87214   -15.465591    16.295217    32.908309    40.157412 
25316000    270.24161    311.29377    283.46814   -16.363062    16.175149     27.82563    40.156698 
25320000    275.96172    338.53588    297.23011   -17.494297    15.045409    41.305772    40.157593 
25324000    272.70913    295.83939    302.56393   -15.472729    16.517428   -6.7245364    40.153887 
25328000    274.79105    310.69793    281.33106   -15.943293    16.563902    29.366867    40.150578 
25332000    271.22811    312.46216    299.15305   -14.577978    14.891697    13.309105    40.146364 
25336000    267.16209    311.50561    279.82144   -16.478284     16.29106    31.684171    40.146721 
25340000    263.13795    299.37516    290.93858   -15.428677    16.722576    8.4365872    40.148829 
25344000    265.31844    305.43802    271.57235   -15.973749    17.629285    33.865667    40.149417 
25348000    268.70857    307.22995    265.73145   -15.485687    17.806824    41.498503      40.1527 
25352000    270.63086    316.80347    297.31181   -16.135247     15.83829    19.491658    40.153877 
25356000     270.8259    336.62483    276.97137   -16.562551    16.326118    59.653463    40.155095 
25360000    277.29373     340.8407    281.05601   -17.479038    15.819854    59.784688    40.154879 
25364000    277.75606    316.53181    300.23173   -15.638623    15.635832    16.300083    40.157209 
25368000    276.10411    340.33699    256.58742   -17.278973    18.591763    83.749578    40.158844 
25372000    261.66708    287.44379    263.25409   -14.997946    19.139055    24.189696     40.15756 
25376000    269.10109    335.95292    264.52748   -17.262377    18.889877    71.425441    40.160442 
25380000    277.73483    343.41484     292.4089   -17.698684    16.428494    51.005937    40.160191 
25384000     271.4128    328.22658    291.61126   -17.743699    17.051265    36.615312    40.163752 
25388000    268.79446    315.56978    297.60951   -15.643803    16.674995    17.960266    40.165302 
25392000    265.82977    335.11345    261.78031   -15.278586    16.849168    73.333141    40.167054 
25396000    266.70951    330.36637    268.18376   -16.744838    17.814274    62.182613    40.169851 
25400000    260.95781     296.0581    272.99373   -14.276352    16.410439    23.064373    40.169779 
25404000    273.63745    334.43549    289.04534    -15.34199    17.106167    45.390158    40.170599 
25408000    261.17101     324.2068    262.25908     -15.4809    17.619027     61.94772    40.172447 
25412000    270.66062    322.66446    280.64207   -14.381824    16.711873     42.02239    40.172787 
25416000    269.23775    305.16365    296.24987   -14.979591    15.673603    8.9137703    40.174254 
25420000    262.83992    319.14665    257.76795   -15.474984     17.14397    61.378702     40.17443 
25424000    269.16193    321.09878    288.21066   -15.535655    16.981886    32.888124    40.174625 
25428000    266.78247    307.05439    286.81325   -15.287051    16.007386    20.241142    40.176711 
25432000    264.94029    314.67372    292.33453   -14.854724    16.025164    22.339195    40.178371 
25436000    270.70899     331.4446     272.0959   -15.877972    16.978627      59.3487    40.178613 
25440000    265.91537    308.10017    274.71262   -15.146079    16.103779    33.387548     40.17935 
25444000    271.01565    316.83062    264.77435   -16.184167    15.795078    52.056265      40.1788 
25448000    267.49248    332.61475     273.2519    -16.99843    16.343462    59.362854    40.177715 
25452000    274.90054     320.3138    300.85096   -16.348198    15.794151    19.462834    40.176906 
25456000    270.45387    311.35903    276.83747   -14.694641     16.47514    34.521565     40.17706 
25460000    272.77229    323.07056    279.57454   -15.021545    16.387005    43.496026      40.1779 
25464000    282.22648    311.11928    296.53763   -15.317473    15.589155    14.581644    40.179913 
25468000    265.96133    317.18646    270.25076   -16.616644    15.937566    46.935704    40.180518 
25472000    276.49754    315.18469    286.00469   -15.822475    16.140299    29.180005    40.181565 
25476000    279.32568    327.90753    276.18259   -15.915016    16.455023    51.724936    40.181975 
25480000    266.23057    318.62831    264.37329   -15.616786    16.678748     54.25502    40.182393 
25484000    272.72755    327.61944    279.55808   -16.539058    16.564274    48.061368    40.184017 
25488000    281.23255    332.37867    304.98408   -18.141952    15.325421    27.394592    40.183026 
25492000    270.41819    327.23035    263.16132    -17.91319    16.054591     64.06903    40.182189 
25496000    278.47984    341.67701     279.7273   -17.058345    16.239591    61.949706    40.181765 
25500000     270.8542    309.93014    264.97768   -14.828599    16.959825    44.952464    40.179261 
25504000     281.0548    321.82129    285.68987   -16.356959    15.485951     36.13142    40.180613 
25508000    277.34391    323.83786    271.37892   -17.142371    15.027271    52.458934    40.180429 
25512000    268.70005    303.22049    275.33878   -15.626522    15.628058    27.881715     40.18085 
25516000    274.35627    324.87796    269.53559   -16.976895     15.43603    55.342376    40.180059 
25520000     271.6177    301.27362    281.69742   -15.228091    15.665879    19.576203    40.176606 
25524000    268.31136    314.91819    256.42292   -14.627535    16.613229    58.495276    40.177023 
25528000     274.6683    312.84994    295.88447   -15.704928    15.507686    16.965471    40.175095 
25532000    263.69928    298.72817    258.66088    -15.72668    18.357709    40.067282     40.17692 
25536000    271.48472    328.70378    281.54865   -16.596821     16.30955    47.155135    40.179161 
25540000    270.94275    309.35379    284.09078   -15.464905    16.163816    25.263009    40.178999 
25544000    269.47935    332.73009    285.95456   -16.925918    16.762385    46.775526    40.177885 
25548000    271.97725    327.88938    284.56242   -16.609265    17.033903    43.326966    40.178732 
25552000    276.28154    322.05192    294.03137   -15.304647     16.54618    28.020547    40.177218 
25556000    275.19939    332.37529    272.49614   -17.017234    17.703443    59.879144    40.178616 
25560000     270.9708    322.36124    270.94584   -15.908007    16.410004    51.415399    40.180038 
25564000    271.70146    330.03765    270.28797   -17.150232    17.224969    59.749687     40.17931 
25568000    273.23903    302.84927    284.92173   -15.581916     18.08237    17.927538    40.178644 
25572000     282.0772    328.06283    303.74562   -17.741564    16.625326     24.31721    40.180478 
25576000     271.5326    320.33426    285.15384   -17.593553    17.122094    35.180427    40.179287 
25580000    270.23479    312.32161    298.96473   -17.092175    17.205333    13.356888    40.177124 
25584000    267.56626    303.50938    284.37112   -15.291204    17.882104    19.138261    40.177761 
25588000    280.91611    311.31042    321.02936   -17.933975    16.022144   -9.7189329     40.17755 
25592000    266.27378     318.2139    276.22986   -18.850233    16.887731     41.98404    40.179419 
25596000    276.33223    315.50437    278.68184    -16.74278    17.041008    36.822529    40.179433 
25600000    272.44207    328.90462    269.21914   -17.083237    16.606933    59.685481    40.180655 
25604000    283.75171    342.02397    295.23163   -18.583006    16.229333    46.792333    40.180756 
25608000    270.95911    334.66009    268.51132   -17.818186    17.440573    66.148776    40.179051 
25612000    275.23369    320.25551    291.65193    -16.67839    16.796923    28.603579    40.180108 
25616000    278.54777    335.03802    290.10848   -17.607295    15.407471    44.929532    40.179367 
25620000    279.18415    338.13223    295.29468   -17.300423     15.31647    42.837555    40.182473 
25624000    273.41454    331.58606    271.69955   -18.514502    17.065424    59.886509    40.182817 
25628000    276.47419    312.09501    280.52585   -16.994689    16.028935    31.569162    40.181123 
25632000    281.08706    327.40288    287.74967   -18.935177    14.989255    39.653219    40.179881 
25636000    277.83982    310.55312    298.73545   -18.177615    16.207688    11.817676    40.179308 
25640000    274.93379    304.72988    278.82254   -17.585588     17.97279    25.907342    40.176951 
25644000    281.85822    333.19365    281.48683   -18.238776    17.377436    51.706818    40.176824 
25648000    272.70579    303.87305    289.01119    -17.62049     17.09001    14.861859    40.178099 
25652000    273.42814    317.00283    271.39983   -18.028664    17.667635       45.603    40.177306 
25656000    262.48893     285.0345    276.16184   -15.606137    18.098359    8.8726632    40.175121 
25660000    277.57569    324.83148    276.45835   -16.883935    17.313625    48.373136    40.175226 
25664000    281.10225    344.46524    282.38861   -18.725842     17.52589    62.076629    40.174519 
25668000     279.3043    335.53934    292.54146   -19.029561    18.237889    42.997885    40.173047 
25672000    275.04466    337.23131    264.43092   -18.814605    18.420668    72.800395    40.173626 
25676000    274.82594    314.79088    289.64725   -17.201755    17.028101    25.143629    40.173075 
25680000    271.23945    308.71836     286.5401   -17.987044    17.945967    22.178263    40.172156 
25684000    285.64822    331.23796    311.59953   -19.793352    14.766752     19.63843    40.173015 
25688000    275.90621    324.33182    280.32306   -17.341794    16.078868     44.00876    40.174044 
25692000    275.14579    325.57381    266.07275   -18.684123    18.336337    59.501057     40.17438 
25696000    278.45091     314.5307     297.2922   -18.731899    15.329029    17.238504    40.173158 
25700000    277.06353    318.68669    293.02218   -17.377645    15.414812    25.664518    40.175022 
25704000    277.73397    336.51559     277.4699   -18.757957     15.74159    59.045696    40.176124 
25708000    275.57026     332.0051    261.76546   -19.185713    17.344473    70.239645    40.176833 
25712000    272.57169    294.51884    279.86502   -17.316952    16.499317    14.653822    40.174948 
25716000    277.86484    320.77293    288.07552    -17.40993     16.21531    32.697406    40.176921 
25720000     276.7581    326.62818    296.25962   -19.031619    15.891172    30.368562    40.177904 
25724000    274.00705    305.55132    273.42213   -17.955614    17.752638    32.129186    40.177368 
25728000    275.40581    313.29907    278.22259   -19.073682    15.820184    35.076477    40.178271 
25732000    281.99555    317.46066    284.85158   -20.137342    17.137839    32.609085    40.177059 
25736000    280.11413    302.46051    298.02021   -18.111513    17.290792    4.4402973    40.177506 
25740000    275.95049    313.60132    289.64835    -18.22811    16.061168    23.952962    40.176985 
25744000    272.51964    328.99056    266.82564   -17.557092    17.478799    62.164925    40.174872 
25748000    269.90872     321.0911    260.36682   -17.143401    17.969732    60.724279    40.175664 
25752000    266.99921    308.66757    264.88248    -16.32047    17.851409     43.78509    40.173723 
25756000    272.10947    319.62914    290.22531   -18.003785    16.279667    29.403836    40.172626 
25760000    274.05597    330.33288    280.44025    -18.21698    16.378189    49.892628    40.173293 
25764000     284.7306    328.73981    298.27309   -17.664758    17.090116    30.466714    40.173853 
25768000    274.04452    318.81378    288.41282   -17.946933    17.304143    30.400961    40.173554 
25772000     270.4761    312.82637    277.40562   -17.792247     17.43274    35.420748    40.170033 
25776000    274.48199    322.05936    289.80516   -17.243363    16.516858    32.254197    40.167147 
25780000      269.734    312.92624    292.55037   -17.051088    16.419793    20.375875    40.167325 
25784000    265.91327    304.71001    273.48754   -17.113591    17.639527    31.222473    40.168863 
25788000    272.21271    333.86599    275.89055   -17.736902    17.529869    57.975441     40.17136 
25792000    273.95058    327.61467    289.61762   -17.610811    16.171573    37.997046    40.168898 
25796000    278.32443    343.84627    283.65826   -17.724472    17.212117    60.188002    40.168462 
25800000    281.62458    343.29957    289.30782   -18.566333    16.211259    53.991744    40.169365 
25804000    276.50973    355.09071    266.37157    -18.33239    17.498418    88.719136    40.170538 
25808000    267.01437    297.20998    282.32639   -16.386517    17.233925    14.883596    40.169525 
25812000    264.23162    299.56955     268.5657   -16.963002    17.849466    31.003845    40.168598 
25816000    286.99799    345.82144    302.54226   -18.072147     16.19982    43.279177    40.171655 
25820000    271.17318    305.82797    304.76148   -16.493117    16.030289    1.0664905    40.166843 
25824000    267.30354    297.29076    279.27397    -14.81454    17.494496    18.016793     40.16573 
25828000    277.18852    325.05752    301.61318    -16.35121    16.276556    23.444344    40.165862 
25832000    269.69977    321.77908    279.07532   -16.695806    17.385223    42.703765    40.168223 
25836000    275.33439    349.50028    291.64459   -17.778621    16.545853    57.855695    40.169017 
25840000    266.23393     312.4998    285.79121   -15.366755    17.667922    26.708594    40.166668 
25844000    267.57012    306.07432    276.73189   -14.906893    18.435783    29.342437    40.168757 
25848000    275.15399    345.95573    287.12513   -16.915675    17.710882    58.830601    40.170986 
25852000    270.38296    310.64183    282.56806   -15.878423    17.358254    28.073767    40.170436 
25856000    277.74671    341.26413    291.73243   -16.689102    16.987481    49.531704    40.169248 
25860000    265.92833    306.46154     290.2942   -16.028299    17.895598    16.167343    40.167122 
25864000     258.9191    309.20661    274.04486   -16.122972    19.049524    35.161749    40.165732 
25868000    267.52142    315.55629    276.70387   -16.476776    19.404112    38.852425    40.166469 
25872000    269.82901    328.74874    279.05598   -16.069829    19.043948    49.692757    40.166153 
25876000    269.91217    326.33528    297.96304   -16.504658    17.576095    28.372247    40.168906 
25880000    272.55052    339.10574    290.84826   -16.275335     18.17541    48.257471    40.169829 
25884000    260.89421    296.31021    281.97166   -15.103614    18.270733    14.338551    40.167809 
25888000    268.14544    331.08279    270.41163   -17.429455    19.151265    60.671153    40.165582 
25892000     269.2134    312.42702    277.64193   -16.475971    18.410959    34.785088    40.166237 
25896000    267.98744     317.0211    282.92109   -17.296697    18.222278    34.100015    40.165656 
25900000    273.11819    329.66841    288.00332   -17.712625    18.435781    41.665093    40.163265 
25904000    273.56798    344.96118    285.61088   -17.776479     18.02698    59.350292     40.16582 
25908000    268.88908    304.21036    289.93036    -16.44152    16.892486    14.280001    40.164668 
25912000     269.6885    322.25233    292.39106   -18.541087    16.907354    29.861271    40.165055 
25916000    275.75578    333.23759    276.40783   -18.581397    18.349205    56.829758    40.167405 
25920000    277.03585    314.52717    308.64886   -16.872521    16.486555    5.8783135    40.165901 
25924000    276.03077    319.56075    288.09713   -17.032216    17.281074    31.463623    40.166813 
25928000     263.9745    320.15066    258.12557   -16.945274    18.189192    62.025093    40.167213 
25932000    269.78528    308.02135     292.0113   -16.007341     16.63097    16.010047    40.167408 
25936000    270.46984    305.90814    288.89561   -16.924446    16.827731    17.012531    40.166108 
25940000     274.7326    344.37528    280.22861   -17.070492      18.6262    64.146678    40.167969 
25944000    270.47888    324.33207    281.93202    -17.61169    18.484332    42.400056    40.168013 
25948000    280.48149    331.78819    292.97871   -18.165313    17.699233    38.809474     40.16824 
25952000    268.34897    328.68665    277.71403   -18.538265    17.867532    50.972616    40.167991 
25956000    272.57963    321.63069    279.20579   -16.963578    17.472377    42.424899    40.169184 
25960000    275.40491    317.61916    297.57873   -16.599389    17.705268    20.040431    40.167862 
25964000    270.99259    335.47892    277.31428   -18.300774    18.850855    58.164637    40.168028 
25968000    279.53297    336.99518    293.17105   -18.093262    18.875124    43.824129    40.166055 
25972000    272.60853    337.57845     276.1144   -18.606854    19.079895    61.464056    40.165639 
25976000    266.55739    309.17857    271.91943   -16.264684    19.908298    37.259143    40.164941 
25980000     268.0132    320.39891    286.86499   -16.327849    17.845975    33.533921    40.162655 
25984000    271.92695    326.93385    284.02198   -16.055043    18.070112    42.911872    40.163539 
25988000     276.5434    337.87705    289.41108   -17.296242    18.128209     48.46597    40.164744 
25992000    283.19917    348.88976    310.09303    -17.10372    16.864429    38.796724    40.163703 
25996000    277.89913    333.69585    287.28811   -17.589642    18.667439     46.40774    40.163691 
26000000    271.06609    321.10173     273.9018   -16.759892    18.022222     47.19993    40.163699 
26004000    263.59411    317.62394    257.11189   -16.746835    19.699372    60.512049    40.164913 
26008000    260.60193    306.68364    276.48327   -17.404869    18.617724    30.200372    40.164214 
26012000    265.77479    290.20083    302.40209    -15.48153    17.924398   -12.201263    40.163609 
26016000    266.25066    306.79447    302.65038   -16.829104    16.987752    4.1440809    40.163486 
26020000    262.69752    317.96457    259.13669   -17.602911    19.128137    58.827881    40.165649 
26024000    265.72875    320.59349    281.65719   -17.955161    19.051322    38.936304    40.164286 
26028000    275.67015    327.51123    289.10355   -17.526461    17.745743    38.407676    40.164095 
26032000    269.41189    313.88792    280.08706   -15.773821    18.531078    33.800858    40.161253 
26036000     272.8987    301.69363     298.9736   -15.758159    18.404026    2.7200269    40.159082 
26040000    266.57466    325.51014    264.08311   -17.161488    19.952238    61.427027    40.158482 
26044000     258.8595    299.59692    269.91865   -15.017259    18.457606    29.678272    40.158652 
26048000    280.22483    309.71746      319.298   -15.388433    15.604048    -9.580536    40.156594 
26052000    266.65407    311.76373     270.0599   -15.553816    17.618905    41.703839    40.157658 
26056000    266.81083    315.19151    293.20055   -17.123973    16.793414    21.990958    40.156117 
26060000    275.66835    342.97883    284.03516   -17.890109     18.16706    58.943667    40.155521 
26064000    277.12485     350.5304    263.65263   -18.885494    18.622577    86.877766    40.153888 
26068000    270.19755    307.94742    290.99167   -16.482759    17.184781    16.955753    40.153017 
26072000    276.06014    322.59467    282.28987   -18.092674    17.858767    40.304803    40.153289 
26076000    280.38765    324.60548    287.81298   -18.116223    17.462067    36.792501    40.153072 
26080000    273.74268    310.38027    282.39177   -16.950158    18.323283    27.988505    40.152608 
26084000    272.64583    309.39948    299.46353   -17.620633    17.498073    9.9359522    40.152859 
26088000    276.09396    323.19478    281.45814   -17.909072    17.541338    41.736637    40.153979 
26092000    265.13843     301.9453    276.52239     -17.0502    18.618737    25.422908    40.155359 
26096000    273.52131    330.62263    286.09253   -18.680633    17.346774    44.530101    40.156283 
26100000    275.09735    322.46127     285.1498   -17.765418    17.446126    37.311463    40.156855 
26104000    274.84194    340.51198    280.60416   -18.797211    17.916899    59.907822    40.156286 
26108000    272.40614    330.36651    288.67857   -19.069329     17.31935    41.687932    40.154643 
26112000    278.77958    319.42315    292.18511   -18.021543    16.791746    27.238049    40.154029 
26116000    274.26982    311.80225    284.72064   -16.698187    16.915434    27.081609    40.153006 
26120000     267.1691    300.03827    274.05649   -17.702779    16.996563    25.981782    40.151284 
26124000     274.5297    327.09127    281.15248   -18.704065     16.94609    45.938781    40.150362 
26128000    280.52491     327.9098     271.7471   -19.602667    18.064154    56.162701    40.150519 
26132000    276.31478    324.37261    278.71459   -20.601681    17.449074    45.658022    40.153175 
26136000    273.30216    312.41259    281.04681   -18.429767    16.871892    31.365774    40.153953 
26140000    282.56781    346.09968    291.89085   -19.917251    16.427124    54.208829    40.152503 
26144000    274.03751    320.40448    258.05975   -17.834518     17.30042     62.34473    40.153436 
26148000    278.18972    329.30544    266.05714   -17.069503    17.418338    63.248309    40.153131 
26152000     275.1803     316.1969     285.7944   -17.025287    17.044326    30.402501    40.151734 
26156000     274.6086    315.72808      283.134   -17.711234    16.481094     32.59408    40.150787 
26160000    278.98924    332.77742    283.48317    -17.80282    16.729415     49.29425    40.151791 
26164000     275.2012     300.1679    290.98121   -17.390593    15.945382    9.1866918    40.149277 
26168000     278.0596    323.05894    279.41455   -17.362234     16.36128    43.644397    40.149053 
26172000    277.74464    336.14739    274.11083   -19.401667    16.896155    62.036564    40.148506 
26176000    276.65636      322.817    275.56156   -17.825259    17.342406    47.255442     40.14642 
26180000    276.84526    325.26581    296.46036   -18.939061    15.907705    28.805456    40.145922 
26184000    281.80805    326.07865    276.87587   -18.950203    16.810962    49.202779    40.143238 
26188000    272.67494    314.54459    287.35672   -18.924645    16.136188    27.187873     40.14503 
26192000    280.26564     335.5847    292.26873   -19.452662    17.021302    43.315969    40.145889 
26196000    280.08265    326.34967    282.99575   -18.199537    17.194029    43.353921    40.148961 
26200000    271.68454    300.45422    280.87327   -18.126469    16.881444    19.580949    40.147677 
26204000    271.46496    319.77209    275.88122   -17.630576    17.605858     43.89087    40.146866 
26208000    270.18593    304.02087    276.61384   -18.139178    16.517137    27.407031    40.145699 
26212000     281.4354    330.01276    284.71333   -20.187936    17.280482     45.29943    40.144642 
26216000    276.81953    340.72258    272.97705   -19.497813    17.376035    67.745529    40.146086 
26220000    268.84165    302.13093     280.6047   -17.551004    17.547181    21.526232    40.147386 
26224000    270.73239    334.27524    267.61719   -19.633548    18.738502    66.658043    40.148534 
26228000    271.04959    311.17811    286.35267   -17.843717    17.488086    24.825437     40.15138 
26232000    266.97159    303.64334    292.19923   -18.623389    16.137453    11.444105    40.147422 
26236000     272.5442    320.08777    274.74528   -17.818709    16.594096    45.342485    40.148317 
26240000    267.59463    312.34025    265.79645   -18.266983    17.028235    46.543805     40.14755 
26244000    275.00518    329.66326    273.48375   -17.961325    16.759924    56.179508    40.149557 
26248000    281.76135     333.5483    296.80455   -17.375614    15.410618    36.743745    40.150776 
26252000    273.05032    308.47374    291.85801   -16.668063    15.859771    16.615728     40.15126 
26256000    262.99568    326.25437    262.38272    -17.98195    18.740979    63.871656    40.153423 
26260000    268.76141    326.89105    260.24822   -17.042633    18.711111    66.642825     40.15599 
26264000    282.46545    314.46103    302.43041   -17.226236    18.033625    12.030618    40.155007 
26268000    257.79542    305.01686    253.36655   -18.373033    18.613012    51.650309    40.157415 
26272000    285.59176    327.04665    292.11143   -20.093122    17.300147     34.93522    40.155625 
26276000    271.93354    314.69961    279.08993   -18.287621    16.902559    35.609678    40.155947 
26280000    276.29066    329.46733    270.13311   -19.257523    18.119985     59.33422    40.157797 
26284000     270.7512    327.50046    274.51252   -19.351542     17.79931    52.987936    40.157458 
26288000    279.45652    325.69405    292.64331   -19.114145    17.207763    33.050736    40.160184 
26292000      268.706    302.80862    289.79812   -17.591736    18.156818    13.010495    40.159785 
26296000     272.8883    315.52027    279.49185   -18.239671    18.024624    36.028423    40.159803 
26300000     270.8387    320.11571    262.87522   -19.647044    18.849013    57.240489    40.162417 
26304000    276.09176    335.00726     283.1251   -18.625462    17.560632    51.882165    40.161747 
26308000    271.99992     309.3716    278.13076    -16.85344    17.888941    31.240837    40.162824 
26312000    273.96116    314.71592    270.81094    -17.77255    18.515167    43.904984    40.162985 
26316000    284.44477     364.3482    272.94137   -19.469609     17.90144    91.406828    40.162468 
26320000    268.50634    308.81872    281.30615   -18.175088    17.305448    27.512571    40.162054 
26324000    274.90565    302.34078    279.24974   -17.840545    17.527587    23.091041    40.160583 
26328000    267.09853    306.95471    272.11045    -18.58838     17.96711    34.844263    40.161243 
26332000    263.05897    305.58701    255.69146    -17.91621    18.474753    49.895545    40.162209 
26336000    281.69203    349.01833    273.71526   -19.676225    17.772696    75.303064    40.162136 
26340000    269.16027    289.26051     279.8169   -17.188721    19.087323    9.4436081    40.162477 
26344000    275.06953    328.68036    272.90828   -18.756473     18.75995     55.77208    40.161902 
26348000    264.25298     320.4767    260.26316   -18.172562    18.638544    60.213535    40.164428 
26352000    282.52736    343.33613    294.89412   -18.163173    17.120893    48.442015    40.163637 
26356000    274.08598    324.62052    269.93456   -17.398152    17.787136    54.685958    40.161562 
26360000    267.02677    309.51903    270.42076   -17.585728    18.951434    39.098268    40.161734 
26364000    271.52609     312.8208    263.29082   -17.671377    18.518234    49.529981    40.162692 
26368000    269.60745    314.62517     272.6032   -18.099215    17.681759    42.021969    40.163402 
26372000    276.64877     325.3977    278.93741   -17.793436    17.984202    46.460293     40.16255 
26376000    270.99212    321.18841    278.96143   -17.066319     18.76437    42.226983    40.160572 
26380000    277.05173    326.38208    283.75632   -17.728668    17.193692    42.625755    40.162593 
26384000    266.88179     283.7397    297.64027   -17.071922    19.465506   -13.900577     40.16069 
26388000    275.36824    326.63212    289.52501   -18.136064    17.851561    37.107104     40.15958 
26392000    262.92985    314.15256    266.34395   -17.288881    18.632146    47.808615     40.15883 
26396000    272.38851    302.08531    286.62903   -17.511004    18.132941    15.456281    40.157869 
26400000    267.45748    330.02017    272.57456   -18.238684    19.180916    57.445612    40.156527 
26404000    275.94508    334.71805    306.89354   -18.339059    17.576446    27.824505    40.156193 
26408000    273.80763    335.93124    262.50114   -18.788011    20.312529    73.430108    40.156856 
26412000    260.94726      307.593    266.41397   -18.092209    19.631816    41.179024    40.155536 
26416000    275.62105     323.2731    288.46632   -19.000643    19.055827    34.806781    40.155837 
26420000    267.38673    316.35955    273.05098   -18.483225    19.878157     43.30857    40.154695 
26424000    266.97434    310.10604    276.15308   -18.109374    19.797208    33.952955     40.15371 
26428000    285.10236    334.81114    304.33104   -20.292839    18.698833    30.480094    40.155844 
26432000    276.13498     332.2206    286.78674    -18.25251    18.866086    45.433863    40.155604 
26436000    267.60406    322.10643    279.09041   -18.046524    20.012489     43.01602    40.156131 
26440000    261.98239     313.3515    272.85966   -19.450524    19.780062     40.49184    40.159066 
26444000    271.13629    326.49617    277.31708    -18.90286    19.800945    49.179092    40.159694 
26448000    270.57528    316.40518    285.50298   -18.524252    18.620538    30.902202    40.158163 
26452000    277.44004    335.96493    279.44922   -19.279366    18.168938    56.515712    40.155328 
26456000    276.56155    313.84935    313.90732   -17.531537    15.889247 -0.057970177    40.155788 
26460000    268.94134    318.84663    274.38731   -17.419382     18.02073    44.459325    40.158169 
26464000    273.92193    327.29665    286.46539   -18.551103    17.417604    40.831263    40.160014 
26468000    274.64599    314.95512    286.52754   -18.425417     18.64746    28.427576     40.15899 
26472000    262.27944    291.94922    280.48275   -17.239181    18.904301    11.466469    40.160221 
26476000    265.41888    300.16252    281.06503   -17.828355    18.623467    19.097495    40.161379 
26480000    274.60407    322.28244    295.63138    -17.98309    18.064626    26.651057    40.162135 
26484000    273.25963     335.0516    280.91246   -17.979142    19.205792     54.13914    40.161544 
26488000    274.87782    325.56467     284.4096   -17.440721    18.762253    41.155063    40.161295 
26492000    276.10108    332.84036    306.60613   -18.901131    17.389143    26.234229    40.159043 
26496000    265.28947    299.18248    290.03669   -16.798756     18.92886    9.1457947    40.161401 
26500000     271.3514     335.7957    279.98511   -19.897913    19.129915    55.810593    40.162009 
26504000    269.60933    327.67471    285.60927    -19.16062    20.050823    42.065443    40.162744 
26508000    262.98973    314.19539    268.57411   -17.748018    19.570777     45.62128    40.161086 
26512000    271.03016    318.75371    285.61097   -17.265294     18.90301    33.142733    40.160831 
26516000     253.3646    306.24175    254.41995   -15.846954    20.197927    51.821798    40.159952 
26520000    263.13726    301.21919    276.16601   -17.004927    19.566711    25.053177    40.158533 
26524000    271.18758      332.967    284.55305   -18.172474    20.618793     48.41395    40.160396 
26528000    266.75106    308.00361    290.41732    -17.74252    19.417816    17.586287    40.160339 
26532000    264.75055    320.08679    262.71681   -19.032939    21.436958    57.369983    40.159676 
26536000    273.56194    325.24829    287.89743   -20.567111    19.384723    37.350858     40.16125 
26540000    275.07508    336.45415    293.40414   -21.230994    19.489932    43.050007    40.163306 
26544000    269.87758    339.59931    263.63132   -21.020666    21.499114     75.96799    40.163278 
26548000    275.06293    346.05012    277.24708   -21.418392    20.568729    68.803034    40.162155 
26552000    276.87134    347.47552    263.73086   -20.121768    21.347558    83.744664    40.163207 
26556000     271.5636    318.89601    268.07867    -19.39955    21.043263    50.817339    40.164526 
26560000    274.66657    322.78003    282.65667   -18.239755     20.12286    40.123359      40.1656 
26564000    270.16696     312.5872    295.37208    -18.34265    18.936354    17.215112    40.165242 
26568000    264.49611    294.57396    287.50977   -16.447976    19.909996    7.0641898    40.166658 
26572000    280.79005    343.92927    307.42939      -19.641    18.110228    36.499879    40.166269 
26576000    279.39961    326.49653    303.71172   -17.375115    19.613836    22.784806    40.165688 
26580000    281.64768    324.77286    298.09866   -17.303018    18.596803    26.674198    40.167323 
26584000    269.63534    324.34136    281.86366   -17.996851    20.181493    42.477708     40.16788 
26588000    274.25709    338.68145      289.073   -19.700536    18.361099     49.60845    40.168326 
26592000    267.99771    330.52839    274.25962   -18.835728     19.46369    56.268774    40.168595 
26596000    267.28073    315.74859    266.98842   -18.177521    20.284941     48.76017    40.168674 
26600000    264.26955    296.67591    293.59349   -17.174605    20.214957    3.0824207    40.168702 
26604000    271.97032    341.36908    269.90486   -19.581515    21.067692    71.464224    40.168455 
26608000      266.268    327.39259    252.30007   -18.819002    20.998827    75.092529    40.168967 
26612000    264.59239    324.21932     270.3678   -18.491663    19.450638    53.851514    40.167704 
26616000    268.85287    326.17133    269.02255   -19.014225    19.980395    57.148782    40.167368 
26620000    271.53143    332.39687    274.43206    -19.71421    19.837986    57.964813    40.166714 
26624000    258.17312     291.4385    261.02306   -17.507558    19.678437    30.415439    40.166988 
26628000    276.97313    324.65093    284.02032   -18.910134    19.233361    40.630616    40.165135 
26632000    264.95785    316.16297    268.82392   -18.102345    20.731858    47.339053    40.163157 
26636000    270.99337    328.01324    286.60492   -18.715729    20.126728    41.408312    40.164927 
26640000    278.01592    330.98926    300.83011   -19.570555    19.652013    30.159152    40.165316 
26644000    265.82633    324.93376    267.58291   -18.545784    20.654785    57.350849    40.164985 
26648000    274.57432    338.16875    290.67533   -20.184945    18.738608    47.493426     40.16228 
26652000    274.27903    326.91029    284.77462    -20.28534     20.41137    42.135677    40.160885 
26656000     268.5977     330.5881    275.66853    -20.33654    19.931576    54.919565    40.162371 
26660000    277.89311    327.02791    280.00792   -19.899904    19.526223    47.019991    40.163714 
26664000    268.42235    328.79128    269.25113   -19.766213    20.001476    59.540143    40.161493 
26668000    269.53539    303.92884     290.3034   -19.445797    19.226507    13.625447    40.161415 
26672000    261.18269     299.2811    265.62926   -18.072904    21.284734    33.651839    40.158608 
26676000    275.37635     317.5971    284.74037   -19.565724    20.616922    32.856726    40.157157 
26680000     285.3938    340.67063     300.9898   -21.167036    18.128994    39.680832       40.157 
26684000    278.64232    308.67709    308.95637     -19.5875    19.287107  -0.27928488    40.155943 
26688000    267.03068    314.88766    281.19511   -19.497661    20.178224    33.692546    40.157203 
26692000    263.97193    327.98324     267.5268    -19.85145    21.079169    60.456435    40.159809 
26696000    274.97856     326.8275    268.68212   -20.283972    20.182074    58.145377    40.159212 
26700000    266.49175    303.59742    289.56325   -19.686966    18.709306     14.03417    40.157905 
26704000     274.5983    336.65189    269.00336   -20.741516    20.388162    67.648532    40.159151 
26708000    270.22949    321.68615    279.42699   -20.084109    19.648613     42.25915    40.158138 
26712000    271.36366     323.4498    281.64168   -19.386715    20.191652     41.80812    40.158198 
26716000     268.6547    296.58882     278.6228   -19.376015    19.636578    17.966023    40.155649 
26720000    267.71707    309.29016    276.18436   -19.526484    19.982441    33.105799    40.156181 
26724000    271.14266    322.51934    282.00144    -20.20342    19.958179    40.517892    40.157737 
26728000    278.47746    346.55536    272.71036   -22.024686    20.796561    73.844997    40.158893 
26732000    273.49865    325.06125    278.45078   -21.461117    19.246987    46.610465    40.157173 
26736000    280.02022    323.61828    286.20329    -21.33248    19.454211    37.414992    40.156108 
26740000    275.41709    317.50478    288.89733    -20.48478    18.991019    28.607451    40.156892 
26744000    277.64997     333.4674    287.01628   -20.315543    18.888855    46.451122    40.157455 
26748000    267.65152    305.03642    266.73824   -19.431023    20.760702    38.298177    40.157616 
26752000    273.71667    333.99178    270.00165   -19.914411    20.109912    63.990133    40.158398 
26756000    272.06255     329.5942    256.97526   -18.420878    21.685801    72.618938    40.158424 
26760000    278.56464    321.17591    304.55411   -19.040701    19.127572    16.621801    40.157369 
26764000    270.18737    338.36482     263.9607   -20.479629    22.021938    74.404118    40.157812 
26768000    285.76929    332.50455    282.87796   -20.397829    20.294608    49.626595    40.156419 
26772000    274.82493    333.19712    272.67812   -21.316828    19.782665    60.518999    40.156187 
26776000    274.55325    329.37063    282.70043   -20.381182    19.357282    46.670207    40.156613 
26780000    273.45753    333.05946     285.9132   -20.165935    18.940259    47.146258    40.155219 
26784000    278.45575    333.97389    279.03229   -19.304964    20.201324    54.941598    40.156894 
26788000    277.77984    349.64614    276.23673   -21.266708    20.262902    73.409413    40.158656 
26792000     266.9385    321.85391    276.84262     -19.3452    19.794508    45.011289    40.158079 
26796000    266.85649     306.6847    270.14987   -19.327519    20.830888    36.534833    40.155708 
26800000    279.27084    324.60399      290.243   -19.593674    20.350582    34.360998    40.156249 
26804000    272.65235    318.80308    271.70068   -18.502164    20.237886    47.102393    40.156275 
26808000    273.39591    316.70184    275.88513   -19.338379    20.233912    40.816713    40.156234 
26812000    273.95509    321.61495    295.42389   -18.382831    19.725155    26.191059    40.156737 
26816000    267.40834    325.53895    262.86304   -19.122372    20.827843    62.675907    40.159832 
26820000    277.71653    334.15912    286.26562   -19.449864     18.38162    47.893494    40.160122 
26824000    288.33164    353.67086    279.39679   -21.678108    18.676701    74.274068    40.160856 
26828000    274.38866    316.22925    273.05241   -19.489977    19.366582    43.176847    40.161314 
26832000    272.32014    320.39569    275.20024    -20.20722    19.685079    45.195453    40.161708 
26836000    278.58845    342.34201    277.37022   -21.589926    19.099893     64.97179    40.164065 
26840000    283.51739    324.93303    309.07723   -21.434739    18.401325    15.855796    40.163084 
26844000    275.78091    325.88667    276.81413   -20.838861     19.12368    49.072543     40.16355 
26848000    273.15432    312.36442    279.68138   -19.650826    19.093474    32.683045    40.163549 
26852000    278.82397    331.09684    282.54024   -20.176738    19.193089     48.55659    40.162131 
26856000    271.07195    326.10665    258.11088   -20.855659    20.756677    67.995766     40.16354 
26860000    276.98525     331.6197    274.69823    -20.40221    19.106823     56.92147    40.161282 
26864000    273.97855    310.55966    283.51645   -19.000784     18.95327    27.043213    40.162321 
26868000    277.14398    327.32062    277.09095   -19.752165    19.410525    50.229671    40.161611 
26872000    277.13612    335.31959    276.66399   -22.198945    20.048312    58.655592    40.161458 
26876000    264.64225    302.10384    260.21309   -19.460519    21.180282    41.890748    40.161456 
26880000    276.12728    329.40678    282.37335   -19.492939    19.131882    47.033429    40.161906 
26884000    271.92726    315.77696    271.49485   -19.099846    19.366025    44.282108     40.16285 
26888000    290.18766    365.58817    298.98078   -21.717812    17.857947    66.607387    40.163254 
26892000    270.32778    311.15409    278.27191   -19.683022    19.241892    32.882177    40.163586 
26896000    278.95299    328.68626    270.64713   -19.033521    18.718245    58.039132     40.16467 
26900000    278.84599    313.22081    286.71807   -19.987654    18.484124    26.502742    40.164521 
26904000    270.44386     306.8024    265.77061   -20.083735    19.391166     41.03179    40.164024 
26908000    272.34924    316.10205     285.0954   -20.469269     19.51616    31.006653    40.163275 
26912000    280.12905    335.35861    291.50938   -21.199732     18.23689    43.849235    40.163995 
26916000    276.57555    326.29123    295.71184   -20.203428    18.600764    30.579382    40.162993 
26920000    271.26027    329.58869    262.98393   -20.718223    19.400832    66.604752    40.161994 
26924000      279.591     333.0742    289.62848   -20.323898    18.395352    43.445728    40.160678 
26928000    270.22428    294.45454    294.89849   -18.525975    18.300074  -0.44395237    40.159392 
26932000    278.28246    324.45133    286.63146   -20.277164    19.035997    37.819876    40.159464 
26936000      275.716    321.38713    284.47342   -19.520357    18.526599    36.913713    40.159937 
26940000     273.7415    327.26012    285.70382   -20.181406    19.271425    41.556304    40.159913 
26944000    277.15222    343.36445    262.28899   -19.731076    20.768829    81.075462    40.159313 
26948000    269.31067    343.28497     264.3346    -20.91124     18.99501    78.950372    40.161529 
26952000    282.77245    319.35167    286.74797   -20.304064    18.530854    32.603705    40.162274 
26956000    278.38966      325.876    309.74453   -20.392415    17.670298     16.13147    40.164668 
26960000    270.66852    317.32584    276.77561   -18.750572    18.421309    40.550227    40.164584 
26964000    270.06462    340.38913    266.79878    -19.84393    19.111817    73.590353    40.165726 
26968000    282.54313     347.6476    284.00403   -21.108832    18.533289    63.643576    40.164883 
26972000    272.62892     303.6188    282.40808   -19.776217    18.515932    21.210719      40.1657 
26976000    272.49774    327.32814    265.82386   -20.301609    18.546563    61.504276     40.16617 
26980000    273.89979    317.97686    293.84285   -19.651364    17.384994    24.134014    40.167174 
26984000    268.68317    299.69099    291.21552   -19.032852    18.563411    8.4754681    40.166862 
26988000    262.34921    302.49054    265.53412   -18.768488    19.210268    36.956417    40.167651 
26992000    278.29182    342.61876    276.06113   -20.544248    18.776214    66.557629    40.171188 
26996000    274.29956    311.60828    290.47572   -18.298774    17.925008    21.132563    40.170572 
27000000    274.11747     335.2397     273.4392   -19.448909    19.144391    61.800505    40.172139 
27004000    264.10006    318.98674    280.61493   -17.572962     18.79291    38.371812    40.172344 
27008000    266.23272    325.58887    263.19757   -18.291792    17.985823    62.391301     40.17131 
27012000    281.97739    338.88144     270.7449   -19.635837    18.549461    68.136536    40.170734 
27016000    280.33763    347.82393    280.84165   -20.080096    17.582164    66.982274    40.169257 
27020000    273.92205    312.32424    286.29804   -18.479264     18.63242    26.026198    40.169275 
27024000    272.19576    309.01459    274.79133   -18.658049    18.734155    34.223265    40.168689 
27028000     283.4807     339.0155     293.7307   -20.542448    18.340056      45.2848    40.170818 
27032000    270.92494    329.72992    269.76608   -19.765762    19.906981    59.963836     40.17148 
27036000    281.21851    336.54196    279.17989   -20.362108    19.219631    57.362071    40.173574 
27040000    276.11377    313.94679    291.36325   -19.379827    18.014334    22.583537    40.175234 
27044000    269.91998    323.11754    272.52979   -20.285847    20.276223     50.58774    40.174978 
27048000    282.85237    338.04043    285.61762   -20.091958    19.207753    52.422812    40.174239 
27052000    276.85107    339.01034    279.66508   -20.533168    19.143642    59.345258     40.17384 
27056000    282.12371    324.45175    294.92457   -18.120639    18.219771    29.527177     40.17397 
27060000     274.0083    313.10463    285.68591   -18.981815    19.680544    27.418716     40.17319 
27064000     276.4398    294.34202     283.3385   -18.059408    18.177776    11.003524    40.172256 
27068000     279.0132    338.30839    282.24849   -20.337756    17.819616    56.059904    40.172326 
27072000    275.50348    317.93622    294.73252   -19.653021    18.726143    23.203696    40.170906 
27076000    272.87717    315.45168    276.47626   -20.066121     18.62633    38.975422    40.169355 
27080000    271.83175    321.80679    281.75064   -19.996854    19.601956    40.056146    40.170019 
27084000    280.13673    333.32687    292.06463   -20.215602      18.4333    41.262235    40.169945 
27088000    278.51219    343.48461     293.7416    -19.93968    19.377341    49.743007    40.169989 
27092000    280.41532    322.66013    294.28056   -18.641806    19.224642    28.379566    40.168617 
27096000    281.04999    341.27223    272.35486   -20.332571    19.993043     68.91737    40.168483 
27100000    271.62482    306.13531     283.3601   -18.829826    19.653846    22.775209    40.167845 
27104000    279.54442    322.21237    296.75209   -19.463866    17.954587    25.460277    40.168281 
27108000    276.28723    320.24222    280.16638   -20.677434    19.371674    40.075848    40.165665 
27112000    283.23181    332.64306    278.73206   -20.752598    19.127857    53.911003    40.164777 
27116000    274.57072    310.15768    282.37549    -21.15752     19.14072    27.782188    40.164554 
27120000    278.40723    317.07423    272.61915   -20.897571    19.717181    44.455072    40.164547 
27124000    272.31172    312.01196    281.84517   -19.407887    19.360964    30.166795    40.164878 
27128000    276.64425    319.63643    277.98622   -20.212475    19.755515    41.650211    40.164052 
27132000    272.29218    298.65958    279.58018    -19.44928    19.866859    19.079408    40.165466 
27136000     268.8586    311.18457    254.59288   -19.181155    19.734274    56.591695    40.166678 
27140000    273.30673    308.37828    281.49059   -18.576345    19.135058    26.887691    40.167578 
27144000     282.4574    337.27464    288.17055   -19.481997    19.273698    49.104085    40.167858 
27148000    280.71124    363.10009    284.84134   -20.954975    19.061576    78.258753    40.168754 
27152000    271.15297    306.44496    288.51413   -18.452019    19.141535    17.930836    40.169606 
27156000    269.17328    309.87326    266.22124   -18.367211    19.837642     43.65202    40.168161 
27160000    274.59694    328.24277    272.68676   -19.998267     18.38779    55.556009    40.167154 
27164000     268.0522    306.82005    264.56435   -18.093337    20.357417    42.255706     40.16921 
27168000    263.43201    300.76383    257.47244   -17.504521    20.681998    43.291388    40.167716 
27172000    276.58729     317.9924    291.48849   -18.850669    18.806906    26.503904    40.167668 
27176000    282.02661    344.20917    278.78765   -20.123008    19.665211    65.421517    40.167387 
27180000    277.79633    353.31024    259.79707   -21.208576    21.434923     93.51317    40.167003 
27184000    267.17346    308.36978    279.45388   -20.718518    20.038009    28.915893    40.168119 
27188000    285.34956    338.12812    295.89003   -19.314749    19.706402    42.238088    40.167563 
27192000    267.19595    310.69585     268.1288   -19.881163    20.262841    42.567051     40.16943 
27196000    274.10714    329.59194     276.6758   -19.731351    20.206677    52.916139    40.168693 
27200000    272.96527    331.82238    276.02585   -19.986766    19.821286    55.796532    40.166453 
27204000    278.57095    341.50417     277.8179   -20.547413    19.501199    63.686277    40.167393 
27208000    277.71157     336.6054    282.60408   -21.379398    19.899632    54.001313    40.167057 
27212000    281.48989    332.39282    284.93241   -21.771588    20.547267    47.460405    40.168568 
27216000    270.70356    326.17165    280.32772   -21.265347    20.039039    45.843929    40.166631 
27220000    279.50596    348.71131    284.25082   -21.510403    20.807994    64.460485     40.16705 
27224000    270.68294    323.43503    272.02524   -21.096431    20.481886    51.409787    40.165782 
27228000     281.6138    335.95153    295.32432   -20.141283    19.008887    40.627208    40.166307 
27232000    272.54025    315.54854    282.11376   -19.768963    20.915597    33.434778    40.166612 
27236000    270.70186    318.79592    277.96451   -20.085429     20.93421    40.831411    40.167481 
27240000    274.07659    304.80556    290.34693   -19.759262    19.484961    14.458632     40.16416 
27244000    280.77295    330.97156    291.77006   -20.748892     20.31924    39.201504    40.163457 
27248000    277.26061    338.46649     292.6878   -21.100515    20.118334    45.778688    40.165681 
27252000    268.99314    312.03597    270.22629   -20.319657    20.468179    41.809683    40.166041 
27256000    280.75926    321.01905    286.80793    -20.09798    18.981047    34.211129    40.165984 
27260000     269.9002    325.40566    266.72307   -20.141688    19.589168    58.682583     40.16605 
27264000    261.67869    311.24422     270.6002   -18.779941    20.621445    40.644024     40.16625 
27268000    283.38025    325.34416    294.14289    -19.85896    20.112645    31.201269    40.165505 
27272000    261.42257    306.80616    278.86651   -18.312332    18.752934    27.939642    40.166548 
27276000    265.19289    301.52122    272.24951   -17.989428    19.306611    29.271706    40.165826 
27280000    272.00576     320.7275    280.66666    -19.52803    20.840536    40.060842    40.166707 
27284000    262.27837    308.45676    263.81102   -17.933215    20.995701    44.645734    40.165877 
27288000    268.39904    314.41946    269.48981   -19.561495    20.879964    44.929647    40.165276 
27292000    271.18653    318.76538    282.48265   -19.322782    20.440704    36.282737    40.163401 
27296000     272.9546    325.79918    279.89131   -18.429695    19.970015    45.907875    40.162481 
27300000    271.07152    306.80178    275.10564   -18.577188     20.32465    31.696132     40.16315 
27304000    267.70894    331.45866     280.2825   -19.556816    20.437816    51.176154     40.16389 
27308000    275.39571    334.83314    282.89616   -20.013187    20.453712    51.936978    40.163181 
27312000    265.22812    312.64459    285.38181   -18.620056    19.778252    27.262781    40.161488 
27316000    273.67898     322.4453    295.63292   -19.293235     18.45058    26.812379    40.162194 
27320000    274.83792    333.80699    266.91154    -18.80504    20.246629    66.895449    40.162405 
27324000     266.5652    333.72973    259.74792   -18.477156     20.78978    73.981806    40.164399 
27328000     263.4823    317.51141     262.8663   -16.994926    20.438724    54.645114    40.161859 
27332000    271.88305    326.43873    267.73186   -17.556279    20.961721    58.706867    40.162679 
27336000    274.96372    316.96931    300.10947   -18.533772    19.416773    16.859846    40.163794 
27340000    271.26776    322.30844    277.06064   -20.022326    20.182596      45.2478    40.162741 
27344000     277.6828    336.75601    295.69693   -20.109827    19.035991    41.059081    40.161395 
27348000    277.56618    326.75474    283.67291   -19.202101    19.549724    43.081827    40.159432 
27352000    277.17643    328.74108    303.65336   -19.311602    18.459238     25.08772     40.16014 
27356000    279.51494    351.61594    276.69523   -20.567466    19.213454    74.920702    40.160209 
27360000    263.70839    322.89544    266.30995   -19.302366    21.070389    56.585496    40.162201 
27364000    262.34077     307.9984    257.05445    -19.13703    20.791183    50.943947    40.162751 
27368000     273.7398     327.2154    282.48034   -20.202304    20.518903    44.735068     40.16298 
27372000    273.61041    332.66136    273.26712   -20.796841    20.780891    59.394238    40.162064 
27376000    286.69311    350.25533    289.00056   -21.455378    20.054735    61.254765    40.162051 
27380000    266.94481    300.03504    268.84333   -18.847211    21.622944    31.191709    40.162466 
27384000     274.5512     333.9728    274.86326   -21.355835    20.605683    59.109535    40.161468 
27388000    278.77458     329.0335    278.04487   -21.841322    21.069532    50.988631    40.160184 
27392000    276.84361    320.07454    289.59497   -21.082275       19.607    30.479579    40.159069 
27396000    278.05714    342.34224    281.38076   -22.691815    20.386772    60.961484    40.158327 
27400000    272.51537    326.57885    272.53397   -20.965088    20.633385    54.044878    40.158133 
27404000    272.54941    334.83664    268.26505   -20.699138    22.079871    66.571585    40.159213 
27408000    277.79448    316.04905    301.42176   -20.173404    20.316703    14.627287     40.15962 
27412000     269.6223    314.83597    277.39741    -20.07595    21.137939    37.438553    40.158627 
27416000     282.3107    331.53618    287.05052   -21.687281    20.368885     44.48566    40.157732 
27420000    274.32053    322.46303    277.83386   -20.542816    20.312612    44.629172     40.15742 
27424000    271.04927    332.53707    272.40411   -21.563693    20.576708    60.132954    40.157635 
27428000    272.74248     327.3479    269.59664   -20.159042    21.727278    57.751256    40.158596 
27432000    272.01272     307.4307    296.42797   -19.342229    19.734589    11.002735    40.157868 
27436000     281.0443    336.89204    285.89861   -22.677096    19.108642    50.993425    40.159129 
27440000    280.81466    311.44173     295.7252   -21.798693    19.218026    15.716524    40.157564 
27444000    278.94022     313.1154    304.26447   -21.722718    19.574643    8.8509306    40.157917 
27448000    282.05601    328.06513    305.25327   -21.688039    20.692559    22.811866    40.157114 
27452000    279.72476    344.81715     300.8003   -22.403814    20.202393    44.016842    40.156765 
27456000    277.59449    329.22037     300.3961   -22.627859     19.72585    28.824273    40.155509 
27460000    278.23614    324.28025    271.83252   -20.864515     22.24641    52.447729    40.154612 
27464000    275.06244    333.62569    267.03432   -21.537082    22.710559    66.591369    40.156489 
27468000    280.94833     333.9985    272.68134    -22.90636    21.355411    61.317163    40.156378 
27472000     266.1223    310.91336    275.38745     -21.3243    21.466988    35.525917    40.155202 
27476000    273.51399    312.12363    278.44092   -21.133586    22.105397    33.682706    40.154088 
27480000    277.22745    312.24534    290.82813   -21.101696    20.735923    21.417206    40.154812 
27484000    272.10611    334.67739    265.24438    -22.08418    23.043042    69.433011    40.155587 
27488000    275.38908    328.02415    285.79994   -21.238774    20.779607    42.224217    40.155311 
27492000    265.14107    301.51046    257.98158   -21.123529    21.989768    43.528885    40.154965 
27496000    266.88496    305.97724    281.02831   -21.322392    20.650335    24.948934    40.154808 
27500000    272.38706    317.25287    267.56078   -20.631066    20.564829    49.692088    40.154913 
27504000    268.76956    318.63727    265.48509   -19.616689    20.674468    53.152178    40.155619 
27508000    274.99095    327.60522    284.41399   -21.118306    20.070413    43.191231    40.155607 
27512000    273.28463    344.04423    272.62423   -22.670503    20.656759    71.419999    40.155134 
27516000    270.73939    306.98802    286.77027    -20.54498    19.644248    20.217747    40.155389 
27520000    271.44278    319.71898    280.83582   -21.294374    20.427666     38.88316    40.154984 
27524000    284.25022    331.37416    295.19877   -22.059542    19.523139    36.175392    40.154923 
27528000    273.73383    312.32946    290.83796    -20.88572     20.26117    21.491497    40.156086 
27532000    272.23995    330.47861     273.1147   -21.906805    22.167811    57.363908    40.156415 
27536000    272.98495    322.43926    286.42243   -20.210393    20.605438    36.016839    40.156303 
27540000    274.18271    310.95191    300.27719   -20.166232    18.324004    10.674716    40.155884 
27544000    268.80145    320.78521     275.9402   -21.320207    20.508131     44.84501    40.156807 
27548000    276.02059    313.55316    290.50372   -22.486115    19.743781    23.049441    40.155442 
27552000    276.57478    334.86422    274.90694   -21.637716    20.603667    59.957282    40.154686 
27556000    273.92503    321.37502    276.65831   -22.385023    20.269346    44.716705    40.154299 
27560000      273.622     305.5363    299.00948   -20.180085    18.523265     6.526827    40.153542 
27564000    268.39723    314.22931    290.60279   -19.965736    20.678219    23.626517    40.153211 
27568000    274.77885    335.99282    286.92682   -21.494838     20.41555       49.066    40.150703 
27572000    267.81546    309.73138    282.51343   -20.170203    20.715158    27.217956    40.149444 
27576000    278.06209    350.89318    273.64635    -21.06589    21.344559    77.246825    40.150559 
27580000    266.26598    318.95625    264.04332   -20.334998    21.035306    54.912936    40.149815 
27584000     275.3762     318.5359    284.79644   -19.936568     20.63532    33.739468    40.149093 
27588000     266.1518    301.13009    266.67483    -19.52753    20.527735    34.455262    40.149337 
27592000     270.7979    315.73458    281.67395   -20.297278    21.197767    34.060634    40.147693 
27596000    275.57247    329.55287    275.19413   -21.442385    20.134049    54.358745    40.147265 
27600000    265.22928    297.25821    279.83621    -18.83107     19.33765    17.422002    40.147751 
27604000    270.22996    312.50366    279.02243   -19.608124    20.089356    33.481232    40.147152 
27608000    278.38078    327.25421    297.85915   -22.100008    19.215854    29.395066    40.148438 
27612000    270.20097    310.07711    279.38881     -20.2633    19.943026    30.688305    40.148583 
27616000     278.5944    335.01566    288.31608   -19.956627    20.018204    46.699581    40.146974 
27620000    277.85626    338.53814    295.13818   -19.185435    19.583533    43.399961    40.148708 
27624000    274.54481    323.08851    303.96451   -18.984056    19.102512    19.124001    40.148461 
27628000    267.20803    303.90451    281.85789   -18.198106    19.352664    22.046618    40.147649 
27632000    269.33602     324.8782    287.72678   -19.772704    20.171189     37.15142    40.146292 
27636000    265.44738    321.93247    271.65385   -18.486971    20.247501    50.278616    40.144732 
27640000    271.79443    312.46948    278.68516   -19.246615    20.902506    33.784326    40.143852 
27644000    265.68862     295.6047     282.4124   -18.884064    20.292988    13.192304    40.143022 
27648000    277.63272    353.19695    273.23927    -21.43342    21.601051    79.957674    40.143776 
27652000    264.84667    306.33722    253.55367   -19.115277    21.545865    52.783544    40.143594 
27656000    266.59965    322.75716    274.32448    -19.92818    20.703281    48.432681    40.142661 
27660000    277.48854    356.11792    271.87515   -21.053263    21.121624    84.242772    40.143853 
27664000    265.67467    312.58546    273.20103    -19.80542    20.118961    39.384428    40.144461 
27668000     272.1268    314.32812    284.97467   -19.636715     20.37325     29.35345    40.141355 
27672000    267.51414    322.31513    267.35302   -19.952794    21.540083    54.962111    40.142339 
27676000    266.08038    319.21089     267.1642   -20.056885    20.914408    52.046688    40.141716 
27680000    277.13114    322.54592    303.07294   -21.144327     20.13637     19.47298    40.138266 
27684000    277.69284    329.92199    302.50105   -21.063538    20.453442    27.420944    40.139084 
27688000    270.72035    323.75135    297.57869   -20.042792    20.422451    26.172662    40.138553 
27692000    269.27362    302.53416    275.68001   -18.815728    20.217361    26.854145    40.137597 
27696000     267.4541    307.98631    276.64488   -19.073039    21.155519    31.341431    40.140124 
27700000    269.53449    323.98286    272.64822   -19.657905    21.228063    51.334633    40.138841 
27704000    265.11892    324.13176    275.94263    -20.45595    20.365927     48.18913    40.140797 
27708000    278.18326    322.35792    294.03996   -21.797271    19.263342    28.317965    40.140654 
27712000    269.06136    325.34204    265.79535   -22.171113    20.983204    59.546687    40.142623 
27716000     272.1574    303.24947    293.40296    -20.13179    19.303979    9.8465083    40.140775 
27720000    274.60578    323.10651    275.67083   -21.804688    20.170404    47.435685    40.142322 
27724000    275.42338    314.20611    283.28836   -21.228035    20.474319    30.917752    40.141194 
27728000    281.83871     350.9642    282.04577   -22.255009    20.468635    68.918434    40.142991 
27732000    275.90686    323.73429    291.38399   -20.439759    19.446244    32.350306    40.143405 
27736000    272.52903    307.59451     306.3305   -19.648928    18.942412    1.2640121    40.141108 
27740000    271.07579    314.56643    282.91733   -19.836038    19.195755    31.649105    40.140182 
27744000    273.32773     328.1003    282.59897   -20.099132     18.85563     45.50133    40.141801 
27748000    269.76254    312.74184    281.45041   -20.980948     19.77749    31.291425    40.142638 
27752000    266.22555    298.36468    284.58355   -19.934775    20.029869    13.781122    40.141713 
27756000    282.47929    339.23269    284.77243    -21.28096    20.385102    54.460263    40.142979 
27760000     270.5211    312.83017    258.02624   -20.638131    22.093418    54.803926    40.143222 
27764000    283.01238    333.53435    282.08683     -22.9739    20.804089    51.447516    40.143704 
27768000    277.25084    327.02604    290.76259   -22.718481    19.601984    36.263443    40.144516 
27772000    276.88037    324.91027    285.81553   -20.782171    20.977629    39.094741    40.143916 
27776000    275.70225    339.10268     270.6821   -21.713755    21.921737    68.420579    40.145145 
27780000    278.55464    319.54657    286.05435   -22.435174    19.678602    33.492223    40.146344 
27784000    270.10234    307.58854    284.33783    -21.07737    19.510627    23.250713    40.146802 
27788000    282.70646    326.84489    288.20038   -22.044447    20.447265    38.644509    40.145034 
27792000    276.95053    302.77436    276.27883   -20.297948    20.280904    26.495538    40.144777 
27796000    276.37479    320.52531    274.60991    -20.60147    20.749494    45.915396     40.14471 
27800000    281.02869    328.06383    283.44466   -22.108283    19.235449    44.619171    40.145267 
27804000    279.57871    307.46062    300.09504   -19.875478    19.967045    7.3655808    40.145071 
27808000    267.59465    300.38347    255.55653   -20.745613    21.768927    44.826931    40.144689 
27812000      281.729    338.49958    301.51273   -22.418765    19.588104    36.986851    40.144693 
27816000    275.12361    309.10078    287.88988   -20.479965    20.779806    21.210901    40.145853 
27820000    274.68657    332.54655    266.93043   -21.227835    21.057516    65.616125     40.14588 
27824000    278.20384    351.90384     290.2704   -21.732181     19.07468    61.633433    40.145501 
27828000    271.22616    330.76981    280.75142   -22.044846    21.626419    50.018395    40.146638 
27832000    272.75935    328.98533    289.06585   -20.770161    19.922051    39.919476    40.148176 
27836000    271.69322    299.62473    288.15582   -21.069238     20.96719    11.468911    40.147301 
27840000    277.54744    336.80188    271.97587    -21.52481    20.473029     64.82601    40.147783 
27844000    270.31891    311.96062    279.99185   -20.884268    21.799978    31.968768    40.146848 
27848000    272.18605    307.68739    285.82228   -21.598586    20.083471    21.865113    40.147013 
27852000    274.94142    330.77424    275.86169   -22.382122    21.381109     54.91255    40.146841 
27856000     271.1586    323.68899    294.81105   -22.559248    21.550356    28.877933    40.146458 
27860000    267.86109    331.06371    253.07959   -22.088009     23.79744    77.984124    40.147874 
27864000    268.99904    320.33919    277.77943   -21.736369    22.582032    42.559759    40.149213 
27868000    269.25157    328.97656    263.38216   -22.564721    23.664256    65.594397    40.151334 
27872000     273.7256    316.07419    289.62936   -21.686122    22.470264    26.444838    40.151396 
27876000    279.44562    352.27566     270.7609   -23.545698    23.296183    81.514761    40.152074 
27880000    274.19682    332.74662    276.96176   -22.538904    22.180118    55.784855    40.154807 
27884000     276.9334    347.58053    280.75365   -22.287884     21.56327    66.826884    40.154283 
27888000    271.30453    320.18157    278.87077   -21.865862    21.351869    41.310809    40.153418 
27892000    258.14367    288.83312    284.71559   -19.716447    21.472453    4.1175207     40.15395 
27896000    275.12271    312.12409    284.26779   -20.904938    21.113643    27.856299    40.153137 
27900000    267.68459     319.7376    275.05643   -22.039293    20.944491    44.681174    40.152655 
27904000    279.83507    328.95611    283.84104   -22.311091    21.566698    45.115071    40.152356 
27908000    268.30904    309.44569    275.55926   -20.971577    21.680285    33.886431    40.150961 
27912000    276.77425    330.57747    299.23727   -22.305584    20.298268    31.340206    40.151325 
27916000    274.62844    307.48961    294.66569   -20.302496    19.768982    12.823922    40.148959 
27920000    272.44407    321.80338    290.98328   -21.848063    20.447768    30.820106    40.148004 
27924000    268.69843    301.43447     278.4046   -21.031658    21.680337    23.029861    40.148786 
27928000    269.49092    307.32279    286.13414   -21.682208    21.062381    21.188652    40.146755 
27932000    269.21852    309.91547    276.08152   -21.599622    20.844091    33.833943    40.146196 
27936000    279.97185    328.72316     286.1643   -22.522242    21.631166    42.558855    40.145518 
27940000    279.85006    340.03313     278.3607   -23.072479    22.005062    61.672439    40.145332 
27944000    267.86712    315.47349    264.02243   -23.227296     23.13221    51.451061     40.14714 
27948000    288.28735    344.68376     295.1328   -22.565596    20.238559    49.550952    40.147415 
27952000    278.24737    338.12555    277.77934   -23.167953    20.999287    60.346205    40.147136 
27956000    271.47591      331.306     277.7187   -22.061581     21.48545    53.587301    40.146253 
27960000    272.49445    334.80582    273.91393   -21.831062    21.817158    60.891886    40.145498 
27964000    267.81484    307.40154    269.87109   -20.756087     21.25481    37.530448    40.145149 
27968000    271.39375    318.61851    267.59622   -21.616039    21.592717    51.022289    40.143219 
27972000    279.93069    331.49954    292.94277   -22.948144    20.231951    38.556766    40.144414 
27976000    273.05264    307.16952    269.68986   -21.507975    21.281424    37.479652    40.146829 
27980000    280.21032    325.12632    273.32576   -23.034967    20.845084    51.800568    40.145789 
27984000    274.72242    329.36041    265.55071   -22.945539     21.21709    63.809695    40.144936 
27988000    270.57461    305.82482    290.57015   -21.472671    21.531282    15.254663     40.14489 
27992000    279.33298    341.39423    273.77177   -23.781539    22.375591    67.622457    40.144066 
27996000    269.43786    323.93142     253.6159   -23.264845    23.277615    70.315516     40.14484 
28000000    267.83948    321.50209    270.08531   -22.560015    22.049659    51.416785    40.143789 
28004000    273.88796    320.90638    288.29471   -21.245991    22.045307     32.61167    40.144479 
28008000    268.12876    283.32491    288.63928   -21.685426    22.160923   -5.3143706    40.143792 
28012000    284.36076    345.91958    297.63084   -22.785832    22.041197    48.288744    40.144125 
28016000    273.67182     320.9065    277.15345   -21.948241    22.549231    43.753056    40.144824 
28020000    271.65078    325.97176    288.77529   -22.706405     21.64866    37.196462    40.145342 
28024000    271.63358    315.88287    275.52433   -21.132342    21.650596     40.35853    40.146314 
28028000    284.32846    324.75833    300.91526   -22.932877     20.89363    23.843071    40.144475 
28032000     274.8601    324.94692    267.08599   -21.594733    22.603402    57.860928    40.145296 
28036000    279.11962    309.94871    307.96594   -20.950026     20.60339    1.9827679     40.14627 
28040000     269.8936     306.7517    265.86981   -20.861872    21.977883    40.881897     40.14387 
28044000    282.45424    354.29475    293.27931   -23.060015    20.927432    61.015442    40.143581 
28048000    272.05739    314.58324    267.37793   -21.999145    22.272913     47.20531    40.141743 
28052000    275.81077    337.07559    264.20393   -22.517313    21.369256    72.871657    40.142483 
28056000     274.6277    333.04808    270.87623   -22.065632    22.026921    62.171849    40.144032 
28060000    272.22978    324.35582    276.70034   -21.126697    21.966845    47.655484    40.143148 
28064000    284.71501    331.96422    288.48818   -21.012205     21.89075    43.476044    40.144275 
28068000    274.74336    331.28984    281.37978   -22.043575    22.155659    49.910067    40.146302 
28072000    273.71397    321.54395    276.84768   -22.434378    21.599202    44.696276    40.144217 
28076000    265.82573    319.01864     252.8901   -23.340452     22.91762    66.128544    40.144509 
28080000    272.08497    310.07236    277.55437   -23.472563    21.635725    32.517992    40.143643 
28084000    279.83503    333.93549    289.41338   -24.659534    21.719787    44.522108    40.143843 
28088000    271.46998    333.49005    283.64212   -23.876657    22.547096    49.847925    40.146723 
28092000    271.07126    308.77755    285.73859    -21.84298    22.227099    23.038952    40.146764 
28096000    288.09937    341.89159    301.80579   -23.500409    21.443418    40.085797    40.146821 
28100000    281.75323    350.26447     279.6451   -24.785923    22.133496    70.619372    40.146742 
28104000    269.70719    317.68892    258.93735   -22.004199    22.836636    58.751575    40.147025 
28108000     276.4393    320.78214    286.96618   -23.260461    22.086808    33.815963    40.146585 
28112000    273.89433    319.11308    279.06261   -22.597774    22.071234    40.050465    40.146505 
28116000    281.57225    348.29241    293.18693   -24.403345    21.177633    55.105483    40.146236 
28120000    277.13144    340.58913    269.07088   -23.592716    24.202196    71.518257    40.145935 
28124000    280.24825    344.98136    290.38018   -24.482724    21.329431    54.601181     40.14575 
28128000    281.65612    315.81686     295.5668   -22.520049    21.937137    20.250062    40.145316 
28132000    278.33501    333.72906    278.55076   -23.102538    21.992589    55.178299    40.145449 
28136000    273.28652    326.18132    279.21419   -22.984588    21.864202    46.967127    40.145178 
28140000    267.33963    322.59226    270.17545   -23.041505    21.823073    52.416807    40.144915 
28144000    280.79801    309.29411    293.98878   -22.145497    20.362208    15.305335    40.146228 
28148000    271.89113    329.39949    266.42942    -23.41802     22.74541    62.970072    40.146684 
28152000    280.75833    345.63951     283.9966   -24.047681     22.81826    61.642908    40.146286 
28156000    277.13621    325.91181    273.36261   -23.842498    21.717103    52.549205    40.148148 
28160000    282.44707    326.58612    293.14628    -25.05652    20.967984    33.439838    40.148273 
28164000    276.99118    320.14832     280.5761   -23.787975    20.329053    39.572214    40.148225 
28168000    279.46624    305.77416    295.58235   -23.830631    21.279584    10.191803    40.149188 
28172000    271.42641    293.04815    281.52814   -22.864897    21.830739    11.520011    40.148581 
28176000     287.0255    338.09708    289.91865   -25.220302    21.112883    48.178429    40.148028 
28180000     277.0277    327.58148    283.02354   -24.163837    21.584136    44.557943    40.146796 
28184000    277.18243    295.63006    293.45342   -22.983927    21.536688    2.1766434    40.144992 
28188000    275.10527    320.98842    287.31911   -22.993493    21.898214    33.669313    40.145225 
28192000    274.81045    315.25575    283.41436   -22.464073    21.513048    31.841388    40.145794 
28196000    274.20392    295.78868    287.12864   -23.354937    21.769677    8.6600401     40.14603 
28200000    277.02928     319.0309    288.18998   -25.329608    21.533805    30.840918    40.144627 
28204000     278.9634    323.73016    280.45278   -24.352505    21.472249    43.277389     40.14508 
28208000    275.62382    315.06716    277.44089   -24.766687    22.071731    37.626276    40.145626 
28212000    281.06845    332.70578    283.30948   -25.097839    22.421963    49.396297     40.14604 
28216000    272.84732    315.03364    279.00686   -25.100856    22.133516    36.026782    40.146651 
28220000    285.82174    334.36109    289.27494   -23.984731    21.321979     45.08615    40.146541 
28224000    279.36667    331.83621    280.96155   -24.984142    21.751905    50.874661    40.144478 
28228000    278.88799    310.43599    270.83902   -23.344249    21.759244    39.596967    40.144597 
28232000    272.47444    312.84873    280.20307   -23.023114    21.671059    32.645653    40.144274 
28236000    285.44466    337.91978    281.82666   -23.860301    20.845866    56.093121    40.142323 
28240000    280.39772    315.13469    274.39416   -22.943407    21.326865    40.740534    40.142922 
28244000    285.37666    326.41388    295.85986   -25.020519      20.4044    30.554018    40.143465 
28248000    280.25719     336.3497    286.81215   -25.480049    20.518138    49.537557    40.143516 
28252000    281.22146    315.44129    277.65755   -24.187661    21.337458    37.783741    40.145474 
28256000    282.89967    320.06871    283.80575   -26.359236    22.061771    36.262955    40.146459 
28260000    273.21671    316.89177    256.67584   -24.411628    23.485363     60.21593    40.146426 
28264000    268.66002    299.07166    272.04821   -25.405534    23.010387    27.023447    40.146496 
28268000    278.20939    312.75028     268.8406   -25.037745    22.555501    43.909676    40.147909 
28272000    284.03043    316.98623    288.27423   -24.916001    20.827005    28.711995    40.149418 
28276000    277.33913    327.12803    265.18919   -24.626423    21.365822    61.938838    40.148296 
28280000    280.23036    325.13215    287.07415   -24.130804    20.345449       38.058    40.145719 
28284000     277.6204    304.17144    288.26121   -24.070751    20.198118    15.910231    40.145872 
28288000    285.41054    314.16706    280.84596    -25.26742    19.760114    33.321103     40.14565 
28292000    281.53346    320.62983     279.0203   -25.619953    20.913968    41.609535     40.14568 
28296000    274.46609    321.51243    270.37722   -25.077344    20.530449    51.135204    40.148017 
28300000    290.16015    322.17251    295.35672   -25.172425    20.296616    26.815792    40.148254 
28304000    279.01032    322.75088    287.57117   -23.911749    19.348556    35.179707    40.148303 
28308000    275.12269    303.30677    287.29457   -23.808459    20.546408      16.0122    40.146602 
28312000    280.62477    324.89398    268.55403   -24.020449    21.122437    56.339951    40.145356 
28316000    282.33227    321.97142    274.39212   -24.928285    22.166203    47.579297    40.145889 
28320000    283.20193    314.53421    275.27454   -25.387171    21.508864    39.259671    40.145431 
28324000    279.88961    332.92137    275.22366   -25.321466    20.799871     57.69771    40.145868 
28328000    281.75308    311.17544    288.33676   -23.316269    21.274231    22.838677    40.145733 
28332000    285.64839    330.05256    300.16877   -24.697917    20.642589    29.883789    40.146606 
28336000    269.33827    301.64153     263.4663   -23.261453    22.458323    38.175226    40.145978 
28340000    276.00296    312.37601    285.02544   -24.433717    21.245514    27.350569    40.146376 
28344000    267.50766    302.62609    256.15203   -23.173907    22.636008    46.474064     40.14629 
28348000    278.95988    319.09061    286.11106   -24.580895    20.792513    32.979557    40.147677 
28352000    274.68194    304.24611    280.57742   -25.183179    22.092365    23.668689    40.148831 
28356000    281.95196    338.40993    269.25458   -24.894348    22.085141    69.155352    40.147987 
28360000    277.46048    327.65648    298.95211   -25.752406    22.005843    28.704369    40.149951 
28364000     273.7471    330.87735    265.82637   -25.413764    23.323672    65.050973    40.148535 
28368000    272.07895    306.33254     294.5977   -24.186351    22.180618    11.734837    40.148506 
28372000    278.74886    318.65334    296.75336   -23.932477     22.68537    21.899988    40.148873 
28376000    272.37774    296.67365    272.18298   -23.292025    23.280599    24.490669    40.150283 
28380000    281.88739    319.79351    305.52766   -25.393301    21.498021    14.265848    40.149673 
28384000    275.88238    315.80546    276.23346    -24.05088    22.550291    39.572007    40.149383 
28388000    269.14196    304.71047    259.13936   -22.821988    23.123905    45.571115    40.149686 
28392000    276.80016    330.79975    271.43448   -24.871148    22.685732    59.365266    40.146884 
28396000    276.84662     323.3059    284.70984   -24.594792    23.137675     38.59606    40.149378 
28400000    272.71656    301.56991    277.08985    -23.60238    21.814168    24.480059    40.149737 
28404000    272.24292    304.93872    279.74607   -22.918746    22.290841    25.192648    40.149088 
28408000    273.37568    312.61304    260.20638    -22.42633    22.417968    52.406659    40.148446 
28412000    275.29353    299.39001    302.63332   -23.445872    21.675165   -3.2433139    40.147839 
28416000    278.34391     329.8039    259.15556   -25.126872    24.180423    70.648332    40.147883 
28420000    271.29224    314.32929    286.64049   -23.233395    22.798207    27.688801    40.150031 
28424000    279.05227    339.99015     285.9279   -24.800356    21.755134    54.062254    40.149801 
28428000    273.93836    312.76487    287.93114   -22.694027     22.40167    24.833721    40.147992 
28432000    272.56893    324.35587    287.67441   -23.944063    22.263242    36.681463    40.148365 
28436000    282.20007    337.97789    298.34122    -23.58789    21.953899    39.636673    40.148415 
28440000     278.9776    317.02994    287.84726   -23.485272    22.692546    29.182684    40.148717 
28444000    279.87308    328.87555    304.32097   -23.425083    22.149358    24.554583    40.147801 
28448000    276.33803    329.72482    279.09136   -23.760321    22.249024    50.633456    40.150349 
28452000    271.97144    333.22078    272.92102   -24.428037    23.269325     60.29976    40.151568 
28456000     278.6878    328.47637    293.69827    -23.55456    22.501119    34.778097    40.153074 
28460000    277.18451    332.70626    298.22043   -24.655888    23.429782    34.485835    40.153228 
28464000    272.44718    304.59435    279.53796   -23.475471    23.058236    25.056396    40.154507 
28468000    268.53451    320.91826     274.0703   -23.625212    22.752775    46.847959    40.152362 
28472000    273.03145    317.09786    281.63693   -23.557373    24.039291    35.460931    40.153439 
28476000    268.63612    324.56484    265.60794   -23.244937    23.861571    58.956898    40.153616 
28480000    274.17376    315.48438    274.83657   -22.268108     23.93594    40.647811     40.15336 
28484000    274.55258    323.18018    265.34143   -23.489578    23.052985    57.838742     40.15309 
28488000    272.32334    323.80014    266.80786   -24.524478    24.001208    56.992276    40.152502 
28492000    279.42812    338.55851    284.46484    -24.14931    24.022472    54.093666    40.154385 
28496000    262.48294     309.1979    252.92653   -23.965861    25.193314    56.271372    40.154387 
28500000    279.28561    322.09507     284.5669   -24.132962    22.512972    37.528167    40.153927 
28504000    282.66532    331.05499     309.3657   -25.504605    21.707012    21.689298    40.153222 
28508000    275.31141    330.89076    268.33114   -26.347157    23.885428    62.559622    40.154898 
28512000    279.70672    343.74512    272.01768   -25.862169    23.926119    71.727439    40.155104 
28516000    269.02167    311.57659     259.1826   -24.128912    25.182629    52.393993    40.155787 
28520000    278.46963    349.33344    276.88206   -26.029528    23.230823    72.451381     40.15653 
28524000    269.33956    315.85092    265.83224   -24.962552    24.661805    50.018679    40.156771 
28528000     273.6874    325.47608    265.93897   -24.291457    24.697739    59.537105    40.159307 
28532000    264.36911    317.68082    253.03213   -25.203763    24.920346    64.648691    40.158948 
28536000    274.81611    324.64891    284.54019   -24.640851    23.658783    40.108724    40.157478 
28540000    279.92757    321.59649    299.93431   -23.555636    23.819698    21.662174    40.157373 
28544000    265.49395     285.4577    287.10695   -23.357755    23.164639   -1.6492445     40.15895 
28548000    271.45965    297.83322    282.33641    -24.58815     24.31203    15.496808    40.160418 
28552000    261.06437    297.93037    269.12137   -24.499678    24.431902       28.809     40.16142 
28556000    281.06975    331.46218     281.3184     -25.6998    23.499254    50.143779    40.162155 
28560000     273.5771    317.52594     267.7836   -23.863862    24.425577     49.74234     40.16159 
28564000    275.84422     312.5021    275.41955   -24.831725    24.075787    37.082546     40.16325 
28568000    274.20803    319.55687    272.14112    -24.47678    23.719993    47.415754    40.162396 
28572000    280.81378    339.68213    285.84126   -25.900339       22.757    53.840875    40.161058 
28576000    281.63577    346.30313    264.24814   -25.295903    23.424296    82.054992    40.160587 
28580000     282.7997     325.7331    279.39232   -25.186548    24.577545    46.340788    40.161973 
28584000    279.72323    316.87929    294.02125   -24.594916    23.913949     22.85804    40.160984 
28588000     272.2802    301.04022    282.44972   -24.163356    24.213373    18.590506    40.162979 
28592000    271.55992    326.86163     270.9208   -24.071026    24.018422    55.940831    40.164082 
28596000    279.37463    312.30976    284.88401   -24.178861    23.402136    27.425754    40.162989 
28600000    277.07782    332.89591    276.05441   -24.791875    24.093593    56.841499     40.16284 
28604000    278.18989    323.85985    289.93905   -24.062409    23.561226    33.920806    40.163734 
28608000    273.36012    310.41153    286.42718   -23.376308     23.83517    23.984345     40.16367 
28612000    274.49668    312.10514     297.7524   -23.684238    22.637617    14.352741    40.164955 
28616000    278.04452    307.95054     300.1122   -23.681521    22.623898    7.8383331    40.165148 
28620000    270.37539    332.02586    262.14675   -25.334592    23.596514     69.87911    40.165028 
28624000    274.94321    332.96414    262.28474   -25.582654    24.816211    70.679399     40.16606 
28628000     273.9424    317.24787    275.78681   -25.331113    23.116271    41.461064    40.167454 
28632000    277.95895     326.6304    267.07248   -24.777969    23.256042    59.557923     40.16773 
28636000    275.77121     316.5814    275.77026   -25.221095    22.649215    40.811139    40.166194 
28640000    281.34971    321.63187     273.0104   -26.616758    23.105467    48.621472    40.164693 
28644000    274.57861    334.58727    274.95303   -25.343682    23.191746    59.634241    40.164071 
28648000    277.13668    306.79733    300.04765   -24.899609    21.365268    6.7496772    40.163803 
28652000    266.18528    320.26495     254.7128   -25.142121    23.819704    65.552155    40.163674 
28656000    276.28009    315.06192     270.1299   -23.243881    23.553064    44.932022    40.162138 
28660000      272.265    309.26105     269.5025   -22.909483    24.193796    39.758552    40.162582 
28664000    270.18971     315.7602     278.4388    -23.08371    23.969463    37.321401    40.161648 
28668000    279.38872    318.30864    290.91905   -24.451971     22.57195    27.389593    40.161296 
28672000    266.54151    311.33215    267.58287   -23.029332    23.652241     43.74928    40.160323 
28676000    267.36539    308.64343    265.32305   -23.686239    23.317257    43.320374    40.161262 
28680000    278.59856    343.33614    272.01421   -25.500697    23.005275    71.321926    40.161501 
28684000    275.61046    327.05363    283.88562   -24.374635    22.510186    43.168014    40.160448 
28688000    276.78501    316.93355    274.36302   -24.077275    23.104852    42.570531    40.159237 
28692000    278.46816    315.28946    284.44298   -25.596307    21.869011    30.846488    40.157431 
28696000    273.45246    315.81427    265.62698   -24.436727     22.81274    50.187285    40.156941 
28700000    284.21732    317.81447    285.40927   -25.744027      22.9172    32.405206    40.156485 
28704000     273.3519    307.57266    285.11795   -23.886801    22.850848    22.454706    40.156229 
28708000    273.75127    311.68975    274.16565   -24.112683    23.445253    37.524102    40.157029 
28712000     275.7623    312.88071    281.22718   -23.514516    22.312544    31.653528    40.155554 
28716000    263.60722    291.20719    268.15884   -23.257443    22.932615    23.048349    40.156701 
28720000    278.92936    326.73702    283.21764   -24.833247    22.593599    43.519379    40.156957 
28724000     283.3041    328.29988    281.54442   -24.753168    23.204707    46.755458    40.157682 
28728000    275.20872    299.20403    296.70386   -23.821372    21.758307    2.5001711    40.157429 
28732000     272.6452    303.84784    276.09819   -23.594236    21.552597    27.749644    40.155898 
28736000    279.89618    317.49008    303.70973   -24.245617    21.464702    13.780349    40.155026 
28740000    282.05252     316.3876    285.68477   -24.397354    22.386976    30.702829    40.154493 
28744000     271.1733     291.0574    265.96234   -23.518509    23.673168    25.095056    40.152452 
28748000    275.32406    324.51535    276.96531   -24.465403    22.272486    47.550047     40.15269 
28752000    274.39836    304.69223    286.20076   -24.600547    22.431601    18.491467    40.154133 
28756000    277.92177    318.30475     286.4149   -24.402201    22.400584    31.889846    40.152155 
28760000    279.71258    324.85469    286.38092   -24.506596    22.242239    38.473771    40.153292 
28764000    274.17472    306.28851    265.90905   -23.543291    23.485863    40.379467    40.154571 
28768000    277.60138    315.84939    276.77143   -25.464406    21.922837     39.07796    40.155143 
28772000     286.3553    358.67825    288.95915     -26.6263    21.789345    69.719091    40.155869 
28776000    271.58799    325.07458    256.77863   -23.743639    24.326586    68.295942    40.155008 
28780000      272.904    311.64623    283.71545   -22.716047    22.753273    27.930775    40.156209 
28784000    265.49682     303.0011    278.89086    -23.83261    22.122187    24.110245    40.155829 
28788000    277.10834    320.66077    279.82748   -23.296694    21.085868     40.83329    40.156232 
28792000    279.07515     315.7654    283.92369   -23.904391    21.999241    31.841701    40.157143 
28796000    274.25495    314.69148    284.03291   -23.716664    21.943146    30.658575    40.155723 
28800000    280.48909    333.71618    279.28758   -25.322045    22.158677    54.428593     40.15521 
28804000    276.26735    331.35141    297.69861   -23.383759    21.495735    33.652796    40.156408 
28808000    267.79394    310.46562    268.45706   -22.596251    22.464488    42.008559    40.156296 
28812000    278.65985    344.61118    270.92115   -23.753428    22.712497    73.690025    40.158035 
28816000    271.05881     335.9921    267.81599   -24.119737    23.289543    68.176104    40.160327 
28820000     275.9227    331.24865    292.43171   -25.031678    23.496197    38.816943    40.159611 
28824000    279.89434    333.44874    281.46723   -24.974507    22.964703    51.981509     40.15816 
28828000    268.40889    309.38846    265.15591   -22.888275    24.247026    44.232557     40.15756 
28832000    275.09791    317.35436    279.48664   -23.899015    23.533002    37.867716    40.157125 
28836000    275.31414    344.25452    269.06279   -24.782043    23.389938    75.191727    40.156544 
28840000    274.20557    329.78897    287.21049   -24.137311    22.584324    42.578478    40.156047 
28844000    272.16385    321.54877    273.10023   -22.468065    23.711884    48.448542    40.157825 
28848000    263.30207     300.9104    250.62314   -21.162157    24.541225    50.287263    40.157604 
28852000    268.39488    321.25378    265.80629   -24.346132    24.438919    55.447489    40.157668 
28856000    276.99116    331.70255    281.12725   -23.486741    23.510073    50.575298    40.156622 
28860000    267.54028    323.82222     259.9031   -23.689423    23.493722    63.919124    40.156823 
28864000    278.12359    328.05402    301.96034   -24.560009     22.68168    26.093682    40.155128 
28868000    270.11119    318.01584    276.22533   -24.921007    23.611759    41.790512    40.155416 
28872000    276.43605    355.93689    248.80658   -25.240014    26.132662    107.13031    40.155622 
28876000    264.44942     307.1431    264.78251   -23.732244    25.192608    42.360588    40.155291 
28880000    274.70781    331.32351    281.14777   -23.867051    24.337125    50.175743     40.15572 
28884000    273.46105    333.56236    270.39387   -24.742266    24.603956    63.168483    40.156825 
28888000    275.80395    316.79672    292.68425   -23.671291    23.782062    24.112467    40.157391 
28892000     274.9429    321.14771    276.75443   -24.048073    24.698344    44.393272    40.156753 
28896000    271.32724    311.47331    286.29259   -23.642588    24.099825    25.180716    40.155495 
28900000    281.95699    341.49746    281.31187   -24.690803    23.964329     60.18559    40.157403 
28904000    275.09016    320.01578    292.31952   -24.019918     23.02396    27.696257    40.156179 
28908000     268.9845    301.10621    282.79805   -22.490493    24.454102    18.308169    40.156841 
28912000    274.55482    336.94164     263.9942   -25.230085     25.46517     72.94744     40.15765 
28916000    269.90124    308.34364    268.01501   -23.912885    25.890137    40.328628    40.156382 
28920000    281.94403    327.16621     315.2718   -24.816706     22.39927     11.89441    40.154307 
28924000    276.31289    329.43908    285.09267   -25.110333    23.853701    44.346407    40.154117 
28928000    275.32107    344.57635    266.81311   -25.791528    24.955329    77.763238    40.154916 
28932000    271.14726    305.33338    273.56454   -24.208935    24.062622    31.768835     40.15536 
28936000     274.9081    316.26497    263.13857   -24.436114    24.924066    53.126399     40.15447 
28940000    274.76701    325.09748    279.25264    -25.47827    24.285259     45.84484    40.154524 
28944000    276.98381    320.90792    275.89561    -24.90653    25.063784    45.012313    40.154264 
28948000    266.98738    303.23761    278.55885    -24.48021    24.482736    24.678759    40.152626 
28952000    281.02544    343.23716    264.54796   -27.039893    24.749775    78.689192    40.153704 
28956000    273.49166    329.91641    271.90822    -25.65134    24.136478    58.008185    40.154103 
28960000    282.85485     328.9783    297.30597   -25.875813    24.098842    31.672339    40.154113 
28964000    272.86802    322.35834    290.95969   -25.365961    25.501059    31.398646    40.154703 
28968000    277.10822    325.23655    276.51152   -25.368775     25.38915    48.725038    40.152514 
28972000    270.85584    318.27662    295.61409   -23.854371    24.350201    22.662531    40.153394 
28976000    275.09245    338.71829    258.72969   -25.066816    25.414852    79.988607    40.155207 
28980000    272.92872    334.59357    277.27912   -24.575031    24.678791    57.314451    40.156136 
28984000    260.92658    310.70946    262.43118   -24.652276    25.814718    48.278284    40.157679 
28988000    266.55411    330.96756    263.66871   -25.588232    24.879123    67.298845    40.158355 
28992000    281.87199     331.2439     305.3305   -24.732181    23.392694    25.913402     40.15789 
28996000    270.16348    318.17387    281.36989   -25.231669     24.12423    36.803983    40.159008 
29000000    274.87698    305.73711    288.46188   -24.653122    23.816664    17.275227    40.157788 
29004000     263.5171    306.40587    260.27876   -25.031099     26.70935    46.127111    40.157903 
29008000     277.1566    333.12964    280.98293   -25.329064    23.704931    52.146718    40.156993 
29012000    266.03117    308.34411     267.8736   -23.864107    25.627708    40.470507    40.157715 
29016000    272.70198    323.34219    286.91617   -25.200527    24.619655    36.426024    40.156845 
29020000    277.27281    330.62778    267.24603   -26.408671    24.590061    63.381749    40.156614 
29024000     276.4935    332.42726    282.86343   -25.753731    22.989802    49.563832    40.156739 
29028000    274.74816    345.65132      263.727   -26.397167    24.944707    81.924321    40.158501 
29032000    273.92053    333.67434    278.47232   -25.062013    24.512528    55.202018    40.158651 
29036000     268.7956     306.5261    272.87308   -23.682031    24.545755    33.653021    40.158263 
29040000    268.84758    305.58389    266.92771   -24.177024    24.818301     38.65618    40.158512 
29044000    275.54074    326.94296    286.85787   -26.015366    24.784918    40.085088    40.157821 
29048000    272.80706    323.23969    270.94954    -25.13469    25.332449    52.290142    40.158461 
29052000    273.35214    321.55687    277.54992   -25.201555    25.089736    44.006955    40.157669 
29056000    272.59491    331.22716    294.82032   -25.925693    25.570062     36.40684    40.158435 
29060000    274.26441    312.08581    292.58364   -24.386724     24.16529    19.502177    40.160248 
29064000    271.22126    334.59783     275.1015   -25.314544    24.950025    59.496327    40.159593 
29068000    267.60192    306.94594    265.15274   -23.368118     24.82642    41.793199    40.159479 
29072000    273.31414    318.36283    272.31894   -24.190617    23.679237     46.04389    40.158223 
29076000    278.18356    310.52907    299.05535   -23.329958    22.895184    11.473722    40.158185 
29080000    281.03907    320.64578    306.14035    -23.90394    21.598816    14.505431    40.155929 
29084000    273.76358    328.24042    270.70446   -25.510375    23.763086    57.535962    40.157489 
29088000    274.17076     314.1328    287.56519    -24.36606    23.116935    26.567612    40.156777 
29092000    268.39358    290.53871    286.78519   -25.294163    23.485937    3.7535195    40.157971 
29096000    275.05011    329.44653    273.44396   -25.590402      24.7845    56.002579    40.159003 
29100000    272.12137    333.11039     279.7933   -26.257806    24.407546    53.317087    40.159011 
29104000    265.54086    326.49907    265.45991   -25.983807      24.7068    61.039153    40.160532 
29108000    283.11228    313.55745    320.95286   -24.935481    22.990785   -7.3954145    40.161721 
29112000     279.5426    337.48457    285.37308   -25.751422    24.441583     52.11149    40.160781 
29116000    277.50769    339.43783    267.71426    -25.82215    25.941979    71.723567    40.161065 
29120000    266.17863    308.57932     275.0824   -24.772094    25.119637    33.496916    40.159022 
29124000    285.27483    350.03638     285.8034   -26.756608    23.491013    64.232975    40.159358 
29128000    268.09226    297.94067    280.55068   -24.231089    25.070972    17.389989    40.158985 
29132000    266.43882    313.42171    258.75554    -24.81545    25.894515    54.666172    40.159046 
29136000    272.31315    319.16733     287.2897   -24.533178    25.256029    31.877633    40.156867 
29140000    272.22673    308.44567    267.82483   -23.477867    26.058082    40.620839    40.157091 
29144000    280.01413    314.11138    300.12085    -25.73903      24.4996    13.990532    40.155711 
29148000    266.59861    313.74602     264.0547   -24.835899     25.81231    49.691319    40.155566 
29152000    267.50814    296.22926      271.355   -24.734367    24.697314    24.874254    40.153818 
29156000    271.41586    324.17715    282.25955   -25.453631    25.772921    41.917604    40.153509 
29160000    270.39337    318.77213    281.41132   -25.228397    25.821566    37.360811    40.154047 
29164000    264.96535     318.2615    265.37643   -24.470772    26.318598    52.885078    40.155094 
29168000    272.70669    340.03438    269.78824   -25.731989    26.165779    70.246137    40.156151 
29172000    267.75079    318.31644     261.6179   -24.199448    27.684211    56.698541    40.154805 
29176000    266.98437    316.24131    269.96994   -24.770364    26.601879    46.271373    40.154961 
29180000    263.49265    317.32776    265.70622   -24.314013    25.656143    51.621544    40.154961 
29184000    270.36789    330.62068    278.82305   -26.252583    24.805603    51.797627    40.155677 
29188000    276.75088    334.93429    294.48555   -25.214142    24.482933    40.448744     40.15347 
29192000    265.32139    319.30334    266.32406   -25.267594    25.795737    52.979275    40.154584 
29196000    273.33791     305.6812    296.86503   -24.036874    25.760518    8.8161653     40.15523 
29200000    272.42163    343.89658    284.04691   -25.582911    25.760234    59.849667    40.153594 
29204000    284.35496    345.33833    295.81028   -25.589611    24.039425    49.528051    40.156007 
29208000    267.02989    315.58971    263.88448   -24.374175    25.691521    51.705227    40.156813 
29212000    264.15069    304.05376    274.80701   -23.531135    26.174129    29.246749    40.157124 
29216000    272.46856     326.1823    294.15941   -25.075172    25.292718     32.02289    40.156943 
29220000    278.84754    329.69662    286.16558   -25.564343    25.964151    43.531047    40.157738 
29224000    269.54227    315.36426    297.88476   -25.830454    25.448196    17.479506    40.156769 
29228000    275.61042    334.14262    285.94537   -26.737623    25.616118    48.197248    40.156697 
29232000    268.79097    300.60182    273.60903   -25.667885    25.763733    26.992785    40.157439 
29236000    286.22939    331.55399    307.91803   -26.717713    24.625034    23.635964    40.157798 
29240000    270.26446    301.18157    285.25887   -24.904701    26.463329    15.922706    40.158894 
29244000    273.72948     322.8909    285.89163   -25.873672    25.215651    36.999263    40.159678 
29248000     269.1661    331.49831    267.51527   -26.910845    26.188714    63.983043    40.159685 
29252000    276.33696    322.32911    277.87774   -25.847977    27.050402    44.451369    40.161082 
29256000    277.08408    327.35127    286.40805   -26.569503    25.560666    40.943224    40.161355 
29260000    258.75017    297.26805    270.50747   -25.872585    27.501578    26.760576    40.159817 
29264000    281.19031     337.1526    275.16241   -27.719334    27.577157    61.990193    40.161852 
29268000    274.19012    314.05897    286.79512   -26.941327    27.626977     27.26385    40.162214 
29272000    274.55476    333.23774    278.11385   -28.455777    27.430037     55.12389    40.163755 
29276000    277.01278    311.74088    287.19461   -25.815445    26.695414    24.546275    40.163721 
29280000    274.33418    314.91189    282.94622   -27.425038    25.332799     31.96567    40.163172 
29284000    269.96999    310.78299    260.81438   -25.583149    25.669843    49.968613    40.163615 
29288000    274.51056    331.05278    278.88758   -27.336169    24.582991    52.165204    40.162847 
29292000    281.05288    331.75173    285.11303   -27.181514    25.337499      46.6387    40.163283 
29296000    267.34846    299.20608    275.13685   -26.240491    27.058593    24.069234     40.16296 
29300000    270.86209    320.79334    267.22459   -26.644669    26.312417    53.568753    40.163954 
29304000    272.78674    310.42419    273.15382   -25.396942    25.516879    37.270368     40.16562 
29308000    281.66852     355.3611    292.73664    -28.78283    24.652458    62.624452    40.165957 
29312000    267.10253    317.38452    277.33343   -26.518131    25.584361    40.051095    40.167264 
29316000    274.29505    314.65127    293.87299   -26.974368     25.29771     20.77828    40.166867 
29320000    271.60629    305.55346    279.92293    -26.85811    26.530316    25.630526    40.165669 
29324000    270.43067    331.75793    266.41102   -27.490832    25.977238    65.346909    40.165686 
29328000    278.54511    316.58324    289.23915   -27.341722    24.851546    27.344086     40.16486 
29332000    270.28665    316.57493    281.75102   -27.128938    25.102023    34.823912    40.165764 
29336000    271.66137    307.20283    266.50943   -26.177507    25.285199    40.693403    40.164859 
29340000    276.28785    320.09843    294.78466   -26.680391    24.075643    25.313772     40.16378 
29344000     270.4671    300.26283    271.54042   -24.659192    25.796493    28.722409    40.164662 
29348000    271.73291    322.00797    274.06342   -27.090699    25.309601    47.944549    40.165596 
29352000    277.62523     310.9967    286.24264   -25.934635    25.529685    24.754053    40.166264 
29356000    290.43597    334.38735    310.73437   -26.543368    23.976834    23.652981    40.165393 
29360000    274.57175    304.99997    293.01224   -26.061208    25.022452    11.987728    40.164303 
29364000    275.89006    322.57327     276.1869   -26.969572    25.979517    46.386369     40.16455 
29368000     273.8552    322.44558    270.57162   -28.013216    25.713681    51.873964    40.166566 
29372000    276.96857    313.70636    285.66828    -27.66562    25.029307    28.038083     40.16614 
29376000    278.20688    329.74338    270.40137   -28.494318    24.912051    59.342012     40.16638 
29380000    275.71204    321.94452    266.86255   -27.843164    25.857692    55.081969    40.165706 
29384000    281.61033    333.10864     278.8911   -29.159099    24.604698    54.217539    40.164513 
29388000    285.74336    332.94833    283.72029   -27.713784    24.541675    49.228038    40.165587 
29392000    267.87054    293.31496    272.07437   -25.526777     24.74374    21.240586    40.166717 
29396000    275.42291    314.96027    290.83126   -26.232558    25.569509    24.129004    40.167198 
29400000     279.8423     333.7893    305.74324   -27.996607    23.765609    28.046061    40.168393 
29404000    272.65271    328.69095    267.87838   -27.500786    26.310656    60.812576    40.169833 
29408000    275.56668    321.53412      279.511   -27.736108    26.014278    42.023123    40.171612 
29412000    278.41003    319.15121    282.20049   -27.718687    25.591881    36.950726    40.173214 
29416000    284.00936    322.39761    287.75865   -27.025806    23.956325    34.638962    40.175679 
29420000    277.22052     315.5152     294.8723   -26.600604    23.669427    20.642895    40.175729 
29424000    276.05361    332.78416    270.40255   -28.156943    25.234842    62.381612       40.175 
29428000     276.8117    317.15726    294.03808   -26.872953    25.049674    23.119177    40.174964 
29432000    280.28403    348.53294     291.7933   -27.510088    25.808622    56.739641    40.173438 
29436000    272.79252    318.07158    286.85412   -26.070823    24.794837    31.217464    40.173374 
29440000    276.02668    330.49888    280.58648   -26.032235      26.3215    49.912398    40.172983 
29444000    280.35948    354.79503    279.99056    -26.56579    25.895515    74.804473    40.172493 
29448000    267.32873    307.18473    285.34622   -25.668192     26.35528    21.838508    40.170444 
29452000    272.09473    316.17267    291.64192   -27.019942    25.405416    24.530752    40.170602 
29456000    270.05065    335.32326    257.15715   -25.074429    27.837218     78.16611    40.170846 
29460000    279.22016    361.42395    275.51694    -28.81093    26.850343    85.907004    40.170573 
29464000    272.88724    322.32478    273.85612   -27.027192    26.857368    48.468665    40.169812 
29468000    274.24627    316.36427    298.50188   -25.238329    26.062261    17.862384    40.170605 
29472000    272.83071    320.67982    276.10605   -25.937448    26.776351     44.57377    40.169705 
29476000    270.95531    318.53741    300.72426   -26.255434    25.136936    17.813144    40.169123 
29480000    268.76092    336.60101    266.52942   -27.224791    27.169836    70.071595    40.170045 
29484000    278.30944    330.64021     292.3852   -27.583309    26.290965    38.255001    40.170419 
29488000     276.1929    330.90462    294.55958   -27.148986    26.530046    36.345044    40.172068 
29492000    264.47949    307.20669    285.72621   -26.042532    28.142984    21.480488    40.171928 
29496000    268.11132    311.02065    274.81018   -26.543001    27.083862    36.210474    40.170658 
29500000    282.21543    333.30044    305.85866   -27.242098    25.503735    27.441775    40.172072 
29504000    270.71236    308.56826    279.64526   -26.424631    26.805183    28.922999    40.171943 
29508000    267.67271    313.83909    278.82476   -27.308605     27.56555    35.014336     40.17238 
29512000    265.30211    311.87375    294.20061   -26.829403    26.555809    17.673144     40.17349 
29516000     265.3861    323.64301    273.43176    -27.64721     27.50564    50.211248     40.17467 
29520000    272.49953    329.97509    278.33686   -27.048799    28.037167    51.638232     40.17392 
29524000    268.72445    303.16201    278.43609   -26.333842    28.043878    24.725919    40.175818 
29528000    272.34028    308.51873    268.42502   -25.591088    27.589171    40.093704    40.175685 
29532000    273.49953     311.2625    284.33778   -26.830723    27.213341    26.924727    40.174961 
29536000    271.44744     316.0062    277.33687   -27.083257    28.455879    38.669338    40.173721 
29540000    268.40197    317.84865    287.87108   -27.771447    27.829364    29.977569    40.173262 
29544000    268.17564    308.38757    274.29003   -26.504214    28.891906    34.097542     40.17443 
29548000    273.88178    314.56736    279.06167   -27.663488    27.492979     35.50569    40.173905 
29552000      269.916    312.01407    283.92811   -26.174811    27.651425     28.08596    40.173231 
29556000    267.65246    315.43069     300.1242   -26.840538    26.927895    15.306493    40.172438 
29560000     274.4533    314.42503    296.24699   -26.097485    26.398846    18.178041    40.172365 
29564000    266.43842    296.67553    275.74826   -26.305992    27.194499    20.927268    40.171464 
29568000    269.40596      314.044    276.48044   -26.971465    26.241893     37.56356    40.172915 
29572000    279.74617    327.09518    281.90031   -27.360019     25.95606    45.194869    40.173683 
29576000    272.68143    322.87434    287.94053   -27.095823    25.969014    34.933806    40.175876 
29580000    272.00574    319.68784    259.35283    -27.78408    27.668149    60.335003    40.175487 
29584000    266.17595    308.31016    282.49393   -25.779994    25.403486     25.81623    40.176211 
29588000    282.55125    324.16747    287.44161    -28.04611    25.013871    36.725861    40.175236 
29592000    278.89943    330.47563    283.86891   -28.598488    26.189989    46.606724    40.174839 
29596000    271.44428    320.72435     260.6041   -27.848937    27.035894    60.120246    40.174489 
29600000    273.03352    304.51614    276.09607   -27.277124    25.587772    28.420068     40.17427 
29604000    270.20822    329.78303    263.75054   -27.859084    26.688589    66.032483    40.173933 
29608000    272.35886    323.05374    272.11679     -26.2102     27.44268    50.936957    40.174511 
29612000    283.20528    340.00454    301.42295     -28.2438    25.434883    38.581585     40.17497 
29616000    274.56035    350.24591    269.04057   -27.775745    27.109713    81.205335    40.176286 
29620000    274.75506    316.60747    293.47364   -26.964956    25.970063    23.133835    40.175244 
29624000    270.16143    316.67522    274.05386     -27.6391     27.25178    42.621355    40.174415 
29628000    267.65925    313.96608    272.11206   -26.752277    27.872865    41.854027    40.174364 
29632000    274.56545    316.70949    275.15568   -26.796218    27.175691    41.553813    40.174038 
29636000    276.18931    334.51673    279.75928   -27.889402    26.742894    54.757451    40.174659 
29640000    269.26042    324.51982    277.95964    -27.10038    26.589585    46.560174    40.176527 
29644000     265.7911    330.81947    257.72644    -27.31962    28.259484    73.093026    40.177527 
29648000    275.61784    305.69028    300.56586    -26.14968     25.61626    5.1244186    40.178223 
29652000    267.44351    321.74211    272.57665   -27.405223     27.30862    49.165463    40.176763 
29656000     265.6923    282.03952     269.6239   -25.449082    26.961534    12.415622    40.174155 
29660000    281.07566    321.17785    312.95292   -28.045216     24.16991    8.2249306    40.172864 
29664000    275.69669    307.33375    277.19879   -25.957732    26.765909    30.134954    40.172453 
29668000    279.30313     299.6451    298.49802   -26.264737    25.702117    1.1470742    40.172403 
29672000    270.49341    328.94606    273.87359    -27.85604    27.217765    55.072472    40.173044 
29676000    278.63584     327.3675    293.64471   -27.893829    26.602282    33.722789    40.174219 
29680000    279.73753    330.24655    300.49959   -27.186979    25.278681    29.746958    40.175174 
29684000    271.93669    316.69333    283.65909   -26.954286    26.269852    33.034242    40.174456 
29688000    279.98308    342.28228    287.98978   -28.402846    26.646944    54.292501    40.175178 
29692000    267.94923    297.96131    280.72453   -27.092812    25.971189    17.236782    40.175504 
29696000    273.77143    298.77905    287.77924   -25.435386    27.311079     10.99981    40.174562 
29700000    268.51627    308.06567    263.66507    -25.56714    26.978269    44.400598    40.173872 
29704000    271.30962    315.85131    267.31168   -25.967626    26.680614    48.539636    40.174416 
29708000    281.02161    350.03107    275.44398   -27.975681    27.007518    74.587083    40.173285 
29712000    276.45782    319.69103    303.38926   -26.331232    26.024617    16.301765    40.173031 
29716000    275.07037    353.80374    263.55897   -29.328567    27.771125    90.244773    40.173017 
29720000    274.80604     329.8002    267.29816    -27.37486    27.761997    62.502041    40.174444 
29724000    271.21555    324.33385    269.55231    -27.71035    27.170437    54.781539     40.17467 
29728000    268.88352    313.87744    278.63527   -28.077143    26.967034    35.242172    40.174142 
29732000     275.3799    308.36456    288.70268   -26.664856    26.253102    19.661881    40.174633 
29736000    269.15042    334.21276    267.27929   -28.723501    28.012623    66.933475    40.175017 
29740000    265.80696    304.93882    277.99785   -26.091788    27.944077    26.940969     40.17503 
29744000    274.61345    331.73949    277.47553   -26.689363    27.767265    54.263963    40.175492 
29748000    265.10612    306.70686     281.2411   -26.353772    28.194059     25.46576    40.176171 
29752000    271.48736    308.07205    282.05681   -26.725838    27.656939    26.015248     40.17659 
29756000    271.55066    334.63876    270.56598   -26.818137    27.923789    64.072783    40.175662 
29760000      275.554    307.03178    315.12198   -26.555373    26.045359   -8.0902075    40.175435 
29764000    271.39727    311.74357    264.30706   -26.933686    28.669745     47.43651    40.175159 
29768000    268.77002    320.01547    288.83162    -27.15869    25.299994    31.183853    40.174513 
29772000    269.03683    316.23286    260.68266    -27.77322    28.075512    55.550205    40.174798 
29776000    272.52393    323.91499    267.93379   -28.565724     28.42281    55.981195    40.175678 
29780000    270.56566    321.34508    278.98411   -27.922173    27.176419    42.360967    40.174456 
29784000    275.09866    330.63155    267.94357   -28.800918    28.205991    62.687984    40.173649 
29788000    274.34795    310.89628    287.81425   -27.840885    26.715431    23.082034    40.173616 
29792000    268.81756     309.8211    266.84083   -28.543984    28.225163    42.980265    40.172916 
29796000    271.11098    305.71624    281.21158   -27.912815    26.731308    24.504666    40.171006 
29800000    285.14349    341.82165    281.70807   -29.304587    26.274056    60.113582    40.169907 
29804000    275.66636    321.34364    266.61422   -28.503817    26.118436    54.729417     40.17132 
29808000    278.75499     329.8002    259.63688   -28.978668    27.152121    70.163321    40.171231 
29812000    276.81502    320.05332    267.01516   -28.335232    27.738444     53.03816    40.170872 
29816000    270.61604    326.03628    274.92056   -28.522474    27.417871    51.115722    40.171042 
29820000    277.98926    327.52212    285.08971   -29.475191    25.730978    42.432411    40.172215 
29824000     274.3421    315.50117    271.57471   -27.980996    27.454369    43.926455    40.172806 
29828000    275.73136    286.65641     299.0491   -28.333666    26.165115   -12.392689    40.173778 
29832000    280.39629    307.46633    305.38014    -29.77768    25.374429    2.0861939    40.175342 
29836000      278.669    316.63905    291.08797   -28.656794    26.522791    25.551077    40.175501 
29840000    273.09328    304.64647    289.56756   -29.484156    25.693087    15.078915    40.174128 
29844000    272.27646    289.82768    283.77292   -27.952579    25.737503    6.0547536     40.17488 
29848000    272.12649    320.35271    254.86536    -30.37148    26.917382    65.487344    40.174089 
29852000    275.38599    323.12899    261.92026   -31.387315     27.05023    61.208731    40.173545 
29856000    285.76066    330.77099    286.19176   -30.716861    26.237656    44.579237    40.175529 
29860000    286.04239    299.16942    307.86498   -28.372244     25.45519   -8.6955595    40.174033 
29864000    288.71879    332.82591    286.47815   -30.812898    25.713527    46.347757    40.175463 
29868000    284.71227    332.42571    293.83252   -30.470336    25.990234    38.593182    40.175868 
29872000    284.19074     328.7809    273.18823    -30.78657    26.382385    55.592667    40.176485 
29876000    279.78833    324.34862    282.44384   -30.857741    26.386968    41.904784    40.177491 
29880000     275.3615    313.06481    263.70262    -30.52425    26.996068    49.362185    40.177125 
29884000    273.76906    303.24143    268.95727   -30.202475    27.251934    34.284159    40.174821 
29888000    274.26519    309.66648    270.67473   -29.394258    27.006635    38.991746    40.175258 
29892000    271.02886    311.17783     283.7038   -29.811684    26.854342    27.474036    40.176434 
29896000    272.57219     324.8339    271.71155   -29.773562    26.202271     53.12235    40.176016 
29900000    273.79166    316.80668     289.9995   -30.728906    25.299652     26.80718    40.176287 
29904000    272.91777    302.61946    288.90384   -28.610407    27.267974     13.71562     40.17471 
29908000    268.43769    300.51322    277.65088   -29.779274    27.448842    22.862338    40.176631 
29912000    277.58888     304.3171    289.33901   -29.216904    27.681742    14.978092      40.1783 
29916000    282.34268    326.61636    283.54862   -30.686328    27.484565    43.067739    40.176748 
29920000    279.21475    319.88911    291.47916    -29.02829    27.152917    28.409945    40.176857 
29924000    279.51033    328.15012    278.45052   -29.731248    26.253511    49.699598    40.176812 
29928000    270.10868    326.80158    260.30689   -29.708287    27.988932    66.494694    40.178447 
29932000    276.21395    306.58769    301.75605   -28.832457     26.11557    4.8316352    40.176271 
29936000    276.83091    346.76021    276.26813   -31.294372    27.542532    70.492081    40.175815 
29940000      286.296    310.09255    313.08793   -29.559367    25.537831   -2.9953723    40.175703 
29944000    276.24505    316.95612    281.93953   -29.300404    27.763082    35.016591    40.177477 
29948000    280.90806    335.28998    295.22971   -30.006875    26.536496    40.060275    40.177425 
29952000    270.35259    289.30217    277.50333   -28.431587    26.941895    11.798845    40.177866 
29956000    271.97808     301.4036     284.0081   -28.399028     27.00217      17.3955    40.176732 
29960000    282.46358    319.28079    288.37643   -31.074108    25.937947    30.904366    40.175623 
29964000    272.50435    307.03334     269.3266   -29.194909    26.819497    37.706747    40.174433 
29968000    284.78545    329.02073    279.17552   -30.142607    26.266453    49.845213    40.173635 
29972000    271.84727    319.26225    262.13624   -29.676545    27.803686    57.126005    40.173704 
29976000    281.36235     328.0768    278.85657   -29.949794    27.930706    49.220231    40.173935 
29980000    282.33683    335.13384    267.82644   -30.012182    27.017566    67.307403    40.172549 
29984000    288.97792    332.52329    299.61156    -30.56379    25.797336    32.911725    40.173841 
29988000    284.23875    323.20807    283.43387   -29.730351    26.962219    39.774197    40.174657 
29992000    270.44035    293.25851    262.57609   -27.585674    27.184458    30.682423    40.173917 
29996000    278.07094    310.54526    294.24192   -27.619277    25.625657    16.303341    40.173911 
30000000    280.72921    338.74277    269.38771   -30.966515     26.94884     69.35506     40.17376 
30004000    266.47699    300.72302    271.36647   -28.715319    27.661114    29.356552    40.174785 
30008000    283.95897    342.79993    282.60406   -30.798261    27.295873    60.195862    40.176554 
30012000    271.48517    296.24784    292.51712   -29.054665    27.124047    3.7307148    40.178552 
30016000    278.35419     351.7316    263.60643    -29.80234    28.537016    88.125172    40.178582 
30020000    274.27176    322.16108    271.20255   -28.790191    28.179288    50.958523    40.178682 
30024000    283.42312    334.21325    288.07096   -30.154231    27.095645    46.142298      40.1789 
30028000    292.08592    336.57193    313.67053   -29.746888    24.937022    22.901397    40.177878 
30032000    277.79649    327.60254    263.82612   -29.134559    26.954886    63.776415    40.180196 
30036000    279.80415    301.20429    288.58637   -28.326399    26.496182    12.617925    40.180484 
30040000    278.47626    315.29616    291.93696   -29.053138    27.034645    23.359193    40.179475 
30044000    274.80203    323.06094    272.16778   -28.773504    27.716895     50.89316    40.178556 
30048000     278.3617    326.43842    283.41562   -29.581551    26.766238    43.022796    40.178102 
30052000    274.65385    322.47468     272.9047   -29.375997    27.853996    49.569974    40.177147 
30056000    271.35118    332.49465    259.47213   -29.296874    27.736996    73.022517    40.178699 
30060000    271.97202    315.32062    290.22526   -27.255922    26.594696    25.095358    40.179228 
30064000    281.71477    332.67606    289.93272   -29.000076    27.842145    42.743338    40.179337 
30068000    274.85173    332.51466    276.06832   -28.654751    28.510225    56.446333    40.179702 
30072000    282.90547    321.50154    279.63858   -29.037875    28.075587    41.862965    40.180016 
30076000    273.32807    305.89215    285.60575   -27.743194    27.519544    20.286402    40.180203 
30080000    274.01152    323.05371    289.34715   -28.048295    26.451506     33.70656     40.18016 
30084000    285.78965      324.742    292.23356   -29.437226    27.568592    32.508436    40.180217 
30088000    273.22149     315.5278     274.6986   -28.159188    28.289985    40.829206    40.180781 
30092000    266.04769    309.62282    264.85533   -28.092994    28.713388    44.767487    40.181008 
30096000    280.15319    330.03457    267.74788    -29.55409    28.728449    62.286686    40.180851 
30100000    264.74946    302.38372    257.73685   -29.319279    29.222117    44.646863    40.179445 
30104000    275.96672    325.94178     285.2125   -28.868246    27.885445    40.729277    40.180949 
30108000    277.36127    316.64583    267.70598   -29.864997    28.943855    48.939844    40.180272 
30112000    279.39566    315.29795    289.04618   -28.125231    26.903524    26.251767    40.179423 
30116000    279.80415    335.63056     283.0831   -29.442338    27.634469    52.547457    40.179601 
30120000    276.46766    307.02166    306.77027   -28.757667      25.6902    0.2513881    40.179082 
30124000    287.37122    329.04087    297.87182   -29.103676    25.928917    31.169049    40.178885 
30128000    277.57279    317.76095    284.67444   -27.717052    27.450437     33.08651    40.178476 
30132000    271.94717    305.37804    273.56041    -27.08511    28.316552    31.817623    40.179995 
30136000    276.79058    329.60753    291.83559   -29.281777    26.668833    37.771939    40.179942 
30140000    273.36955    312.27925    267.05952   -27.765738    28.192164    45.219736    40.182111 
30144000    272.10221    315.85876    279.94848   -26.850373    27.628834    35.910286     40.18161 
30148000    274.34509     308.7446    288.94055   -28.285155    27.547904    19.804059    40.181611 
30152000    279.99971    324.71515     289.1053   -28.749961    26.659762    35.609843    40.181893 
30156000    275.39967    318.77404    279.78871   -28.334248    27.190536    38.985324    40.182066 
30160000    291.42644    317.57741    309.38465   -28.248987    25.801629    8.1927642    40.181826 
30164000    272.79288    316.73063    281.67976    -28.18782    27.170862    35.050876     40.18201 
30168000    275.26962    316.69029    261.46016   -28.239717    28.054106    55.230132     40.18229 
30172000     270.3564     331.0221        255.6   -28.788441     28.96476      75.4221    40.181896 
30176000    280.65919    328.94749    282.13524   -28.559874    28.276763    46.812247    40.181529 
30180000    266.01781    295.29447    289.44883   -26.501303    27.537831    5.8456417    40.181216 
30184000    273.05383    311.87469    273.63121   -28.625341    28.119609     38.24348    40.180831 
30188000    279.16406    345.80426    272.70825   -30.877979    28.760239    73.096004    40.180083 
30192000    269.88044    300.27456    277.41224   -27.657027    27.024991    22.862313    40.179554 
30196000    274.37539    333.39767    270.72864   -30.089019     27.57961     62.66903      40.1784 
30200000    274.02486     330.4431    262.24583   -29.459965    29.498761    68.197271    40.176497 
30204000    269.47402    304.29607    287.70448   -28.514198    28.120132    16.591592    40.178062 
30208000    269.98705    317.16355    270.04462   -28.597297    29.539436    47.118936    40.178904 
30212000    267.69339    327.74473    259.64553   -28.278863    28.295879    68.099197     40.17814 
30216000    277.10695    319.48353    287.00136   -28.359665    27.340859    32.482174    40.178971 
30220000    264.26389    322.65339    274.06063   -27.654668    27.779085    48.592756    40.178934 
30224000    278.31782    346.13258    281.20393   -30.306982    28.227086    64.928655    40.177485 
30228000     267.4551    312.41063    261.19723   -27.794428     28.93984    51.213398    40.176189 
30232000    265.77643     306.3051    292.81958   -27.649604    29.077015    13.485526     40.17548 
30236000    270.10553    296.99108    283.05225   -27.727302    28.240244     13.93883    40.175123 
30240000    286.37084    359.25613    296.74159   -30.511959    27.880559    62.514544    40.173807 
30244000    280.34731    345.87651    267.39838   -29.870561    30.051189    78.478128    40.175735 
30248000    267.51948    310.08611    272.95654   -29.072643    29.314266    37.129569    40.175045 
30252000    276.16522    327.66638    281.12593   -30.432771    29.487434    46.540449    40.175711 
30256000    268.14873    314.86923     286.0126   -29.079477     29.43753    28.856638     40.17522 
30260000    276.04785    335.01491    266.48924   -30.080176    30.585236    68.525667    40.174538 
30264000    273.44304    333.49099    277.00584   -29.427209    29.902527    56.485146     40.17476 
30268000     268.6897    284.64508    280.12406   -27.673531    28.944186    4.5210162    40.174843 
30272000     269.8164    327.23792    265.15188   -28.595978    29.606634    62.086037    40.173569 
30276000    280.53237    315.99472    311.17485   -29.017075    27.729838    4.8198721    40.171276 
30280000    276.50503    319.27946    288.75926   -28.428558    28.530432    30.520203    40.171227 
30284000    272.78002    330.09926    278.35096   -29.648934    29.068538    51.748301    40.172082 
30288000    279.67936    329.59407    287.42669   -29.815805    28.331394     42.16738    40.171742 
30292000    277.87397    330.13737    290.09768    -29.94997    28.984103    40.039692     40.17115 
30296000    271.17177     330.4804     278.4711   -28.827258    28.919133    52.009305     40.17218 
30300000    272.78216    310.61661    279.58764   -28.356869    28.909313    31.028977    40.171656 
30304000    274.50986    324.48474    263.85839   -29.667272    29.595845    60.626351    40.171916 
30308000    277.16247    345.40677    276.27028   -30.419335    29.450357    69.136487    40.174289 
30312000    268.59085    296.18962    291.45882   -27.090811    28.722966    4.7307965     40.17536 
30316000    279.95625     321.1831    283.45731   -29.688541    29.805714    37.725792    40.173556 
30320000    272.04026    304.44632    297.84634   -28.729317    28.284004    6.5999812    40.173289 
30324000    289.41896    341.27868    301.55904   -30.646922    28.965426    39.719644     40.17393 
30328000    282.71455    313.29901    292.18101    -30.38778    28.867801    21.118008     40.17349 
30332000    279.89015    327.89371    285.77614   -31.114537    28.553182     42.11757    40.174844 
30336000    268.66532    311.47728    266.68341   -30.255236    29.380467    44.793872    40.174553 
30340000    279.98176    322.30327    291.53969   -29.648962    28.196753    30.763588      40.1747 
30344000    267.72088    301.58232    278.13846   -28.558226    28.843776    23.443852    40.172798 
30348000    262.07503    294.04723    268.42836    -28.67163    29.510064    25.618866      40.1729 
30352000    276.41133     330.5244     299.7969   -30.512286    28.354404    30.727502    40.173288 
30356000    273.91014    323.31386    295.31986   -29.618762    27.898725    27.993998     40.17285 
30360000     274.0207    331.93263     275.9105   -30.351369    29.183991    56.022137    40.174064 
30364000    275.77216    336.61397    256.93921   -30.230129    29.378788    79.674759    40.175048 
30368000    265.07656    291.62369    263.74911   -29.005083    29.356803    27.874586    40.174245 
30372000    274.30974    322.49718    283.75032   -29.692611    29.138089    38.746858    40.173433 
30376000    278.07685    325.69178    290.13077   -29.549071     29.25564    35.561011    40.173642 
30380000     272.7181    325.26168    269.01309    -30.61707    29.480319     56.24859    40.172801 
30384000    268.88655    297.45514    284.71879   -27.825338    29.496842    12.736347    40.173007 
30388000    285.79464    336.33036    283.73151   -30.539753    28.587327    52.598848    40.172335 
30392000     276.0545     312.8199    284.28659   -29.011006    29.427364    28.533308    40.171338 
30396000    270.16486    302.25852    286.25718   -29.215444    28.723035    16.001333    40.170931 
30400000    275.06032     298.6713    293.52215   -28.095245    27.385475     5.149152    40.169372 
30404000    281.69987    313.25482     309.7742   -30.175662    27.367622    3.4806123    40.169542 
30408000    294.66252    368.58326    298.66434   -33.768709    27.563191    69.918919     40.16942 
30412000    273.16535    307.30072    285.12792   -29.994975    28.504288    22.172806    40.167818 
30416000    274.32204     313.2328    280.90392   -30.440163    28.637068    32.328879    40.167532 
30420000    281.24031     335.0176    305.61049   -30.483525    26.798102    29.407104    40.166032 
30424000    280.19215    332.81921    280.15855   -29.834156    28.115686    52.660666    40.164236 
30428000    282.72817    335.06468    272.28435   -29.767412     27.18273    62.780331     40.16443 
30432000     285.1022    353.41883    281.37498   -31.645945    28.028278    72.043854    40.164761 
30436000    275.50995    326.02738      280.683   -31.078921    27.555365    45.344385    40.164979 
30440000    274.57689    325.04486    257.80648   -31.243445    28.633352    67.238382    40.166337 
30444000     284.2701    338.04205    289.13318   -30.608018    27.085371    48.908867    40.164715 
30448000    279.49429    356.53944    279.20883   -31.107923    27.857507    77.330618    40.165584 
30452000    275.01392    328.54604    267.94853   -31.728299    28.824054     60.59751    40.166649 
30456000    278.28383    307.94047    280.57776   -29.854132    27.078119    27.362711    40.166631 
30460000     271.4908    303.43564    277.67368   -30.667697    28.011249    25.761962    40.166638 
30464000    284.20899     324.3814    294.06029     -30.9982    26.819503    30.321105    40.167002 
30468000    278.80551     363.8133     266.1728   -33.297684    28.847957    97.640494    40.165501 
30472000    269.26653    312.73597    261.45383   -29.500203    29.378695    51.282134    40.165375 
30476000    280.76683    308.52482    286.09089   -29.222366    28.041035    22.433926    40.165462 
30480000    278.34221    333.97808    272.40544   -30.007753    28.688574    61.572648    40.165987 
30484000    280.04436     317.8438      292.885   -29.079324    27.148831    24.958807    40.166674 
30488000    281.89387    335.65071    277.45339   -30.935562    28.975652    58.197319    40.166229 
30492000    273.61239    300.04805    286.34644   -29.670723    28.151654    13.701609    40.166055 
30496000    287.15551    349.84768    286.68827   -31.453347     28.40418     63.15941     40.16573 
30500000    275.15151    322.30903    290.46036   -29.740423     28.41027    31.848671    40.167301 
30504000    272.80525    313.06176    290.46796   -28.878379    28.012306    22.593806    40.165622 
30508000    269.19197    325.58906    280.92436   -30.219419     28.03443    44.664696    40.164375 
30512000    276.85533    304.34708    289.36612    -29.56289    27.453224    14.980964    40.165058 
30516000    269.52227    290.59301    276.61363   -29.766292    29.159272    13.979377    40.164269 
30520000    281.64339    316.97352    295.49229   -30.210981    28.277582    21.481233    40.165365 
30524000     286.5703    332.64652    287.44666   -31.186859    27.010303    45.199853    40.164813 
30528000    278.28701    336.48003    275.61589   -31.608423    28.376657    60.864133    40.164688 
30532000    274.53034    323.14485     255.5513   -31.358741    30.214654    67.593552    40.164714 
30536000    272.94763    305.14647    271.60063   -29.243891    29.450985    33.545839     40.16552 
30540000    280.46497      319.073    281.49136   -30.355666    28.347075    37.581635    40.164957 
30544000    275.54756    308.11804    282.78369   -31.256403    27.996683    25.334345    40.163759 
30548000    281.19702    325.09558    301.71108   -30.229499    27.464028    23.384502    40.164866 
30552000    280.08445    312.48796    283.96167    -30.73966    27.829866    28.526282    40.164092 
30556000    286.53329     314.8651    302.42769   -29.941019    27.229525    12.437408    40.164425 
30560000    272.22298    303.34606     262.3469   -30.777008    28.401408    40.999161    40.164897 
30564000    274.17872    334.51642    262.95605   -31.357483    30.039873    71.560369    40.164669 
30568000    284.13183    320.23377    288.96693   -29.590323    27.988904    31.266841    40.164786 
30572000    276.42938    309.81964     277.1577   -29.717812    28.078782    32.661948    40.165766 
30576000    272.24928    321.29873    270.74372   -31.213348    28.529698    50.555011    40.165813 
30580000    278.21414    312.43882    282.19962   -30.488722    29.455534    30.239193    40.164785 
30584000    293.23511    348.75196    307.33566   -32.099176    27.257027    41.416301    40.163786 
30588000    281.41832    333.00048    268.49442   -32.266377    30.182518    64.506058    40.163037 
30592000    283.65145    328.92991    285.50308   -31.999122    28.401806    43.426826    40.162571 
30596000     275.9006    310.95532    277.79889   -30.815843    29.593824    33.156434    40.161682 
30600000    283.83995     338.0911    291.86388   -31.535409    29.253099     46.22722    40.160771 
30604000    265.69923    310.50136    265.83866   -29.612387    29.356398    44.662691     40.15974 
30608000    282.60607    316.06078    285.85342    -30.49887    29.236918    30.207359     40.15972 
30612000    284.34487    344.74552    284.58018   -31.867602     29.51284    60.165344    40.158797 
30616000    273.96145    331.71787    271.79027   -31.803082    31.002173    59.927598    40.159319 
30620000    283.83768    341.92846    283.48068   -32.076402    28.998417    58.447776    40.158617 
30624000    267.06216    310.94135    271.45076   -30.843542    29.684299     39.49059    40.159478 
30628000    279.57405    317.58375    295.01694   -31.839023    29.086775    22.566816    40.160104 
30632000    270.85888    287.66869    276.60024   -28.653146    30.053255    11.068445    40.158234 
30636000    283.80642    335.03501    298.17641   -31.213134    28.394978    36.858597    40.158811 
30640000    272.05963    313.72351    278.88105   -29.992044    29.253321     34.84246    40.156828 
30644000     270.9626    303.07748    287.50227   -30.067946    28.865257    15.575201    40.157499 
30648000    275.24442     305.9394    296.74036   -29.449368    27.295231    9.1990471    40.157334 
30652000    267.54011    325.66433    276.05132   -29.429181    29.908204    49.613015    40.158485 
30656000     283.4926    330.92032    310.14943   -30.037366    27.817945    20.770892     40.15742 
30660000    278.63574    319.49022    279.67567   -29.490071    29.218269    39.814547    40.158592 
30664000    272.87657    333.97768    283.76949   -29.987619    28.262319    50.208184    40.158361 
30668000    273.70659     330.0227    274.69302   -30.176193    29.329416    55.329686    40.158695 
30672000    273.08694    303.12786    282.49536   -29.850727    30.838638    20.632501    40.160132 
30676000    267.43842    301.89944    270.63972   -29.225094    30.120778    31.259715    40.161209 
30680000     272.8943    310.07821    293.44123   -29.680353    29.944417    16.636979    40.160647 
30684000    263.17994    318.92607    279.58249   -29.238082    30.509325    39.343575    40.161331 
30688000     272.2783    335.70337    266.05514   -30.225172    29.691604    69.648234    40.162879 
30692000     272.9999    309.92315    310.97199   -29.758971    27.946544   -1.0488375    40.163814 
30696000    274.29116    331.54219     273.2322   -30.902337    29.542649    58.309989    40.164184 
30700000    271.16185    310.61661    281.24123   -29.186318    28.695498    29.375381    40.164214 
30704000    273.74572    336.57464    279.58065    -30.88462    30.304935    56.993996    40.164667 
30708000    279.22742    331.33181    281.00837   -31.188031    30.018309    50.323442    40.165283 
30712000    270.95872      314.996     285.4501   -29.467169    29.101357    29.545892    40.164712 
30716000    279.94633    333.87236     284.7759   -30.104572    28.631355    49.096468    40.164122 
30720000    279.78439    325.16584    289.06528      -28.616     27.98108    36.100554    40.164538 
30724000     271.6115     329.2253    279.47554   -30.373011    30.124003    49.749759    40.165492 
30728000      275.677    316.64962    302.31026   -31.119267    29.177125    14.339353    40.164766 
30732000    276.75243    302.46746    301.74454    -29.66925    28.711602   0.72292569    40.164733 
30736000    266.80664    310.56995    276.15733   -30.168328    29.544313    34.412623    40.162924 
30740000    280.47163    315.32169    294.83215   -30.325297    29.520931    20.489538    40.161992 
30744000    270.90281    322.12398    264.71771    -31.12319    29.837974     57.40627    40.162098 
30748000    276.71246    322.34366    264.11533   -30.353349    31.199881    58.228324      40.1623 
30752000    274.27726    302.32186    283.76879   -30.295749    29.471904    18.553069    40.163833 
30756000    274.60937    320.86853    299.52889   -30.806332    28.567183    21.339645    40.163249 
30760000    280.75438    345.38666    279.16235   -31.445157    29.909522    66.224317    40.163537 
30764000       273.35    327.14965    270.93085    -31.29393    30.045975      56.2188    40.164202 
30768000     272.6451    302.62743    280.10757    -30.60246    28.558175    22.519861    40.165222 
30772000    275.30427    322.86237    278.82636   -31.077999    28.482012    44.036008    40.167883 
30776000    274.59118    316.55517     279.8272   -30.590039    28.896083    36.727972    40.166986 
30780000    276.00652    319.02677    273.67334   -30.651843    29.680935    45.353432    40.166873 
30784000    269.95392    303.58886     277.1034   -30.174763    28.734183    26.485454    40.167703 
30788000    278.80068    327.63839    262.19308   -32.016877    30.563901    65.445301    40.166142 
30792000    284.95377    318.76676    304.38037    -30.85716    28.986646    14.386389     40.16829 
30796000    265.17838    320.92117     257.3391   -30.613097    30.098621     63.58207    40.168649 
30800000    271.09151     320.5305    283.71837   -30.210129    29.447878    36.812133    40.170653 
30804000    281.64357    324.24303    285.58746   -30.224321    29.168906     38.65557    40.170683 
30808000    268.13647    298.96196    287.49648   -28.092976    29.603178    11.465475    40.170139 
30812000    268.11293    298.33891    272.96079   -28.495242     29.72951    25.378126    40.169661 
30816000    284.13594    337.74415    291.20483   -30.571947    28.968808    46.539322    40.170566 
30820000    274.78855    315.57892    277.75944   -31.005612    29.672304    37.819474    40.170416 
30824000    276.53996    317.17206    282.03695   -30.309643    29.307643    35.135109    40.169768 
30828000    280.95615    316.26224    288.51831   -30.539865    29.065828    27.743926    40.170017 
30832000    274.61533    305.44042    287.09786   -29.826307    28.846345    18.342564    40.169536 
30836000    279.78639    319.71668    272.28808   -30.948662     28.99873    47.428605    40.171706 
30840000     273.7175    305.99406    288.99086   -30.730604    27.845161    17.003196    40.171209 
30844000    280.88367    315.34544    296.73194   -30.227532    28.297367    18.613504    40.170168 
30848000    282.06283    322.80753    280.65895   -30.082253    30.586894    42.148582    40.169606 
30852000     276.3979    317.20935    284.80374    -31.56041    29.699647    32.405613    40.169859 
30856000    277.79025    322.72206    307.08793   -31.263123    28.068505    15.634123     40.17028 
30860000    277.97618    331.50626    291.50153   -31.611324    30.379315    40.004734    40.170109 
30864000     270.0151    316.07631    268.73289   -29.133907    31.383229    47.343427    40.168381 
30868000    275.84999    316.86257    282.30449   -31.343905     29.57642    34.558076    40.170003 
30872000    271.06597    311.69666    273.32779   -31.421008    29.518128    38.368872    40.171093 
30876000    266.63989    329.03965    249.28031   -30.382918    30.611242    79.759343    40.171304 
30880000    273.50133    303.58707    280.32362   -29.928538    29.248973    23.263451    40.169322 
30884000     266.4975    305.82294    266.06613   -30.200768    29.946033    39.756809    40.170326 
30888000    269.50805    296.77495    261.00671   -28.691319    29.678178    35.768245    40.168843 
30892000    272.84724    303.57906    268.25415   -29.105184    29.232626    35.324909    40.168191 
30896000    279.01878     311.7704    274.10515   -29.732302    30.031039    37.665258    40.169415 
30900000    274.22375     323.8399    249.90389   -31.982929    30.762447    73.936016    40.168437 
30904000    272.07183     319.2898    252.21101   -32.157238    30.969812     67.07879    40.170291 
30908000    274.46881    324.20018    283.91223   -32.499931    28.699714    40.287947    40.170031 
30912000    278.59156    321.31112    285.52112   -31.052097     29.29501    35.790003    40.169663 
30916000    276.88845    304.23665    283.37333   -30.547185     28.98708    20.863315    40.168271 
30920000    280.60225    328.82339    273.90859   -32.272516    28.768663    54.914801    40.168163 
30924000    275.45729    312.58526    285.52307   -31.430695    29.447172    27.062186     40.16831 
30928000    280.81358    321.48867    285.82845     -32.7887    28.628444    35.660221    40.169028 
30932000    277.42264    313.52612    282.81955   -32.211238    29.111661    30.706572    40.168547 
30936000    273.52067    310.29437    255.71754   -33.039069    30.071649    54.576833    40.169741 
30940000    276.42283    326.57942    295.48272   -33.244367    29.058341    31.096694    40.170283 
30944000    273.38546    306.29261    275.64446   -31.298122    29.797444    30.648155    40.169024 
30948000    280.17799    341.45538    256.37535   -33.322461    30.702257    85.080029    40.167793 
30952000    280.32249    311.74425    292.12645   -30.563344    28.456712    19.617802    40.167366 
30956000    277.66157    309.02533    298.14602    -31.63136    29.481449    10.879305    40.168297 
30960000    282.67605    328.78678    272.49773   -31.760024     30.98315    56.289053    40.167741 
30964000    280.40073    320.96721    284.12368   -30.550497    30.589134    36.843533    40.165594 
30968000    263.22383    295.50675    266.08576   -29.599844     31.28159    29.420988    40.167368 
30972000    284.65898    331.32664    304.18957   -31.479961    28.604068    27.137062    40.166184 
30976000    286.41034    336.94811    292.32642   -32.135075    30.798506    44.621686    40.165905 
30980000     268.4573    320.47324     272.5639   -31.934017    30.549747    47.909339    40.165802 
30984000    276.87402    330.73608    285.64805   -32.803023    30.781348    45.088031    40.164489 
30988000    278.82268    320.03879    283.92222   -31.576479    30.885295    36.116574    40.163978 
30992000    273.08284    313.74977    283.42232   -31.478272    30.872336    30.327446    40.162389 
30996000    272.64198     327.0404    270.27302   -30.682369    31.798938    56.767388    40.161967 
31000000    266.09859     318.6034    258.39457   -32.143908    31.262548    60.208827     40.16271 
31004000    275.82176    311.79725    292.38311   -31.724439    30.226587    19.414131    40.162618 
31008000    280.64915    326.55449    296.71079   -33.183116    28.955279    29.843701    40.161143 
31012000    276.96047     335.8061    272.30364    -32.31596    30.976889    63.502454    40.160577 
31016000    272.88656    309.41329    272.88081   -31.597194    30.605279    36.532488     40.16044 
31020000    270.87431    298.30022    271.82344   -29.335355    29.330089    26.476782    40.161152 
31024000    275.26509    322.38938    277.43659   -31.082581    30.825389    44.952785    40.161764 
31028000    279.82788    341.16664    282.34278   -31.853323    29.870671    58.823859    40.162068 
31032000    279.46642    324.70407    285.30165   -30.996083    29.218819    39.402419    40.163655 
31036000    284.02472    349.58202    281.88415   -32.505788    29.897863    67.697876    40.164423 
31040000    279.73348    315.87511    305.26368   -32.403934     29.20988    10.611435    40.164985 
31044000    273.46778    306.77332    288.39747   -31.429929    30.231124    18.375844    40.165654 
31048000    275.37117    326.71733    271.10005   -33.719832    30.786434    55.617278    40.168444 
31052000     288.5929     335.5503      289.038   -33.196007    30.082949    46.512297    40.167377 
31056000    284.33843    341.91032    272.11857   -32.816285    31.096136    69.791748    40.168305 
31060000     275.1548    335.84429    268.25692   -33.316047    31.433663    67.587366    40.169581 
31064000    274.14758     332.4889    289.01339   -32.913067    30.224221    43.475507      40.1692 
31068000    288.16511    339.40328    286.03001     -34.6046     30.33627    53.373266    40.170214 
31072000      294.971    357.84948    289.79078   -34.706295     30.74307    68.058698    40.170195 
31076000    285.08003    343.19216    302.91586   -33.641838    30.350502    40.276297    40.169866 
31080000    276.04568    328.71155    271.87372   -33.730874     31.08432    56.837829    40.170237 
31084000    277.72707     309.6695    270.50749   -33.337883    31.415265    39.162012    40.170251 
31088000    281.72647    326.64125    302.52577    -33.42037    30.182075     24.11548     40.17093 
31092000    277.45874    305.23292    302.39356   -31.864194    30.335907    2.8393541    40.169844 
31096000    276.33071    320.34381    297.59862   -33.122916    29.444964    22.745187    40.169455 
31100000    279.75925    323.17935    286.29623   -31.757344    30.895892    36.883127     40.16909 
31104000    272.00522     319.6545    266.81819   -32.790205    31.843465     52.83631     40.17052 
31108000    268.59816    307.36449    277.17323   -33.054624    30.700936    30.191263    40.170752 
31112000    290.42336    349.33873    294.00024   -34.107315    30.986184    55.338494    40.170533 
31116000    268.11399     287.6694    285.82615   -30.523187    30.716897    1.8432456    40.171349 
31120000    277.63184    317.61775    287.80328   -31.980652    31.262409    29.814473    40.171569 
31124000    272.76072    306.31743    283.45485   -31.482862    31.786833    22.862574    40.171996 
31128000    273.20359    328.04819    281.27876   -32.666276    32.181921    46.769429    40.170637 
31132000     272.9365    324.70612    298.19426   -32.043679    30.776337     26.51185      40.1696 
31136000    276.81384    321.31792    284.73494   -32.094807    31.896572    36.582979    40.169013 
31140000    278.35191    324.14568    286.25876     -32.2501    30.141007    37.886913    40.167671 
31144000    279.92576    344.76006    268.24255   -33.270303    31.125949    76.517509    40.167994 
31148000    264.98418    307.39868    285.08352   -31.251119    30.158142    22.315169    40.168118 
31152000    282.16533    341.74677     274.8178    -33.38131    29.717249    66.928974    40.167944 
31156000    272.11756      309.684    261.34165   -32.363633    30.644965    48.342348    40.167737 
31160000    275.48827    346.37537    268.07621   -33.874987    31.246878    78.299162    40.167736 
31164000    272.09439      310.235    278.65424   -32.148402    30.988992    31.580752    40.167616 
31168000    278.02416    307.36857    275.42119   -32.194288    31.260371    31.947381    40.167884 
31172000    277.11567    320.12672    278.79532   -32.460215    29.541505    41.331395    40.168186 
31176000    281.72703     342.3041    290.32707   -33.024641    30.797722    51.977034    40.168346 
31180000    279.14594    326.79751    293.05701   -31.930277    29.971325    33.740498    40.167871 
31184000    275.16524    332.86259    276.94115   -33.794626    31.941618    55.921439    40.169226 
31188000    276.10949    331.23097    270.07833   -31.982959    30.679741    61.152646     40.16894 
31192000    276.76041    321.09504    294.30935    -31.64457    30.643054     26.78569    40.168718 
31196000    276.52432    318.98566    271.98581   -32.554789    31.437963    46.999847    40.170254 
31200000    274.54059    315.36634    278.29211   -31.824239    30.091123    37.074236    40.171293 
31204000    276.70808    332.64727    288.88289   -32.181903    31.097595    43.764384    40.169781 
31208000    269.90584    311.56606    268.03916   -31.638859    31.561869      43.5269    40.168834 
31212000    278.60453    317.76513     289.6167   -32.177531    30.733986     28.14843    40.168383 
31216000    274.45678    308.82323    297.67797   -31.222282    30.224984    11.145256    40.168483 
31220000    272.24586    330.64053    275.04088   -31.698841    31.653565    55.599641    40.168559 
31224000    278.99848    316.78363    276.82042   -32.809557    32.612582    39.963212    40.167692 
31228000    270.43426    332.50705    268.31884   -34.446781    31.964129    64.188208    40.168292 
31232000    271.93089    292.13927    273.02945   -30.984735    31.534964    19.109814    40.167558 
31236000    277.00848    333.50181    271.46312   -33.603538    31.805646    62.038691     40.16912 
31240000    272.68764    312.17165    290.78038   -32.852676    31.036736    21.391273    40.170216 
31244000    269.58548    307.27036    281.42016   -31.996847    32.095507    25.850196    40.168095 
31248000       276.42    337.07279    284.41069   -32.752865    31.716508    52.662093    40.169488 
31252000    278.32748    322.21279     288.5739   -30.624108    31.144524    33.638895    40.170747 
31256000    270.38177    305.23076    280.49268   -31.533323    31.014686    24.738082    40.170328 
31260000    276.06984     304.0035     291.0909   -31.678029    31.487314    12.912602    40.169138 
31264000    272.05458     323.0164    285.68744   -32.243716    32.301226    37.328955    40.169494 
31268000    271.38454    318.45469    292.74773   -31.512948    30.850316    25.706951    40.169419 
31272000    276.87826    339.50482      282.701   -33.293828    31.551281    56.803825    40.170685 
31276000    273.07474    320.77302    283.55599   -31.483577    30.709808    37.217033    40.169754 
31280000    269.37747    307.66273    278.39294   -31.733512    30.888942    29.269785    40.169269 
31284000    267.75831    300.24127     277.0216   -30.998865    32.101123    23.219667    40.169629 
31288000    279.43219    326.11874     279.2215   -31.544643    31.877928    46.897239    40.170744 
31292000    274.28098    298.38329    287.93555   -31.657848    29.847421    10.447737    40.170101 
31296000    271.19378    313.66258    277.89098   -31.708217    31.617279      35.7716      40.1705 
31300000     274.4816    313.35305    268.31129    -31.31974    30.127508    45.041754    40.170896 
31304000    266.08054    319.86283    256.17413   -32.218433    32.256308    63.688696    40.172244 
31308000    271.98183    325.18436    270.63279   -32.196757    31.772325    54.551564    40.173866 
31312000    276.74588    342.00148    286.78922    -32.53989    31.236636     55.21226    40.174106 
31316000    274.59673     319.0595    273.89391   -32.308164    31.636974    45.165596    40.174171 
31320000    270.76587    334.44889    272.79054    -33.68855    32.684879    61.658351    40.174619 
31324000    274.66744    329.84722     295.7841   -32.997854    31.075095    34.063119    40.175476 
31328000    267.04584    320.81467    291.33243    -32.47671    32.318259     29.48224    40.175459 
31332000    279.72483      324.869     286.3412   -33.217205    32.035688    38.527804    40.175209 
31336000    271.30074    318.72537    281.59411   -31.818521    31.939485    37.131263    40.174673 
31340000    265.08926    320.07326    269.13281   -33.156435    32.598615    50.940453    40.174895 
31344000    269.36165    302.21947    273.17896   -32.107967    31.768733    29.040512     40.17489 
31348000    278.30563    326.03446    300.66618   -32.810764    30.335635    25.368274    40.175749 
31352000    276.82371    324.45599    299.17585   -32.331158    30.590981    25.280137    40.175552 
31356000    279.69923    323.22177    289.45103   -33.438077    31.324519     33.77074    40.174282 
31360000    277.53163    334.58622    286.11901    -32.93932    31.832055    48.467209    40.175209 
31364000    273.30113    324.07198     275.1092    -32.40435     31.72844    48.962783    40.176206 
31368000    273.89003    319.61074    295.94867    -32.53295    30.135615    23.662074    40.177238 
31372000    278.49129    322.72637    295.65578   -32.834899    30.841712    27.070591    40.176324 
31376000    266.40995    318.68884    252.48124   -31.810156     32.01085    66.207604    40.176292 
31380000    270.72407    315.44051    290.64327   -31.939331    30.392862    24.797237     40.17655 
31384000    274.87446    314.79326    290.08394   -32.379044    31.062896    24.709321    40.175163 
31388000    275.90743     329.6345    276.10783   -32.557704     31.77331    53.526671    40.175534 
31392000    282.48391    344.77919    301.83245   -33.668306    31.770242     42.94674    40.173951 
31396000    272.71475    318.46196    274.06803   -32.547557    31.585472    44.393934    40.174237 
31400000    277.63264    330.35497    305.67455    -33.57489    31.343951    24.680426    40.173609 
31404000    265.77665    313.85641    263.23663   -32.733915    32.073151    50.619787    40.173346 
31408000    275.21135    310.44458    290.92077   -32.817622    31.036074    19.523809    40.172755 
31412000    276.69019    330.32804    289.94941   -32.535837     30.37344    40.378632    40.173891 
31416000    274.47654    332.46711    260.88718   -33.142909    32.919544    71.579928     40.17362 
31420000    276.72854    322.39504    293.52005   -31.987449     31.55798    28.874988    40.173341 
31424000    269.20789     307.6958    273.97963   -31.398711    32.790817    33.716175    40.172403 
31428000    276.16539    319.79814    285.70192   -32.810598    31.789843    34.096219    40.172312 
31432000    269.05562     318.4959     272.2794   -32.436008    32.826487    46.216505    40.171868 
31436000     278.9431    331.26685    288.45527    -33.31393    32.155662     42.81158    40.172867 
31440000    272.88212     296.2673    292.15888   -30.964548    32.575497    4.1084171    40.171697 
31444000    271.20571    323.92633    276.61401   -32.826088    32.756396     47.31232    40.171427 
31448000     270.7476    315.77677    277.41082   -33.003075    32.198954     38.36595    40.172373 
31452000     274.8201     349.3748    268.11809   -34.769895    32.935154    81.256708    40.172895 
31456000    269.55577     303.9082    273.05703   -32.539757    33.002538    30.851169    40.172188 
31460000    267.73527     302.4077    268.27874   -32.738931    33.336967    34.128957    40.173361 
31464000    271.17176    309.89361    269.77597   -32.917629    32.960886    40.117638    40.172183 
31468000    266.12497    327.14479    248.29865   -33.428354    33.723385    78.846137    40.173079 
31472000    287.57898    352.25407    285.00733   -35.439572    31.445863     67.24674    40.174811 
31476000    284.33844    322.28021    293.56539   -33.590902    30.420095    28.714821    40.174164 
31480000     277.1497    306.92404    290.53937   -32.642546    30.957869    16.384666    40.174194 
31484000    284.47703    328.43331    276.99244    -34.43935    32.161154    51.440873    40.173163 
31488000    272.84645    305.88148    283.50336   -31.769128    31.090984    22.378115    40.173588 
31492000    276.30331    309.83301    290.15164   -33.282841     30.77254    19.681375    40.172653 
31496000     280.1093    320.49694    286.24027   -32.755722    31.159545    34.256669     40.17393 
31500000    287.12135    347.52046    299.28333   -33.763593    31.167428    48.237137     40.17431 
31504000    283.33581     319.5345    285.95394   -33.397704    31.091591    33.580562    40.174824 
31508000    284.62462    333.13532    282.16445   -34.442431    31.348511    50.970871    40.173529 
31512000    276.44671    299.38566    294.57001   -33.404926    30.932343    4.8156561    40.173735 
31516000    281.90243    324.10467    289.45971    -34.52736    32.055792    34.644952    40.173223 
31520000    289.92796    321.19504    312.68725   -34.705832    30.545177    8.5077888    40.173199 
31524000    281.48597    333.81587    285.14463   -35.612674     32.08468    48.671236    40.173706 
31528000    277.24936    309.81205    296.98567   -34.661664    30.889554    12.826383    40.172261 
31532000    280.88432    331.29811    279.32247   -34.706964    32.936974    51.975644    40.172844 
31536000    266.28556    301.78777    263.88661   -32.947124    33.717408     37.90116      40.1723 
31540000    275.22031    310.65757    288.65169   -33.458639    32.096538    22.005882    40.171978 
31544000    275.62613    325.50484    284.21231   -32.420183    32.870468    41.292524    40.171566 
31548000    270.97632     316.9026    274.02463   -33.166042    33.504214    42.877965     40.17209 
31552000    273.62058    325.28788     265.6142   -33.809606    33.317579     59.67368     40.17113 
31556000    276.20691    330.34264    275.16153    -34.49784    32.573345    55.181114    40.171523 
31560000    285.38424     338.2663    293.71117    -35.49879    31.730221    44.555128     40.17129 
31564000    274.00757    319.16045    288.59795   -33.743878    31.231133    30.562497     40.17337 
31568000    283.68219    332.06761    302.71803     -35.2333    31.429433     29.34958    40.173687 
31572000    275.67766    327.19883     280.9216   -35.282017    31.929946    46.277235    40.173494 
31576000    271.66101    321.42544    272.02897   -32.900699    32.479533    49.396469    40.173013 
31580000    275.87672    307.21172    274.32679   -32.340389    33.493474    32.884932    40.172433 
31584000    276.07351    325.89764    278.96133   -34.377229    32.646941    46.936306    40.173662 
31588000    273.60961    325.21039    264.50308    -33.40057    33.242171    60.707307    40.173083 
31592000    270.75379    319.55686    268.71076   -32.871587    33.801878    50.846095      40.1734 
31596000    272.22065    326.10423    269.05294   -33.552396    33.508128     57.05129    40.172854 
31600000    278.25599    319.98089    275.98162   -32.048814    33.683908    43.999277     40.17341 
31604000    279.10023    330.31329    288.96309   -33.551439    31.341676    41.350204    40.173336 
31608000    275.83356    323.38264    288.47801   -33.694936    30.927333    34.904635    40.172514 
31612000     276.2029    328.81994    284.55882   -33.520041    31.862763    44.261126    40.173131 
31616000      282.136    336.05004     290.2134   -34.139799    31.471586    45.836637    40.173324 
31620000    281.12218    336.07514    284.75146   -35.346325    31.717686    51.323674    40.172761 
31624000    271.73367    325.05226    266.03878   -33.237181    31.980263    59.013484    40.174996 
31628000    277.79853    325.40851    298.79611   -33.822773    31.828624    26.612396    40.174671 
31632000    282.52245    338.16092    299.87838   -33.672135     30.03857    38.282535     40.17495 
31636000     272.1389    318.53256     277.1353   -33.858017    31.224048     41.39726    40.175426 
31640000     267.5676    331.44382     273.4229   -33.778642    31.879064    58.020922    40.176534 
31644000    278.32677    323.42587    284.54502   -33.544397    31.960477    38.880857    40.177097 
31648000    285.95661    334.21866    293.47532   -33.899499    30.724224    40.743341    40.177038 
31652000    284.57479    339.86071     286.3673   -34.881037    31.633268     53.49341    40.177245 
31656000    276.73549    324.84399    259.82335   -33.899064    32.524311    65.020637    40.176617 
31660000     291.3454     309.6573    308.49921   -32.393909    30.611958    1.1580809    40.178672 
31664000    268.34345    345.45882    250.25111    -35.20049    34.395737    95.207714    40.177142 
31668000    285.37716    337.72444    282.07218   -34.989161    31.887146    55.652256    40.177674 
31672000    275.02993    314.82181     291.7051   -33.496453    30.189582    23.116718    40.178087 
31676000    275.91149     322.2195     271.7467   -32.161463    31.404097    50.472796    40.178757 
31680000    275.89648    319.81009    277.86815   -32.822952    31.403763    41.941947    40.179187 
31684000    273.72186    331.54183     267.1885     -33.9542    32.408701    64.353327    40.179898 
31688000    277.52982    317.02103    287.89409   -32.628066    31.973502    29.126939    40.178923 
31692000     273.2338    320.99004    276.01063   -32.813492     31.65914    44.979411    40.179146 
31696000    272.66711    312.54705    288.44306   -32.631501    31.854946    24.103994    40.179052 
31700000    283.39382    312.99256    312.54433   -32.927755    30.970923   0.44823311    40.177732 
31704000    282.29672    314.95487    300.88957    -31.88938      31.3993    14.065297    40.176042 
31708000    277.36456    302.63473    300.54179    -31.05304     31.18245    2.0929429    40.175086 
31712000    278.42823    323.03457    277.39314   -33.171899    31.398053    45.641433     40.17512 
31716000    275.17889     309.6705    274.65855   -31.674969    32.605266    35.011952    40.175163 
31720000    277.17987    328.53482    282.64018   -33.509087    31.658352    45.894642    40.175083 
31724000    284.46677    356.03192    274.89057   -35.228008    31.419855    81.141351    40.175287 
31728000    272.39998     307.2186    268.03364   -32.630209     32.37315    39.184961    40.176208 
31732000    274.68038    322.24906    268.79418   -33.652078    32.453737    53.454883    40.175381 
31736000    275.36926    313.76433    294.01856   -33.836565    31.731422    19.745772    40.173304 
31740000    281.22319    322.61688    279.68366   -33.815823      32.7162     42.93322    40.173498 
31744000    283.05931    327.84231    267.83817   -33.618044    32.457376    60.004138    40.171993 
31748000    274.83596     329.9384    273.46973   -34.987739    32.435871    56.468664    40.172463 
31752000    270.97368    298.74595    273.96037   -32.102646    32.705929    24.785575    40.170291 
31756000    270.34922    309.41076    285.30471   -32.611497    30.844646    24.106055    40.169433 
31760000    282.71729    333.40844    276.48326   -34.721917     31.66914    56.925177     40.16944 
31764000    282.73363     346.6746    268.48776   -35.178834    32.579475    78.186837    40.169889 
31768000    287.91553    335.43462    293.73276   -34.161203    31.743845    41.701856    40.169632 
31772000    276.55765    323.51273    273.84843   -34.022184    32.275993    49.664304    40.170711 
31776000    281.15054    345.30813    281.73132   -33.994124    32.920775    63.576807     40.17112 
31780000    278.28134    331.10021    278.08118   -33.697748    32.502135    53.019024    40.171505 
31784000    276.47137    315.45845    284.63549   -32.227387    31.481148    30.822956    40.171865 
31788000    273.12702    309.24521    277.07892   -33.269655    31.822323    32.166284    40.172294 
31792000    268.89932    313.32689    291.55983   -33.239388    32.646298    21.767059    40.171451 
31796000    271.66897    315.04614    279.66032   -33.560078    32.984147    35.385828    40.170643 
31800000    280.95698    340.93197      277.213   -34.080685    32.668719    63.718966    40.169855 
31804000    277.71428    324.91231    276.74526    -33.07547    32.748988    48.167053     40.17033 
31808000    281.62504    347.60508    272.47266   -34.654608    33.153398    75.132424    40.171527 
31812000    278.23551    320.21723    270.91524   -33.835734    32.359928     49.30199    40.171982 
31816000    282.34768    340.97323    274.82701   -34.075104    32.262079    66.146218    40.172744 
31820000    271.35493    305.72002    275.32067   -33.852375    32.018662    30.399355    40.171731 
31824000    281.39266    309.59816    286.86759   -34.252975    30.928371    22.730564    40.173073 
31828000    273.38458    309.21447    282.96737   -33.996909    32.334524    26.247099    40.171808 
31832000    280.95896    330.10545    279.52748   -35.251229    31.742108    50.577969    40.172359 
31836000     277.1692    331.81878    274.96256   -35.219052    32.189476    56.856226    40.172914 
31840000    282.90105    329.48331    277.90025   -35.243477    32.245102    51.583061    40.173795 
31844000    276.95916    336.35636    278.07569   -35.035986    31.259193    58.280664    40.172677 
31848000    281.98057    323.99638    288.74019   -34.360017    31.450363    35.256182    40.172726 
31852000    275.21584    323.32843    274.44813   -34.806018    32.494155    48.880306    40.172139 
31856000    278.46982    303.21651    313.81723    -35.74138    30.854206   -10.600719     40.17108 
31860000    275.80557    315.44729    284.87119   -34.445811    31.461972    30.576098    40.172303 
31864000    270.60775    324.71057    258.53807   -34.228654    33.643386    66.172506     40.17244 
31868000    290.04909    341.90998    283.62618   -35.878007     32.33401    58.283807    40.172102 
31872000    274.26577    327.97255    284.27958   -35.233458    31.559073    43.692968    40.172023 
31876000    282.47447    331.08083    285.43115   -35.457201    32.444441    45.649676    40.171492 
31880000    285.17196     328.5944     296.9699   -34.699174    31.042744    31.624498    40.171057 
31884000    279.77233    331.13101    278.44425   -34.577167     32.38213    52.686762    40.171318 
31888000    284.05138    335.14857    292.73026   -35.683246    31.612311    42.418308    40.171597 
31892000    288.74347    340.26924    304.33654   -36.203931     31.21332    35.932702       40.172 
31896000     286.0725    328.17996    300.53744   -35.464586     31.77181    27.642527    40.171509 
31900000    278.64543    319.50451    280.32779   -35.938433    30.910335    39.176725     40.17048 
31904000    276.01721    320.20102    276.10785   -35.588244    31.376487     44.09317    40.169677 
31908000    283.41774    338.92351    298.27187   -35.861996    31.923723    40.651633    40.170369 
31912000    263.47792    320.43375    242.57608   -34.027282     33.81749    77.857671     40.16841 
31916000    282.55954    330.03279    281.04523   -34.675641    31.361108    48.987563     40.16948 
31920000    279.89708    332.35858    296.37054    -34.03016     31.78368    35.988038    40.168771 
31924000    275.93221    315.41259    285.26865   -33.894782    32.619974    30.143943    40.169236 
31928000    278.45325    317.73284    283.38965   -33.100007     32.69917    34.343196    40.168813 
31932000    281.36967    323.63608    282.39446   -34.012706    33.462618    41.241621    40.170953 
31936000    278.32356    321.73872    284.68578   -34.167067    32.991903    37.052942    40.171265 
31940000    276.63761     319.1981    270.32917   -34.898855    32.926036    48.868934    40.172441 
31944000    283.72483     323.5325     297.8003   -34.236621    32.579374    25.732203    40.171479 
31948000    273.90245    315.71819     283.2379   -33.398892    32.008203    32.480293    40.171038 
31952000    273.03205    312.91077    292.65298   -33.290444    31.624325    20.257788    40.169855 
31956000    277.14773    314.68176    292.23904   -33.092188    31.292064    22.442715     40.16886 
31960000    273.12138     317.4439    253.18684   -33.396585    33.698874    64.257064    40.167954 
31964000      274.095    308.81641    283.26586   -33.262094     30.88162    25.550549    40.168867 
31968000     278.3578    327.27813    277.31958   -34.168274    30.351828    49.958553      40.1701 
31972000    284.62585     332.0982    276.93459    -34.00929    31.468525    55.163611    40.171199 
31976000    272.78893    317.43682    278.66648   -32.266764    31.626707    38.770333     40.17089 
31980000    276.26348    345.01784    263.30085   -34.100237     32.66743     81.71699    40.170746 
31984000    273.88575    303.58247    283.82591   -31.861351    31.539771    19.756562    40.170619 
31988000    278.14629    311.76648    284.08784   -33.365285    30.983702    27.678642    40.169078 
31992000    284.30157    335.17272    281.78571   -34.440851    32.420571    53.387016    40.168816 
31996000    271.99703    298.00045    293.79757   -31.820787    30.729758    4.2028842    40.170197 
32000000    280.32039    345.97709    292.33917   -33.556491     31.62819    53.637926    40.169899 
32004000    275.49282    310.21381    290.63766   -31.309462     31.02197     19.57615    40.169302 
32008000    270.11917    322.66553    276.47696   -32.697034    33.573215    46.188573    40.170132 
32012000    279.62298    336.63312    290.29281    -33.42806    32.144058    46.340305    40.170321 
32016000    270.94421    323.21188    282.20055   -34.286874    33.735132    41.011331    40.169532 
32020000    282.31656    329.82037    282.60639   -33.917925    32.854495    47.213977    40.170805 
32024000    275.90584    324.58235    281.56802   -35.155253    32.924158    43.014336    40.170463 
32028000    275.10668    313.92678    292.02795   -32.850473    31.224562     21.89883    40.169488 
32032000    282.87053    324.64167    295.27935   -34.128342    32.373652    29.362323    40.169426 
32036000    263.43138    292.56179    283.82934   -32.261705    32.358865     8.732445     40.16948 
32040000    276.06617    316.84086    286.74782   -32.907193    32.274889    30.093045    40.169106 
32044000    270.85875    303.06569    269.85475    -31.80863    32.428673    33.210941    40.169092 
32048000    272.36651    319.91128    290.90131   -31.619424    32.857111    29.009976    40.168214 
32052000    278.12571    337.49025    284.35477   -32.861758     32.17342    53.135477    40.166626 
32056000    280.96732    339.08805    269.64072   -33.969526     32.94614    69.447329    40.167151 
32060000    272.63079    324.70556     293.4739   -32.131773    32.369737    31.231654    40.164945 
32064000    283.75986    338.08226    286.87297   -33.952902    31.865095    51.209286    40.165009 
32068000     276.7854    335.48305    281.10741   -33.538768    32.885817    54.375645    40.163352 
32072000    264.35987    295.40148    295.46604   -31.831934    31.175378 -0.064556949    40.162658 
32076000    267.05343    319.43239    279.42292   -32.223889    32.198934    40.009471    40.162531 
32080000    278.52805    323.73729    294.00503   -32.416002    31.110359    29.732261    40.162893 
32084000    273.60393    323.61677    280.69848   -32.863738    32.553608    42.918287    40.162135 
32088000    277.28659    318.63303    289.29262   -31.379994    32.279772    29.340404    40.162571 
32092000    276.15505    322.86805    303.04945   -32.622684       31.715      19.8186    40.161947 
32096000    270.29574     303.7913    268.31283   -32.066342    32.896608    35.478474     40.16015 
32100000    276.41584    339.43223    287.11973   -33.181474    31.876913      52.3125    40.159946 
32104000    280.93834    349.00564      285.376   -32.919954    33.697775    63.629634    40.160967 
32108000    281.29481    335.87187     304.2382   -33.410012    32.288214     31.63367    40.161057 
32112000    271.10015    329.10448    288.53695   -33.442949    32.815852    40.567526    40.160037 
32116000    281.69564    334.85292    304.36762   -33.298566    31.779671    30.485295    40.159836 
32120000     272.4808    316.99438     276.3867   -32.941863    32.172239    40.607687    40.160227 
32124000    264.75523    283.28803    285.70286   -30.068919    32.384957   -2.4148314    40.158456 
32128000    268.28894    313.73974    266.00564   -33.152978    34.377232    47.734104    40.159049 
32132000    278.48332    314.99242    295.16297   -33.007302    31.974971    19.829449    40.157675 
32136000    276.83571    310.07718    295.16019   -32.701278    31.889911    14.916994    40.158825 
32140000    280.55954    346.95271    273.75613   -32.900356    32.149543    73.196578    40.159401 
32144000    278.22953    329.83464    309.40107   -34.223202    31.675425    20.433567    40.158486 
32148000    281.04367    341.32823     296.0409    -32.80066    32.199392    45.287333    40.158813 
32152000    269.18474    334.16901    252.64538   -33.936855    35.301274    81.523626    40.159044 
32156000    280.12586    345.48388    292.16514    -34.18723    34.319437    53.318732    40.159103 
32160000    271.83103     326.6496     285.6556   -33.401739    32.855492    40.994004    40.159315 
32164000    262.56689    305.26757    278.71389   -32.389426     33.73645     26.55368    40.159734 
32168000     262.0911     281.2642    269.81366   -32.035374    34.468133    11.450542    40.159587 
32172000    266.37403     313.5698    276.22264   -33.455789    33.220956    37.347166    40.160326 
32176000    275.48044    311.11754    287.44194   -31.981894    32.527223      23.6756    40.160621 
32180000    277.04933    324.91529     279.0077   -33.201447    33.313134    45.907588    40.160446 
32184000    272.70384    331.85982    275.35029   -33.393605    33.683963     56.50953    40.160209 
32188000    279.85414    343.57677    289.60381   -34.143114    32.476943    53.972964    40.161443 
32192000    276.56376    329.18433    285.64924   -33.589129    32.186292    43.535086    40.160707 
32196000    269.76167    308.41431    269.45181   -33.864392    33.675315    38.962493     40.16003 
32200000    276.96624    319.70455    284.87889   -34.471172    33.074411    34.825666    40.159563 
32204000    273.56515    326.54975    276.67331   -34.520147    33.508971    49.876435    40.159035 
32208000    272.59982      304.416    269.05035   -32.821671    33.065673    35.365648    40.158373 
32212000    277.48814    313.01797    286.95774   -32.631852     32.52778    26.060233    40.158746 
32216000    267.55543    316.74521    289.20385    -34.13485    32.619075     27.54136    40.158572 
32220000     270.4269    305.25271    288.54106   -31.447186    32.469393    16.711651     40.15769 
32224000    277.83316    335.17581     273.9357   -33.929302    33.085553    61.240106    40.157804 
32228000     279.9619    326.22445    294.03637   -32.908198    33.191822    32.188074    40.158858 
32232000    273.00621    310.10754    283.81935   -32.808516    31.346455    26.288187    40.157439 
32236000    265.66773    312.08196    267.15292   -32.774944    33.652998    44.929041    40.156958 
32240000    278.06688    335.95978    291.91653    -34.20357    32.468907    44.043244      40.1572 
32244000     269.4945    309.87186    274.40744   -32.927951    32.840799    35.464423    40.155878 
32248000     269.8336     306.4247    291.73411   -33.224645    32.954509    14.690587    40.155339 
32252000    267.61549    321.49435    279.56475   -33.447054    31.734566    41.929602    40.156216 
32256000    272.79337    320.61758    269.45658   -34.186829    32.774082    51.160996     40.15621 
32260000    272.49197    312.89063    273.35507   -33.303122    32.910479    39.535564    40.155429 
32264000    280.09691    337.34776    267.81765   -35.399942    33.727863    69.530109    40.154359 
32268000    275.19061     312.7982    286.62965   -34.475514    32.048036    26.168551    40.154949 
32272000    273.72141    302.65724    293.98532   -32.996826    32.175461    8.6719231    40.154539 
32276000    278.18502    339.93208    267.80296   -34.230893    32.374972    72.129116    40.153804 
32280000    281.68529    329.38532    281.18198   -35.188092    32.526436     48.20334    40.154304 
32284000     275.3584    329.26359    273.83741   -33.592463    32.876754    55.426179    40.154665 
32288000     271.9855    315.52996    280.41587   -32.937164    33.201193    35.114085    40.154836 
32292000    276.17652    314.51415    280.72981   -34.379091    33.303766    33.784339     40.15551 
32296000    264.28039    280.24957    260.20391   -33.201834    32.993228    20.045655    40.155761 
32300000    279.59234    321.48118    295.89759    -34.27057    31.745188    25.583585    40.154732 
32304000    276.02944    296.04145    280.23379   -33.617311     31.92031    15.807657    40.154478 
32308000    277.50687    327.74707     289.0633   -35.593858    32.479311    38.683771    40.155057 
32312000      277.789    343.91958     275.6787   -35.529492    32.949368    68.240882    40.154915 
32316000    279.29662     310.1501    286.95799   -33.906739    32.271075    23.192114     40.15455 
32320000    278.05243    329.37403    286.20914   -33.918943    31.956763    43.164885    40.153517 
32324000    278.02892    316.32606    278.36559   -34.382904    32.479392    37.960471    40.153169 
32328000     280.1584     339.3099    289.67107   -34.769803    33.245743    49.638831    40.151684 
32332000    271.64521    308.68337    275.40848   -33.956121    34.428153    33.274896    40.151864 
32336000    279.82523    326.03741    279.36084   -34.123538    32.864924    46.676567    40.151428 
32340000    284.80111    346.32489    272.57585   -35.395623    32.246352    73.749038    40.152048 
32344000    278.93797    338.14866    273.70548   -35.624651    32.711145    64.443187     40.15267 
32348000    274.66195    308.02288    284.04122   -35.254203     33.36026    23.981665    40.151233 
32352000    280.59166    342.24197    264.04363   -35.740722    34.325849     78.19834    40.151603 
32356000    277.21074    311.96152    290.18325   -34.581833     31.95034    21.778267    40.151362 
32360000    269.41071    302.00625    268.17111   -33.755541    33.076739    33.835131    40.150575 
32364000    280.77463    319.74848    287.13516   -34.071893    32.698025    32.613319    40.150286 
32368000    278.34632    306.79018    285.54138   -32.849016    31.636476    21.248799    40.149679 
32372000    278.28966    325.40898    287.93429   -34.058806    31.166873    37.474689    40.147983 
32376000    278.17443    322.77697    282.89362   -33.231102     32.02812    39.883354    40.148938 
32380000    277.68868    333.35946     263.0913   -35.017345    32.938848    70.268167     40.15045 
32384000    264.54994     300.8649    276.62093   -32.733086    34.011302    24.243976    40.149995 
32388000    288.76921    331.20767    299.17207   -34.729272    32.180273    32.035598    40.148788 
32392000    268.61942    301.35757     266.0601   -33.284927    32.914784    35.297474    40.148806 
32396000    275.89841    316.54386    277.60032   -34.676692    32.846683    38.943542    40.148674 
32400000    282.92937    323.11153    296.03401   -34.936388    31.247442    27.077521    40.150425 
32404000    284.21181    346.33337     289.9954   -35.547923    31.370536    56.337972    40.149932 
32408000      282.187    317.49234    298.50364   -33.831946    31.971156    18.988697    40.148123 
32412000    280.48354    342.01007     289.6114   -36.699487    32.045412    52.398675    40.148704 
32416000    281.72343     325.2766    281.79752   -34.969756    32.500637    43.479074    40.149481 
32420000    287.77602    347.78976    300.53312   -35.564263    31.699519    47.256636    40.149252 
32424000    278.35829    326.00334    273.16825   -34.501858     34.00798    52.835092    40.149537 
32428000    272.83382    313.15464    273.60439   -34.797072    34.547738     39.55025    40.150459 
32432000    278.05467    310.72728    289.58493     -35.0723    32.526958    21.142355     40.15217 
32436000    267.59007    311.47643     264.9037   -34.534146    34.308066    46.572732    40.152376 
32440000    283.49316    331.90483     302.7094   -36.325163    33.171932    29.195433    40.152482 
32444000    273.31253    330.65491    261.16387   -35.226205    35.142205    69.491036    40.152829 
32448000    287.71922    349.19196    305.98602   -36.138943    33.221298    43.205942    40.152653 
32452000     270.9372    300.02714     278.0891   -34.243283    35.016795     21.93804      40.1509 
32456000    276.42628    338.15593    264.30524   -36.023267    35.645719     73.85069    40.152062 
32460000    268.35166    324.92832    272.06274   -35.355876    35.599173    52.865579    40.151687 
32464000    271.32569     308.0485    291.92302   -34.698152    34.124076    16.125478    40.152916 
32468000    287.16559    359.98476    284.12307   -36.717019      34.6015    75.861691    40.154185 
32472000    280.38517    330.33017    279.32797   -34.538877    33.659343    51.002201    40.155566 
32476000    274.92952    306.65573    286.26771    -33.86419    33.320954     20.38802    40.155777 
32480000    278.11375    321.77972    301.41069   -34.462273    34.716355    20.369028    40.155394 
32484000    276.64029    338.07823      267.244   -36.084889    35.264596    70.834236    40.156781 
32488000    279.56098    334.16723    290.17619   -34.846309     34.88279    43.991044    40.156904 
32492000    272.51041     334.8917    283.04159   -35.378113    35.079311     51.85011    40.156669 
32496000    274.70627    328.09279    285.87928   -35.917379    34.084249    42.213518    40.156305 
32500000    274.53786    321.39785    282.28112   -35.953221    33.916837    39.116733    40.156374 
32504000    272.19904    307.42783    267.10231   -36.044288    35.177763    40.325525    40.156072 
32508000    281.62549    337.24781    285.08819   -36.038721    34.568765    52.159618     40.15546 
32512000    273.07576    306.76319    293.58416   -35.541697      33.7218    13.179038    40.154886 
32516000    273.15952    306.91331    296.68442   -34.344216    34.033446    10.228889    40.155107 
32520000     274.7309    323.91293    290.19864   -34.843578    35.114742    33.714289    40.154409 
32524000     272.1489    319.52932    277.27376   -34.565398    34.635309    42.255563    40.154713 
32528000    269.35605     302.3358    274.18346   -34.278915    34.760171    28.152342    40.154151 
32532000    281.28492    317.65604    306.10152   -34.377863    33.348281    11.554516    40.154268 
32536000    279.56604     319.9988    291.77652    -34.67008    33.346479    28.222278    40.155114 
32540000    278.68656    332.18304    272.06636    -36.41176     35.15926    60.116682    40.155177 
32544000    276.26366    335.21808    280.32804   -36.344977    34.459179    54.890034    40.154871 
32548000    283.84518    336.55003    304.12588   -37.297043    32.214014    32.424154    40.155295 
32552000    271.92242    301.47136    278.67474   -35.436359    33.741898    22.796617    40.154392 
32556000    270.37487     328.5361    260.51691   -37.230647    34.417497     68.01919    40.154766 
32560000    276.03184    319.19044    284.36666   -36.092087    33.255063     34.82378    40.153187 
32564000    277.11461    339.22779    267.91747   -36.737687     34.37691    71.310321    40.154447 
32568000    277.28111     323.0533    291.61133    -35.44921    34.028149    31.441975    40.155015 
32572000    267.67986    311.42934    277.04849   -34.806872     35.95838    34.380853     40.15426 
32576000    270.65985    305.92298     275.2287   -35.360151    35.265136     30.69428    40.153343 
32580000    258.38063    295.31366    271.71125   -34.594158    36.062589     23.60241      40.1532 
32584000      269.775    307.35044    288.23237    -34.35104    35.055218    19.118078    40.153375 
32588000    275.82937    332.75982    278.75087   -35.125453    35.143959    54.008953    40.154006 
32592000    277.22792    322.63258    286.04886   -35.846843    34.238674    36.583717    40.151301 
32596000    269.76166    312.99475    278.12208   -34.563227    34.713482    34.872674    40.149577 
32600000    279.24447    311.02169    292.23836   -34.436681    33.983432     18.78333    40.149984 
32604000    274.82791    309.38143    280.40393   -34.475695    34.621856    28.977506    40.149674 
32608000    272.21308    320.37384    261.48919   -35.579759    35.307884    58.884649    40.149854 
32612000    281.60185    314.55718     295.0135   -35.445111    34.471911    19.543672    40.148958 
32616000    269.66569    318.63834    269.59797   -35.965296    36.265285    49.040371    40.149177 
32620000    268.98666    317.89834    282.20361   -35.430285    34.060539    35.694735    40.149521 
32624000    280.03335    314.62376    304.09002   -34.958055    33.485304    10.533732    40.149724 
32628000    268.81418    329.25023    278.10546   -34.748097    34.110054    51.144775    40.148772 
32632000    268.87463    306.68295    277.82911    -34.16039    34.958142    28.853846    40.147952 
32636000     275.4281    316.32153    270.20292   -34.743992    36.006991    46.118608    40.147995 
32640000     278.0147    334.08989    278.88187     -34.5787     35.01685    55.208026    40.147853 
32644000    260.79194    313.32633     257.4601   -35.614176    35.373172    55.866234    40.146834 
32648000    275.77501    323.45708     284.9755   -35.845623    33.865835    38.481572    40.146615 
32652000    272.28575    331.68287    258.54475   -35.678497     35.37437    73.138119    40.147389 
32656000    275.21447    326.89191    289.63046   -34.930445    35.396214    37.261446    40.148568 
32660000    259.72001    301.46336    246.76856   -33.747785    37.082949    54.694801    40.149601 
32664000    275.93108    316.06135    275.83418   -34.568426    34.660617    40.227173    40.149838 
32668000    265.55125    298.82062    280.78498   -34.059685    34.460444    18.035648    40.148542 
32672000     267.7505    319.90898    264.62745   -36.059485    34.853247    55.281534    40.148586 
32676000    267.83196    308.13685    263.69415   -34.724426    35.577613    44.442697    40.147988 
32680000    273.43082    320.34429    275.01261     -35.8141    33.972616     45.33168    40.148199 
32684000    274.88802    314.66278    267.72589   -34.469185    34.469339    46.936889     40.14789 
32688000    273.43061    307.71708    305.83295   -33.804417    33.260828    1.8841288    40.146936 
32692000    267.10902    327.68132    267.16831    -36.73243    34.632975    60.513013    40.147135 
32696000    271.22887     328.6175    275.30671   -36.793327    34.966234    53.310793    40.148122 
32700000     273.1921     303.6022    272.49045   -34.590012    35.335341    31.111745    40.148734 
32704000    272.88742    334.83398    252.55261   -37.138136    36.165777    82.281366    40.148369 
32708000     277.7284    323.87113    269.61888   -36.658243    34.619263    54.252247    40.148482 
32712000    271.11697     302.4974    273.25396   -35.740193    35.295928    29.243441    40.146475 
32716000    276.84165    308.28755    309.76186   -36.352011     33.47911   -1.4743176    40.146018 
32720000     275.3052    325.77391     279.5509   -36.238837    34.839008    46.223005    40.146057 
32724000    269.18244    307.14542    267.53645   -36.270055    35.326064    39.608975    40.145298 
32728000    281.13716    327.31297    277.91275   -37.283495    34.846443    49.400221    40.145286 
32732000    281.92672    314.09339     276.1876   -37.904536    35.058546    37.905796    40.145962 
32736000    282.34104    326.87694    290.16677   -37.447822    34.579707    36.710168    40.146818 
32740000    267.44837    302.34007    262.70295   -36.439836    35.362489    39.637121    40.148572 
32744000    281.31524    328.70415    282.92961   -36.833917    35.341419    45.774545    40.148843 
32748000    273.62144    309.60413    264.35481   -36.331736    36.459354    45.249315    40.148934 
32752000    274.58059    310.32477    289.15257   -36.404503    34.628108    21.172203    40.148395 
32756000    281.40331    315.67901    287.61718   -37.227252     33.77734    28.061823    40.148046 
32760000    272.11909    309.18846    291.53236   -35.160356     34.70337    17.656104    40.147314 
32764000    282.12081    334.76192    311.88581   -36.901945    33.925134     22.87611     40.14764 
32768000     280.2829    317.20255    303.35496   -35.121144    34.164698    13.847588    40.147575 
32772000    271.15773    288.80155    312.10668   -33.453412    32.869641   -23.305132    40.147131 
32776000    275.98782    320.36632    286.91068    -36.06246    34.257053    33.455639    40.147364 
32780000    268.96074    322.28771    285.86837   -37.184933    35.264158    36.419336    40.148128 
32784000    276.67958    315.95231    297.98244   -35.565319    34.826291    17.969868    40.148285 
32788000    272.79944    302.65609    290.99862   -35.939737     34.77931    11.657472    40.147639 
32792000    277.45384    344.26697    277.11759   -38.190072    35.711213    67.149377    40.147463 
32796000    282.30775    342.89724    274.98604   -37.911925    34.228866      67.9112    40.147479 
32800000    280.73731    312.00817    296.49514   -36.419087    33.805091    15.513027    40.147703 
32804000    286.23445    342.17105     285.7915   -38.375515    35.437459    56.379551    40.147356 
32808000    274.66873    319.99865    273.66849   -36.591922    35.425862    46.330165    40.148318 
32812000    270.90251    318.83737    261.48372   -36.455752    36.830064    57.353651    40.147995 
32816000    283.62557    340.37131     299.7354   -38.160423    35.053063    40.635904    40.148487 
32820000    281.89067    328.99929    290.15836   -37.383221    34.760946    38.840926     40.14869 
32824000    281.06375    340.74342    275.36751   -37.059147    35.582334     65.37591    40.147989 
32828000    277.20675    295.72174    286.38136   -34.298272    34.709084    9.3403798     40.14755 
32832000    271.69418    324.83436    278.97714   -36.226513    36.040538    45.857221     40.14824 
32836000    280.31293     317.2932    286.71455   -36.098922    34.123289    30.578648    40.149482 
32840000    282.59077    328.38119    287.25496   -36.222676    34.200545    41.126224    40.148221 
32844000    282.35057    329.57497    289.78539   -38.639405    34.266122    39.789583    40.147921 
32848000    282.32793     302.9876    292.46636   -36.838519    33.468759    10.521237    40.149244 
32852000    268.85114    301.56022    259.25727   -37.115884    34.692789    42.302958     40.14945 
32856000    279.31443    318.22372    279.86726     -38.4638    34.707262    38.356462    40.148713 
32860000    284.05774    318.63006    290.06415   -37.472896    34.468624    28.565908    40.151511 
32864000     287.2917    331.88629    293.04553    -38.81053    33.867508    38.840751    40.151262 
32868000    270.55719    305.58627    284.64258   -37.306179    34.447296    20.943689    40.151655 
32872000    275.58533    319.38663    273.33167   -37.898618    33.896782    46.054959     40.15072 
32876000    279.53941    329.19822    289.22258   -37.655996    33.291469    39.975632     40.14935 
32880000    289.04924    310.60238    313.29405   -36.905371    32.570975   -2.6916655    40.149597 
32884000    277.20368    319.74861     283.2084    -37.64646    34.723376    36.540216    40.150195 
32888000    282.75096    323.75955    285.45809   -37.880214    33.634274    38.301455    40.149917 
32892000    279.28389      313.566    289.62406   -36.535758    32.516887    23.941933    40.151205 
32896000    279.35592    306.35239    285.03162   -37.073557    32.808777    21.320776    40.150354 
32900000    284.83031    339.81022    272.94111     -37.5768    34.298639     66.86911     40.15029 
32904000    277.84223     334.1965    259.12406   -37.913954    34.624714     75.07244    40.150238 
32908000    286.40554    320.68636    283.13584   -36.537765    33.677931    37.550518    40.150709 
32912000    282.63804    290.61925    295.20467   -37.274194    32.973375   -4.5854193     40.15006 
32916000    281.90113    334.66475    259.79099   -38.121414    34.394184    74.873759     40.15036 
32920000    278.99127    317.57762    265.85921    -37.17827    34.294974     51.71841    40.149511 
32924000    279.19349    320.97523    289.78538   -37.630665    33.312444     31.18985     40.14976 
32928000    290.69529    333.90462    285.34289   -37.512151    34.133868    48.561729    40.149753 
32932000     274.1393    308.99501    275.43114   -37.441394     34.82592    33.563871    40.149606 
32936000     282.4222    311.28475    262.63114   -37.495099    34.782325    48.653609    40.149979 
32940000    287.77509    325.34468    295.78992   -37.579123    33.382897    29.554754    40.149609 
32944000    294.48626    344.57361     301.7559   -38.429447    33.788841    42.817712     40.15026 
32948000    277.68556    296.85314    268.00119    -37.51477    34.220751    28.851946    40.149858 
32952000    290.91395    331.23807    300.87212   -38.117628    32.452412    30.365948    40.149728 
32956000    285.39163    322.03559     277.2839   -38.067147    34.387629    44.751692     40.14914 
32960000    277.15797     317.2732    277.42518   -37.824216    34.224772    39.848023     40.14903 
32964000    284.69174    310.75802    286.59346   -36.425531    33.163998     24.16456     40.14899 
32968000    282.53978    326.12861    291.75099   -37.321896    33.853817    34.377617     40.14984 
32972000    286.80799    328.88877    297.53134   -38.159408    32.894307    31.357426    40.148184 
32976000     281.5601    346.29479      263.982    -38.23789    34.442163    82.312792    40.148767 
32980000      278.566    330.20649    268.89904   -37.338413    34.476687    61.307448    40.149649 
32984000    284.29176    332.90953    281.04456   -37.855001    33.702543    51.864975    40.149174 
32988000    274.81645    335.16938     263.8657   -37.966439    34.928532    71.303679    40.149162 
32992000    282.29203    323.87002    267.12868   -37.665706    34.194172    56.741339    40.149913 
32996000    277.20237     321.8751    268.45029   -37.519851    34.415436    53.424818    40.149718 
33000000    279.25985    307.16429    279.40597   -36.350657    34.405698    27.758318    40.150645 
33004000      284.003    310.83577    279.88985   -37.019737    33.253496    30.945919    40.150321 
33008000    292.59891    336.21721    281.68287   -38.718115    33.981419    54.534341     40.15171 
33012000    273.71705    336.13122    268.00544   -38.391472    34.541564    68.125782     40.15187 
33016000    282.11769    309.40372    284.71484   -36.386865    33.944055     24.68888    40.152928 
33020000    273.61089    330.83734    273.53994   -37.974566    34.530886    57.297398     40.15286 
33024000    284.48541    334.55064    284.79317    -37.86526    33.039095    49.757475    40.154943 
33028000    288.22243    336.55953    284.92884   -38.368363     32.75299    51.630688    40.155761 
33032000    291.08614    329.20726    290.40983   -37.316751    32.323909    38.797432    40.155285 
33036000    281.99922    324.11458     284.2055   -38.596418    32.969197    39.909077     40.15575 
33040000    293.95846    336.28425    291.27075   -38.164442    32.731906    45.013491    40.156213 
33044000    278.62101    329.97928    267.68055   -38.242899    33.148002    62.298732    40.154211 
33048000    279.19269    320.50599    279.20556   -38.008634    33.688049    41.300433    40.153929 
33052000    272.19277    314.13452    278.54816   -37.113884    33.913712    35.586359    40.153447 
33056000    288.35348    333.57766    301.76271   -37.590083    31.750656    31.814947     40.15272 
33060000    284.69964    313.30353    290.33389   -36.880397    33.132514    22.969645    40.152004 
33064000     277.1876    316.74609    269.09654   -36.641468    33.133755     47.64955    40.152777 
33068000      287.599    327.62797    297.84674   -37.333605    33.109356    29.781235    40.152088 
33072000    280.46648     319.8527    287.83013   -36.355187    33.558965    32.022569    40.152185 
33076000    285.97683    353.90947    291.98484   -37.263273    33.390519    61.924628    40.151983 
33080000    268.54834    314.22141    270.98339   -35.525598    34.707144    43.238021    40.152076 
33084000    278.79676    327.25124     268.2884   -35.579461    35.535772    58.962843    40.152647 
33088000    277.56976    313.09579    269.98704   -35.495053    34.747744    43.108743    40.152905 
33092000    276.41766    323.40658    278.61765    -36.29138    35.038388    44.788933    40.153707 
33096000    273.27573    319.65551    260.42982   -36.331972    35.104085    59.225696    40.152626 
33100000    277.60263    328.31719    280.78809   -36.212352    35.161997    47.529094    40.152531 
33104000    277.52794    310.90306    284.65896   -34.727217    33.505876    26.244096    40.153456 
33108000    284.85884    301.29146    317.08488   -34.723269    31.963446   -15.793421    40.151939 
33112000    280.63885    334.26574    281.42412   -37.022623    34.008147    52.841623    40.151616 
33116000    277.53765     320.1316    271.99678   -37.146264    33.343513     48.13482    40.152421 
33120000    278.97634    314.12675    286.11932   -37.235351     33.51928    28.007427     40.15231 
33124000    281.03143    315.24891    283.51964   -37.695643     33.89318    31.729266    40.150959 
33128000    287.55121    352.41445    279.77441   -38.806833    32.660427    72.640044    40.149747 
33132000    282.32016     333.7488    276.04459   -37.614344    33.511273    57.704208    40.150116 
33136000    282.44479    304.89973     298.3845   -36.207429    32.402755    6.5152263    40.149625 
33140000    281.69186    345.10204    273.57948   -38.324822     34.37407     71.52256    40.149695 
33144000    283.00036    325.44991    284.24974   -37.634467    33.881993    41.200169     40.14932 
33148000    289.36557    338.92062    305.29853   -36.772521    31.903671    33.622085    40.150608 
33152000    280.34507    331.83311     260.6131   -36.646773    34.210609    71.220014    40.150395 
33156000    283.89647    324.34431    288.63004   -35.847705    32.901886    35.714265    40.150903 
33160000     275.5452    301.13144    294.40872   -36.222001    35.003683    6.7227159    40.150414 
33164000    276.43528    345.71692    281.77607   -37.304735    33.851461    63.940842    40.150766 
33168000    271.18012     297.9023    272.79056   -35.819078    34.755679    25.111735    40.150873 
33172000    271.88663    301.99833    276.94159   -36.456175    35.311509    25.056739    40.150325 
33176000    277.64174     305.2705    288.82296   -34.930291    34.487682    16.447538    40.150138 
33180000    279.73454    302.60038    287.46883   -34.581311    33.641299    15.131547    40.149052 
33184000    284.30337    331.28042    280.10743   -36.133445    33.906825    51.172996    40.149115 
33188000    279.63928    328.31881    278.00589   -35.732172    33.837485    50.312921    40.149606 
33192000    287.27986    337.16333    298.27022    -36.74663    31.924648    38.893114    40.149071 
33196000    284.83696    332.06773    269.13505   -36.630172    33.698616     62.93268    40.149959 
33200000    280.66993    333.39311    270.19528   -36.865842    34.670421    63.197829    40.149213 
33204000    273.53035    301.57938    282.61037   -35.266209     34.15588    18.969012    40.148667 
33208000    279.61412    301.72981    289.79135   -34.607218    33.892811    11.938461    40.148922 
33212000     278.0968    311.40083    281.80807   -36.485036     33.56524    29.592753    40.148519 
33216000    285.97817    342.48866    279.18476    -37.89395    33.825224    63.303906    40.148126 
33220000    283.05688    332.22826     266.6836   -36.273952    33.029041    65.544661    40.148318 
33224000    279.51183    312.71879    296.40346   -36.193211    32.930129     16.31533    40.148568 
33228000    277.75377    307.87616    291.06547   -34.699793    33.445366    16.810689    40.149133 
33232000    276.40063    340.08467    261.68277   -36.372443    35.617027    78.401898    40.149332 
33236000    279.03526    322.76436    264.18418   -34.646963    35.033882    58.580177    40.148848 
33240000    279.65682    303.97047    293.93128   -34.680667    33.926916    10.039186    40.149013 
33244000    282.42551    342.18499    291.49973   -36.150324    34.922932    50.685256    40.149188 
33248000    283.97583    353.35274    283.26742   -36.295733    34.903576    70.085318    40.148623 
33252000    281.74747    340.53788    270.55741   -37.000821    33.456828    69.980465    40.149381 
33256000    271.90048    314.53123    265.12389   -35.820884    35.229215    49.407338    40.148559 
33260000    277.99192    308.20424    287.97809   -35.233108    34.060138    20.226151    40.148837 
33264000    276.29314    349.00957    273.12457   -36.684684     34.44276    75.885002    40.148583 
33268000    271.63197    325.97986    284.73207   -36.043821    34.342538     41.24779     40.14778 
33272000    287.99161    359.08555    301.61451   -37.183544    33.763581     57.47104    40.148501 
33276000    274.09843    342.80417    261.67219   -35.160311    35.836969    81.131985     40.14814 
33280000    271.35536    317.25192    281.16656   -35.167015    33.382727    36.085367    40.149068 
33284000    280.29025    324.80085    292.29127   -35.573999    33.555612    32.509577    40.148143 
33288000    270.90386    322.82632    280.56812   -34.591414    34.362094    42.258198    40.147519 
33292000    273.44893    329.15086    283.71764   -34.295635    35.463249    45.433217    40.148002 
33296000    266.53221     312.2422    269.70045   -33.688715    35.338239    42.541749    40.147688 
33300000    269.16785    316.64651    267.91713   -34.510465    35.981572    48.729376    40.147021 
33304000    275.18361    308.57076    295.51854   -34.659545    33.522079    13.052218    40.147161 
33308000    273.73293     336.1888    269.23049   -35.402255    34.363952    66.958306    40.147478 
33312000    276.42495    346.73812     266.6048   -36.434016    34.896147    80.133322    40.147203 
33316000    272.83686    330.43431    264.92968   -35.448294     35.00207    65.504625    40.147922 
33320000    277.30677    331.64773    297.87816    -34.44458     34.15165    33.769572    40.146919 
33324000    282.92834    330.46457    316.13948   -35.055159    32.575627    14.325087     40.14586 
33328000    273.24128    323.19376    306.49048    -33.74013    33.524629    16.703285    40.144816 
33332000    261.07903    320.09402    283.97121   -33.485043    34.882449    36.122805    40.144315 
33336000    274.36151    334.70014    271.47474    -35.51998    34.719701    63.225396    40.144189 
33340000     262.1682    305.74995    264.17141   -34.052386    35.187973    41.578545    40.144403 
33344000    273.61665    319.68395     279.9331   -34.564829     34.95031    39.750847    40.145404 
33348000    273.34319     319.6835    285.56593   -34.251459    35.509851    34.117572    40.144767 
33352000    275.18578     328.7098    301.11638   -35.026926    35.137594    27.593415    40.144171 
33356000    269.70041     323.0979    278.81333   -34.653013    34.543612    44.284568    40.143253 
33360000    262.07354    310.73841     281.1554   -33.317481    35.179327    29.583007    40.143517 
33364000    269.09045    345.21847    272.69383   -34.350468    36.728095    72.524643    40.143476 
33368000    260.92278    295.57307    272.85498   -31.938202    36.951224    22.718097    40.143988 
33372000    266.62431    326.37633    275.09468   -35.240979    36.009858    51.281654    40.143279 
33376000    271.92968    328.13418    270.40769   -34.953382    36.119766    57.726497    40.142203 
33380000    262.25017    303.64666    255.53875   -34.137392    36.135963    48.107906    40.142832 
33384000    266.79234    325.30579    277.63124   -35.183909    34.520016    47.674547    40.142015 
33388000    271.22908    310.37871    289.76548   -35.630016    35.382486    20.613223    40.142383 
33392000    260.41937    314.38893    268.19789   -34.325351    36.266427    46.191038    40.142902 
33396000    270.33716    340.41964    271.25587   -34.091545    35.982216    69.163771    40.142142 
33400000    273.66713    326.64529    292.30852   -35.088563    36.373145    34.336763    40.142136 
33404000    277.05782    326.27321    282.10131   -35.382475    36.629812    44.171905    40.143717 
33408000    274.75018    323.81931    300.10397   -33.955329    34.869675    23.715341    40.144623 
33412000    273.58222    333.39655    274.72124    -33.90509    36.502608    58.675318     40.14564 
33416000    265.22369    320.39301    276.51896   -33.712437    36.334945    43.874047    40.145746 
33420000    279.74948    361.12229    282.03294   -36.238232    36.860766    79.089352    40.146358 
33424000     265.5796    328.43756    281.50648   -34.312289    37.497047    46.931084    40.146789 
33428000    271.68778     320.3896    281.09452    -34.79551    36.669113    39.295075    40.147306 
33432000    263.45425    318.84077    263.82635   -34.839069    37.593132    55.014422    40.148136 
33436000    262.49142    302.27013     271.9129    -33.41772    36.621285    30.357233    40.148365 
33440000    265.75116    325.95737    274.99942   -35.415687    37.108929    50.957953    40.147989 
33444000    259.50636    304.30787    268.30689     -34.0876     37.43642    36.000977    40.145914 
33448000    265.45286    323.58258    260.63423    -34.53096    37.321526    62.948346    40.146454 
33452000    267.15011    306.56735    281.20061   -34.379758    36.673287    25.366739    40.146286 
33456000    271.68776    333.47887    288.06007   -35.247659    36.197057    45.418797    40.145046 
33460000    265.13065    329.26497    281.66806   -36.058837    36.304638    47.596911    40.144446 
33464000    273.50619    322.60091    300.36825   -36.501568    36.550695    22.232663    40.146429 
33468000    272.18396    324.18846    285.50726   -37.138614    35.884238    38.681196    40.146252 
33472000    266.77238    305.64493     268.0337   -35.817849    35.991133    37.611237    40.145976 
33476000    276.57629    330.20865    284.25994    -36.71929    35.744494    45.948713    40.145392 
33480000    261.90288    328.51316    261.82705   -36.601825    36.753426    66.686109    40.144839 
33484000    274.17113     311.3536    293.04615   -35.538457    34.398636    18.307447    40.144983 
33488000    271.39825    329.13288    261.15338   -35.410484    35.937076      67.9795    40.145178 
33492000    272.21282     326.7746    258.46003   -36.800149     35.87914    68.314574    40.146389 
33496000    280.66806     318.5595    306.02319    -37.10053      34.9331    12.536316    40.147461 
33500000    263.89209    293.21484    291.16391   -35.225608     35.74146    2.0509303    40.146122 
33504000     273.2033    320.12552    282.54663   -35.969324    36.189225     37.57889     40.14632 
33508000    273.98848    321.13434    287.06082   -34.755618    35.010113    34.073517    40.144819 
33512000     274.7659    305.28374    305.56794     -34.0827    33.398346  -0.28420309    40.142576 
33516000    267.50645     328.4265     266.5554   -33.866827     35.89316    61.871098    40.142315 
33520000    279.25057    338.18545    286.69054   -34.557471    35.251984    51.494913    40.143132 
33524000    271.64148    314.32446    300.76205   -35.021318     34.55957    13.562408    40.142885 
33528000    276.51143    324.66776    279.88145   -35.413294    34.444876    44.786312    40.143276 
33532000    274.15752    308.12787    282.77545   -34.920599    34.655103    25.352429    40.143782 
33536000    278.30231    341.47148    295.40759   -37.015144    34.016052    46.063895    40.142956 
33540000    270.01327    316.78289    273.43909   -35.595546    36.391878    43.343794    40.144455 
33544000    271.16873    317.35223    271.11891   -36.432539    35.850223    46.233325    40.144624 
33548000    261.58838    294.26822    271.52076   -35.156685    36.414776     22.74746    40.144321 
33552000     266.3378    303.76205    273.08304   -35.529517    36.356807    30.679009    40.142977 
33556000    270.76461    327.68661    272.13689   -36.994407    36.080364    55.549721    40.142175 
33560000    274.21733    312.75492    294.20229   -36.857578    35.370379    18.552622    40.140294 
33564000    271.55673     320.9079    270.82568   -36.276761    36.789309     50.08222    40.140404 
33568000    278.46879    344.41591    284.77412   -37.980533    35.962226    59.641786    40.141575 
33572000    265.16462    334.56129    249.84908    -37.22268    37.366617    84.712203    40.142466 
33576000     273.6644    294.62009    300.79096   -36.348792    35.047378   -6.1708685    40.142653 
33580000    275.66709    338.16739    284.19105   -37.610562    35.176469    53.976338    40.143141 
33584000    262.78599    287.04303    273.13933   -35.549774    36.075338    13.903695     40.14265 
33588000    271.01785    305.49486    293.77139   -36.812668    35.636527    11.723474    40.142688 
33592000    274.54582    312.13969    299.65673   -36.767343    34.168754    12.482961    40.142674 
33596000    275.32025    327.20886    282.23679   -36.772505    37.034172    44.972064     40.14229 
33600000    280.92454    330.18087    281.44676   -36.788188    36.315364    48.734105    40.141221 
33601000    271.12994     315.1623     287.8982   -36.661671    35.919711    27.264104    40.141221 
Loop time of 21241.9 on 4 procs for 16000000 steps with 1498 atoms

Performance: 16.270 ns/day, 1.475 hours/ns, 753.227 timesteps/s
99.6% CPU use with 4 MPI tasks x no OpenMP threads

MPI task timing breakdown:
Section |  min time  |  avg time  |  max time  |%varavg| %total
---------------------------------------------------------------
Pair    | 10612      | 14660      | 18865      |3285.2 | 69.01
Bond    | 65.276     | 102.19     | 137.38     | 344.2 |  0.48
Neigh   | 116.98     | 117.01     | 117.04     |   0.2 |  0.55
Comm    | 261.82     | 4164.5     | 8208.7     |6035.6 | 19.61
Output  | 7.6152     | 7.6376     | 7.704      |   1.4 |  0.04
Modify  | 1123.8     | 1698.3     | 2302.7     |1029.6 |  8.00
Other   |            | 492.3      |            |       |  2.32

Nlocal:    374.5 ave 714 max 35 min
Histogram: 2 0 0 0 0 0 0 0 0 2
Nghost:    2378.25 ave 4269 max 496 min
Histogram: 2 0 0 0 0 0 0 0 0 2
Neighs:    13096.8 ave 25888 max 311 min
Histogram: 2 0 0 0 0 0 0 0 0 2

Total # of neighbors = 52387
Ave neighs/atom = 34.9713
Ave special neighs/atom = 0.518024
Neighbor list builds = 28485
Dangerous builds = 0

write_restart FINALCONFIG
WARNING: Using a manybody potential with bonds/angles/dihedrals and special_bond exclusions (../pair.cpp:218)
Neighbor list info ...
  update every 1 steps, delay 0 steps, check yes
  max neighbors/atom: 2000, page size: 100000
  master list distance cutoff = 16
  ghost atom cutoff = 16
  binsize = 8, bins = 3 3 23
  4 neighbor lists, perpetual/occasional/extra = 4 0 0
  (1) pair lj/cut, perpetual, skip from (4)
      attributes: half, newton on
      pair build: skip
      stencil: none
      bin: none
  (2) pair morse, perpetual, skip from (4)
      attributes: half, newton on
      pair build: skip
      stencil: none
      bin: none
  (3) pair eam, perpetual, skip from (4)
      attributes: half, newton on
      pair build: skip
      stencil: none
      bin: none
  (4) neighbor class addition, perpetual
      attributes: half, newton on
      pair build: half/bin/newton
      stencil: half/bin/3d/newton
      bin: standard

#and everyone lived happily ever after, THE END
Total wall time: 6:11:43
