LAMMPS (16 Mar 2018)
#lammps script for united atom polymer simulation (full-scale run)

# 1. INITIALIZATION
#allows pair, bond, bending and dihedral interactions
atom_style molecular

  # periodic (video game) boundaries in all cartesian directions
boundary p p s

  # uses real units (instead of units based on pair potential parameters).  List of units used in manual
units metal

###########
# 2. ATOM DEFINITION
##########

   ##
   # Read in data from starting configuration file
   ##

#read_data lammps-AT-config

 #use to restart
read_restart RESTART
  orthogonal box = (0 0 -29.1214) to (20 20 152.979)
  1 by 1 by 4 MPI processor grid
  1498 atoms
  197 bonds
  96 angles
  95 dihedrals
  2 = max # of 1-2 neighbors
  2 = max # of 1-3 neighbors
  4 = max # of 1-4 neighbors
  6 = max # of special neighbors

   ##
   # Specify the nature of the bond interactions
   ##

bond_style harmonic
bond_coeff 1 19.51 1.54
bond_coeff 2 22.45 1.82
bond_coeff 3 10000.0 2.0
special_bonds lj 0.0 0.0 0.0 angle no dihedral no

angle_style harmonic
angle_coeff 1 2.683 114.00
angle_coeff 2 2.683 114.40

dihedral_style opls
dihedral_coeff * 0.06071 -0.011743 0.1363628 0.0

mass  1   14.00
mass  2   32.06
mass  3  196.97
mass  4  196.97


pair_style hybrid lj/cut 14.0 morse 14.0 eam
pair_coeff 1 1 lj/cut 0.00395 3.95 14.0
pair_coeff 2 2 lj/cut 0.01594 3.62 14.0
pair_coeff 3 3 eam Au_u3.eam
Reading potential file Au_u3.eam with DATE: 2007-06-11
pair_coeff 4 4 eam Au_u3.eam
pair_coeff 1 2 lj/cut 0.0000 3.785 14.0
pair_coeff 1 3 lj/cut 0.00258 3.44 14.0
pair_coeff 1 4 lj/cut 0.00 3.44 14.0
pair_coeff 2 3 morse 0.879 1.47 2.7 14.0
pair_coeff 2 4 morse 0.000 1.47 2.7 14.0
pair_coeff 3 4 lj/cut 0.00 2.934 14.0


group freeze type 4
100 atoms in group freeze
fix startend freeze setforce 0.0 0.0 0.0



################
# 3.  Simulation Settings
###############

neighbor        2.0 bin
neigh_modify    every 1 delay 0 check yes



# Define some variables
variable Lx          equal xhi-xlo   # Ang
variable Ly          equal yhi-ylo   # Ang
variable Lz          equal zhi-zlo   # Ang

variable dz          equal ${Lz}/30  # Ang
variable dz          equal 182.100820164033/30  

variable zzlo        equal zlo  # Ang
variable zzhi        equal zhi  # Ang
variable vol         equal ${Lx}*${Ly}*${Lz}  # Ang^3
variable vol         equal 20*${Ly}*${Lz}  
variable vol         equal 20*20*${Lz}  
variable vol         equal 20*20*182.100820164033  
variable TEMP        equal 300.00 # K
variable TThi        equal 320.00 # K
variable TTlo        equal 280.00 # K
variable dt          equal 0.00025 # ps

timestep     ${dt}
timestep     0.00025

variable zlo1      equal -26.0
variable zlo2      equal -11.0
variable zhi1      equal 135.0
variable zhi2      equal 150.0

# heat layers

region          hot  block  INF INF INF INF ${zlo1} ${zlo2}
region          hot  block  INF INF INF INF -26 ${zlo2}
region          hot  block  INF INF INF INF -26 -11
region          cold block INF INF INF INF ${zhi1} ${zhi2}
region          cold block INF INF INF INF 135 ${zhi2}
region          cold block INF INF INF INF 135 150
compute         Thot all temp/region hot
compute         Tcold all temp/region cold


# Second Equilibration
fix             1 all nve
fix             hot all langevin ${TThi} ${TThi}  0.005 59804  tally yes
fix             hot all langevin 320 ${TThi}  0.005 59804  tally yes
fix             hot all langevin 320 320  0.005 59804  tally yes
fix             cold all langevin ${TTlo} ${TTlo} 0.005 287859 tally yes
fix             cold all langevin 280 ${TTlo} 0.005 287859 tally yes
fix             cold all langevin 280 280 0.005 287859 tally yes
fix_modify      hot temp Thot
fix_modify      cold temp Tcold

variable        tdiff equal c_Thot-c_Tcold
thermo_style    custom step c_Thot c_Tcold f_hot f_cold v_tdiff
thermo            4000
run             800000
WARNING: Using a manybody potential with bonds/angles/dihedrals and special_bond exclusions (../pair.cpp:218)
Unused restart file peratom fix info:
  fix style: STORE, fix ID: layers_COMPUTE_STORE
Neighbor list info ...
  update every 1 steps, delay 0 steps, check yes
  max neighbors/atom: 2000, page size: 100000
  master list distance cutoff = 16
  ghost atom cutoff = 16
  binsize = 8, bins = 3 3 23
  4 neighbor lists, perpetual/occasional/extra = 4 0 0
  (1) pair lj/cut, perpetual, skip from (4)
      attributes: half, newton on
      pair build: skip
      stencil: none
      bin: none
  (2) pair morse, perpetual, skip from (4)
      attributes: half, newton on
      pair build: skip
      stencil: none
      bin: none
  (3) pair eam, perpetual, skip from (4)
      attributes: half, newton on
      pair build: skip
      stencil: none
      bin: none
  (4) neighbor class addition, perpetual
      attributes: half, newton on
      pair build: half/bin/newton
      stencil: half/bin/3d/newton
      bin: standard
Per MPI rank memory allocation (min/avg/max) = 10.93 | 11.62 | 12.32 Mbytes
Step c_Thot c_Tcold f_hot f_cold v_tdiff 
151201000    317.37232    298.78283           -0           -0    18.589495 
151204000    331.21098    256.88152  -0.97068468    2.5695003     74.32946 
151208000    334.33205    259.19056   -1.0025697    2.3932952    75.141494 
151212000    323.07492    292.57745  -0.78894183   0.38871778    30.497468 
151216000    307.33146    276.59329   0.59959794   0.38931474    30.738177 
151220000    307.19016    294.97952   0.41790978  -0.33986899    12.210644 
151224000     323.4799    264.57389   -1.3226909    0.5388685    58.906004 
151228000     332.9239    280.52279    -1.460752  -0.15213176    52.401108 
151232000    336.21213    284.88858   -1.5958499  -0.67386107    51.323554 
151236000    340.66586     266.6498   -1.1245967    1.9857845    74.016054 
151240000    329.23698    268.30529   -1.0290925    2.2117133    60.931685 
151244000    315.80914    282.57745   -1.1299447    1.7587846    33.231686 
151248000    336.11282    294.97152   -1.1732868    0.3482103    41.141303 
151252000    328.95072    272.20831   -1.2180903    0.3700672    56.742419 
151256000    303.44175    268.94115  -0.20098759   0.91927625    34.500602 
151260000    318.53302    268.01954  -0.37749003 -0.078585198    50.513484 
151264000    324.06786     302.6062   -1.5914819  -0.96904267    21.461663 
151268000    317.60006    272.45044   -1.0261075    1.9171879     45.14962 
151272000    328.12129    281.41193   -1.5067014  -0.52334995     46.70936 
151276000    330.98844    259.98137   -1.5508774    1.5084626    71.007071 
151280000    306.69409    276.68201  -0.36779761   0.21692948    30.012084 
151284000    324.78598    271.98233   -2.0653132     0.871046    52.803643 
151288000     336.5723    268.43478   -2.1123363   0.58820214    68.137525 
151292000    304.69101    285.44885  0.040091037  0.023248061    19.242164 
151296000     312.1668    282.66679   -1.3765709  -0.15933918    29.500014 
151300000    322.04891    297.49873  -0.45576177  0.072694346    24.550179 
151304000    308.92921    280.14735  -0.33496049   0.10164409    28.781855 
151308000    338.34455     302.5376  -0.71678775  -0.95080153    35.806949 
151312000    333.68103    263.45283  -0.25123798   0.18155704    70.228201 
151316000     329.7109    289.89788   -1.5264373   -1.2396695    39.813026 
151320000    316.25815    273.21866  -0.40167279   0.86677818    43.039484 
151324000    291.73797    274.36396   0.25916567  0.097414913    17.374019 
151328000    292.30123    288.05735    1.2502819   -0.3341067    4.2438814 
151332000    332.95141    278.91043   -1.4826787  -0.81381178    54.040981 
151336000    325.27862    291.93367   -1.1889885   -1.0899892    33.344953 
151340000    310.65403    294.45689  -0.58531669   -1.8060191    16.197143 
151344000    340.83205    289.27234   -1.7151561   -1.3504303    51.559716 
151348000    329.91174    269.56779   -1.5176739  -0.53515962    60.343952 
151352000    320.22491    256.41059   0.59278205   0.87777513    63.814314 
151356000    304.08934    266.60797  -0.16343315   0.64962291    37.481379 
151360000    325.94543    284.77424   0.54895302 0.0086105872    41.171187 
151364000    314.26874    278.72771    1.6064988    1.0256095     35.54103 
151368000     323.4609    284.42063  -0.69232342   0.29953219    39.040274 
151372000    337.32756     261.9143  -0.54425869   0.95374097    75.413256 
151376000    302.51318    278.08186    1.3801263   0.34072788    24.431317 
151380000    297.97738    281.79642   0.12787342   -0.5092709    16.180954 
151384000    329.88825    279.94879  -0.58305505   0.18664823    49.939466 
151388000    316.11802    295.13617   0.55235401  -0.13607577    20.981846 
151392000    316.62419    281.15515  -0.25664197   0.40933346    35.469039 
151396000    358.06394    272.96158   -3.8747638  -0.93443105    85.102358 
151400000    305.02406     269.7617  -0.62767078   0.11056472    35.262366 
151404000    291.18719    278.34881    1.0340181   0.38671305    12.838385 
151408000     327.7438    285.96873    -2.061809  -0.13660199     41.77507 
151412000    334.49295     270.7995   -2.5314067   0.12442452    63.693453 
151416000    323.91696    264.17705   -2.8107745   0.40956468    59.739914 
151420000    303.11495    270.89344   -2.2757667  0.086406153    32.221511 
151424000    334.26143    294.60257   -2.9693404  -0.31094909    39.658857 
151428000    322.20472    281.76966    -2.593546   0.90947078    40.435066 
151432000    336.57207    240.85493   -2.8288476    2.4028023    95.717137 
151436000    307.05336    261.54577  -0.94070963   0.99752397    45.507591 
151440000    302.55259    283.00169  0.035793431   0.56500117    19.550901 
151444000    312.87297     258.8448  -0.71018439    1.8376826    54.028171 
151448000    341.81782    278.41025    -2.628862    1.0640382    63.407573 
151452000    315.19963    274.05513   -1.5333165    1.4784771    41.144505 
151456000    342.23157     262.8537   -2.8275866    1.7324181    79.377863 
151460000    339.27001    286.67768   -3.9281353   0.58599602    52.592331 
151464000    334.30769    291.84632   -3.6898959  -0.70097399    42.461364 
151468000    292.88913    299.18693   -2.1325876  -0.59306183   -6.2978012 
151472000    321.37368    279.77659   -2.5349028   0.83915569    41.597091 
151476000    307.20741    277.05722   -1.2026923   0.41910423     30.15019 
151480000    338.15234    275.84268   -3.6296565    1.1316891    62.309654 
151484000    317.98343    285.73255   -2.2156214  -0.56375699    32.250873 
151488000    319.81114    256.68166   -1.4418773   0.36260865    63.129473 
151492000    353.42395     282.3201   -3.4583886  -0.85966711    71.103857 
151496000    315.69372    280.56566   -1.9929457   0.46198635    35.128053 
151500000    326.04002    290.57988   -2.0011434   -1.4763278    35.460138 
151504000    300.70827    282.27733    -1.114739   -1.1470916    18.430939 
151508000    316.89615    267.14786   -2.9345996 -0.055053499    49.748282 
151512000     325.6691    284.10992   -3.7777991  -0.25398811    41.559181 
151516000    343.16913    266.75232   -3.8162395     1.518146    76.416817 
151520000    322.40777    273.06616   -3.0495997    1.3868979    49.341608 
151524000    311.86399    282.22095   -2.0030076  -0.59595997    29.643033 
151528000    332.73526    265.97875   -3.8065366   0.92709311    66.756503 
151532000    322.26435    289.76221   -3.4128103  -0.18901095    32.502135 
151536000    328.60837    291.55887   -2.9648245   0.70059874    37.049502 
151540000    310.03209     291.6067   -3.0098652   -0.1179747    18.425381 
151544000     314.5345    289.53296   -2.8386936   0.84164202    25.001534 
151548000    325.87311    283.84398   -2.2196932    1.4916208    42.029128 
151552000    328.14291    284.14652   -3.2406512    1.0831885    43.996394 
151556000    307.60541    276.54418   -1.9573165    1.5882045    31.061229 
151560000    324.26584    287.99389   -1.4029228    1.0764921    36.271954 
151564000    332.16206    274.88173   -1.2238789    0.2722629    57.280327 
151568000    303.20692    279.34284  -0.96031942    1.1463685    23.864083 
151572000    324.79057    270.68054   -2.1596827    1.1918694    54.110024 
151576000     295.8728    293.22133   -1.0063418   0.72420599    2.6514738 
151580000    323.25275    276.31061   -1.5528527    1.5504916    46.942146 
151584000    319.84721    277.18488  -0.73119362   0.23970776    42.662326 
151588000    312.51191    294.68531   -1.8674915  -0.92599969    17.826594 
151592000    295.34266    315.61933  0.092382242   0.27140222   -20.276674 
151596000     333.2452    284.00636   -2.1508611    1.3139875    49.238836 
151600000    322.12908    278.02835     -2.03753   0.51320186    44.100733 
151604000    325.15078    286.73845   -2.9942341  -0.68757766    38.412328 
151608000     324.3347    273.51387   -3.0333279   0.76324362    50.820831 
151612000    323.54428    285.12628   -2.9843902   0.50158728    38.417998 
151616000    341.87182    290.06249   -2.3761208    1.5197019    51.809327 
151620000    334.61565    305.67273   -2.1517089  -0.57476804    28.942928 
151624000    349.07438    293.71701   -2.5630035  -0.15456396    55.357367 
151628000    312.65608    294.05046   -1.2339044   0.76518413    18.605613 
151632000    280.47557    309.88409   0.44533268  -0.68095374   -29.408523 
151636000    329.13383    283.22014  -0.63099283    1.7270317    45.913696 
151640000    327.37695    286.82767  -0.20663298   0.67655768    40.549282 
151644000    332.75644    292.86604   -2.0545672   -1.0364327    39.890401 
151648000    323.55954    265.14823   -1.6963939    2.1896435    58.411313 
151652000    302.23151    258.12803  -0.68184201    2.5719502    44.103473 
151656000    318.00287    277.84998   -1.4959164    1.3431892    40.152886 
151660000    338.30145    298.07528   -2.2389759  -0.18716316     40.22617 
151664000    320.47101      289.065   -3.1852572    1.3530087    31.406007 
151668000    294.34077    288.32684   -2.0464217   0.62021514    6.0139353 
151672000    325.21875    293.52826   -2.9507604     1.414481    31.690485 
151676000    304.78418    293.06849   -1.6663403   0.86701244    11.715681 
151680000    309.02637     254.6199   -2.5300574    2.4450983    54.406469 
151684000    352.39876    298.27117   -5.0029875    1.5239756    54.127591 
151688000    345.58658    298.39817    -5.225124  -0.76577264    47.188406 
151692000     322.4925    266.32231   -2.6193922    2.4901818    56.170198 
151696000    338.49737    284.69846   -4.7661493    1.7106179    53.798914 
151700000     348.9505    276.40511   -4.2537732    2.1802272    72.545399 
151704000    299.15921    280.14679   -1.9010204    2.0993009    19.012421 
151708000    324.69153    272.87018   -2.7425722    1.9364957    51.821346 
151712000    304.35512    289.00821   -3.7522948    1.4233744    15.346916 
151716000    323.96945     264.2448   -3.3926681    1.0703721    59.724651 
151720000    322.62571    254.78337   -2.6487912    2.6140698    67.842344 
151724000    313.95621     283.1266   -2.3134082   0.58821592    30.829604 
151728000    320.90943    291.35177   -2.5260896  0.025024937    29.557659 
151732000    314.30619    274.96393  -0.67933243    1.3731189    39.342255 
151736000    314.49189    271.12556   -1.5356339    1.5813335    43.366324 
151740000    323.59372    299.51062   -3.0277191   -0.4456077    24.083101 
151744000    335.06041    266.25879   -2.5506241    1.1090677    68.801618 
151748000    314.98416    273.00478   -2.2464956    1.1696964    41.979376 
151752000    320.56269    286.56957   -2.8417511   0.18718943    33.993116 
151756000    331.25437     263.3508   -2.6554997    0.5608721    67.903565 
151760000     327.0766    278.66684   -2.5846771    1.2937731    48.409761 
151764000    323.20924    291.93971   -1.6882912  -0.27751645    31.269534 
151768000     321.4463    269.90808   -2.0440893    1.3572088    51.538215 
151772000    325.30616    269.50081   -3.5535752    0.9671994    55.805346 
151776000    309.14533    269.70898   -1.0753921    0.5412704    39.436348 
151780000    330.40525    279.57793   -3.0262891    1.1947963    50.827315 
151784000    316.75899    284.59618   -1.6315869   0.89164801    32.162808 
151788000    338.02965    286.25386   -4.2194255   0.76334319    51.775782 
151792000    338.94096    306.17261    -4.084156   0.22693863    32.768353 
151796000    304.45565    276.31776   -3.1323727    1.3997822    28.137887 
151800000    324.69182    274.23578   -2.8007582   0.48418229    50.456044 
151804000    304.75264    279.40891   -2.0114206    1.8659672    25.343728 
151808000    327.67236    296.15816   -2.6547603  -0.47118702    31.514208 
151812000    299.21622    297.11025    -1.484553   0.91739214    2.1059701 
151816000    328.95761    283.34381   -3.2313663   0.55425017    45.613799 
151820000    319.04582    289.43393   -2.1207979   0.36615736    29.611892 
151824000    337.48482    288.00856   -2.8237123    1.6505316    49.476258 
151828000    314.53105    278.98621    -1.897056   0.79877058    35.544843 
151832000    310.40249    288.14823   -1.3094318    1.3192577    22.254261 
151836000    335.26344    273.40429   -2.8047378    1.3955455    61.859147 
151840000     348.5116    266.81078   -4.4990044    1.2123328    81.700816 
151844000    315.11842    256.14454   -1.9786976    1.8189319    58.973875 
151848000    320.92529     276.6981   -2.7411092   0.40966163    44.227183 
151852000    333.40662    283.45265    -3.302122    0.9054206    49.953968 
151856000    311.41106    304.61364   -1.5253812   0.22981586     6.797418 
151860000    303.77469    288.16924  -0.55302321   0.77667371    15.605453 
151864000    318.74735    289.60439   -2.1611527    0.3830521    29.142965 
151868000    319.34361    280.41893   -2.1994497   0.58462785    38.924685 
151872000    319.87574    269.48639   -2.6766562     1.542644    50.389356 
151876000    327.77314    274.32882   -3.7493763   0.24493761    53.444319 
151880000    312.88917    283.48721   -1.8533166   0.15498735    29.401964 
151884000    308.31208    282.27103   -1.7844649   0.39958681    26.041049 
151888000    324.58539    258.75081   -2.8803203    2.2560028    65.834582 
151892000    331.64117    298.85538   -3.8888167  -0.89629534    32.785789 
151896000    308.63673    300.52918     -2.57122  -0.69136749    8.1075449 
151900000      346.012    275.84108   -3.2404648   0.61934681    70.170918 
151904000    311.67363    270.48431   -1.3298321    2.5247857    41.189312 
151908000    323.89239    281.24511   -3.1228809   0.12889903    42.647278 
151912000    337.65944    266.89003   -3.4171271   0.16326886     70.76941 
151916000    310.83708    276.90673   -2.5467837   0.46362747    33.930347 
151920000    326.32658    255.57045   -2.8345042    1.7041839    70.756122 
151924000      344.535    277.33128    -4.936809   0.92543291    67.203719 
151928000    328.97664    289.37084   -3.3889524    1.1686099    39.605801 
151932000    324.48261     265.8119   -3.1412879    2.4759646    58.670706 
151936000    305.89987    279.17309   -2.1598979    1.3424502    26.726781 
151940000    312.72797    286.91581   -4.2037394    1.8126651    25.812162 
151944000    353.44957    285.27141   -4.1963875    1.6327694    68.178155 
151948000    326.32082    268.18481   -3.3718126    2.2545217    58.136008 
151952000    313.55258    279.95597   -2.4325875  0.058342105    33.596608 
151956000    317.57256    282.22469   -4.7837434    1.9110592    35.347872 
151960000    337.84601    285.71225   -5.5675533    1.7715682    52.133762 
151964000    314.93499    277.09352   -2.1849308    2.5517945    37.841476 
151968000     321.2104     280.2389   -2.7882723    2.7229113    40.971502 
151972000    310.87015    293.86881   -1.7101535   0.90474001     17.00134 
151976000    330.61446     285.4031   -2.6679441    2.0975508    45.211361 
151980000    304.71221     281.2607   -2.5897195    1.9519508    23.451511 
151984000    328.96707    276.72015   -3.4694536    1.8364202    52.246919 
151988000    308.85549    282.27405  -0.53117141    1.7349655    26.581439 
151992000    288.97408    289.40238   -1.9215382  0.014253712  -0.42829916 
151996000    311.25263    290.18248   -3.1974475    0.3476157    21.070149 
152000000    320.86514    264.45895   -3.0360726    2.2199027    56.406193 
152001000    363.54591     278.8626   -3.7357572    1.0951751    84.683311 
Loop time of 1058.26 on 4 procs for 800000 steps with 1498 atoms

Performance: 16.329 ns/day, 1.470 hours/ns, 755.959 timesteps/s
99.7% CPU use with 4 MPI tasks x no OpenMP threads

MPI task timing breakdown:
Section |  min time  |  avg time  |  max time  |%varavg| %total
---------------------------------------------------------------
Pair    | 529.36     | 733.64     | 938.91     | 740.9 | 69.33
Bond    | 3.268      | 5.1042     | 6.8612     |  77.7 |  0.48
Neigh   | 5.6491     | 5.6524     | 5.6538     |   0.1 |  0.53
Comm    | 13.681     | 211.24     | 408.24     |1352.9 | 19.96
Output  | 0.0053101  | 0.013319   | 0.016984   |   4.0 |  0.00
Modify  | 56.25      | 77.744     | 100.73     | 206.0 |  7.35
Other   |            | 24.86      |            |       |  2.35

Nlocal:    374.5 ave 714 max 35 min
Histogram: 2 0 0 0 0 0 0 0 0 2
Nghost:    2378.5 ave 4265 max 496 min
Histogram: 2 0 0 0 0 0 0 0 0 2
Neighs:    13075.5 ave 25888 max 308 min
Histogram: 2 0 0 0 0 0 0 0 0 2

Total # of neighbors = 52302
Ave neighs/atom = 34.9146
Ave special neighs/atom = 0.518024
Neighbor list builds = 1386
Dangerous builds = 0
unfix 1


# PRODUCTION

fix             1 all nve
fix             hot all langevin ${TThi} ${TThi}  0.005 59804  tally yes
fix             hot all langevin 320 ${TThi}  0.005 59804  tally yes
fix             hot all langevin 320 320  0.005 59804  tally yes
fix             cold all langevin ${TTlo} ${TTlo} 0.005 287859 tally yes
fix             cold all langevin 280 ${TTlo} 0.005 287859 tally yes
fix             cold all langevin 280 280 0.005 287859 tally yes
fix_modify      hot temp Thot
fix_modify      cold temp Tcold

variable        tdiff equal c_Thot-c_Tcold
thermo          4000

dump gigo all atom 4000 dump.cords_xyz.dat
dump_modify gigo scale no
dump vfgigo all custom 4000 dump.velo.dat id vx vy vz fx fy fz

# thermal conductivity calculation
# # reset langevin thermostats to zero energy accumulation
#
compute         ke all ke/atom
variable        temp atom c_ke/1.5/0.00008617333262

fix             ave all ave/time 100 40 4000 v_tdiff ave running
thermo_style    custom step temp c_Thot c_Tcold f_hot f_cold v_tdiff f_ave

#compute         layers all chunk/atom bin/1d z lower 0.05 units reduced
compute         layers all chunk/atom bin/1d z lower ${dz} units box
compute         layers all chunk/atom bin/1d z lower 6.0700273388011 units box
fix             2 all ave/chunk  100 40 4000 layers v_temp file profile.langevin

run             16000000
WARNING: Using a manybody potential with bonds/angles/dihedrals and special_bond exclusions (../pair.cpp:218)
Neighbor list info ...
  update every 1 steps, delay 0 steps, check yes
  max neighbors/atom: 2000, page size: 100000
  master list distance cutoff = 16
  ghost atom cutoff = 16
  binsize = 8, bins = 3 3 23
  4 neighbor lists, perpetual/occasional/extra = 4 0 0
  (1) pair lj/cut, perpetual, skip from (4)
      attributes: half, newton on
      pair build: skip
      stencil: none
      bin: none
  (2) pair morse, perpetual, skip from (4)
      attributes: half, newton on
      pair build: skip
      stencil: none
      bin: none
  (3) pair eam, perpetual, skip from (4)
      attributes: half, newton on
      pair build: skip
      stencil: none
      bin: none
  (4) neighbor class addition, perpetual
      attributes: half, newton on
      pair build: half/bin/newton
      stencil: half/bin/3d/newton
      bin: standard
Per MPI rank memory allocation (min/avg/max) = 12.03 | 12.29 | 12.45 Mbytes
Step Temp c_Thot c_Tcold f_hot f_cold v_tdiff f_ave 
152001000    281.25956    363.54591     278.8626           -0           -0    84.683311            0 
152004000    269.84958    326.83299    268.47236   0.65047272   0.48747269    58.360629            0 
152008000    267.79246    325.93514    251.50071   0.38164221    1.9018331    74.434431    39.841882 
152012000    271.31195    321.29686    278.66431    1.1572976   0.34753172    42.632553    40.463615 
152016000     269.2939     303.6499    269.72125   0.77204601   0.87768278    33.928646    39.823276 
152020000    267.35562    302.14383    285.67707    2.5050213   0.79268243    16.466754    40.074562 
152024000    278.34061    326.89432    280.88384    1.4416451    1.0700795    46.010484    40.286567 
152028000    277.55473    342.25917    283.69851  -0.10428135    1.2214303    58.560666    40.909093 
152032000    270.73963    326.98242    287.81437   0.49557728   0.52560524    39.168051    40.742016 
152036000    269.10001     325.6494    258.23582   0.16941064    2.1037119    67.413576    40.670408 
152040000    266.83057    342.91676     253.4726   -1.1130696    1.2424782    89.444165    40.632085 
152044000    270.88821    306.52177    263.24713    1.0839173    2.1008264    43.274644    40.292276 
152048000    264.12935    302.74757    279.02515   0.79866504    1.2087762    23.722419    40.068485 
152052000    265.99299    320.06952    250.99295     1.868542    2.4016974    69.076575    39.688619 
152056000    269.59255     328.6534     266.4069    1.0979881    1.4851085    62.246501    39.662568 
152060000    274.68477     329.2133     285.6533   0.45188255    1.0358507    43.560006    40.001863 
152064000    267.76288    314.80482    285.69115     0.669901   0.20892474    29.113674    39.943452 
152068000    262.95013    325.71555    269.55226   0.18855226   0.37853173    56.163287    39.840395 
152072000    273.79262    315.74847    282.35517   0.12392451   0.25330945    33.393294    39.903049 
152076000    269.31457    334.96781    274.23854    0.4812951   0.27818967    60.729269    39.920524 
152080000    268.63206    315.33112    281.60982   0.90568166  -0.45428548    33.721301     40.07078 
152084000    273.43249    332.18044      279.169   0.63916822  -0.23138365    53.011439    40.024037 
152088000     275.1407     340.6454     274.7406  -0.61664513    1.2207456    65.904808    40.084944 
152092000     259.7676    303.88953    270.46371    2.5891286   0.84235356    33.425819    39.968275 
152096000     256.8054    307.52691     249.1022    1.1638003    2.6951188    58.424715    39.914273 
152100000    265.45852    305.54288    278.47936    1.6043587    1.3896712    27.063518    39.820854 
152104000    270.73778     316.5178    276.19219    2.3978557    1.5640057    40.325608    39.901101 
152108000    271.18824    319.79485    283.51253     1.012833    1.0890298    36.282325    39.968743 
152112000    272.05384    329.75846     249.9779    0.1228248     2.205062    79.780565    39.983783 
152116000    272.93752    315.81236    284.10472   0.31434072   0.32810606    31.707634    39.823324 
152120000    266.95666    324.22257    271.66339   -1.1311489   0.95978591    52.559178    39.832924 
152124000    267.07475    294.81057    277.37398    1.2393189    1.4866452    17.436592    40.070583 
152128000     266.7887    290.34778    286.83727    2.5136235    1.5445331    3.5105149    39.932075 
152132000    272.72453    339.07879    264.65168  0.040613444    2.5969977    74.427109     39.96278 
152136000    261.99103    308.25566    276.26255    1.3633039    1.7297581     31.99311    40.002915 
152140000    275.10956    318.96051    301.83987   0.74012099   0.48044605    17.120634    39.883695 
152144000    268.83572    318.75986     289.8007   0.67040399    0.4882874    28.959164    39.869606 
152148000    274.71318    339.88376     275.0347  -0.96404705    1.6828503    64.849061    39.785104 
152152000     266.4218    321.07549     270.0641    1.2078628    2.0888651    51.011397    39.752771 
152156000    271.89211    304.81771    284.05671    1.7902227  0.094222483    20.761009    39.706606 
152160000    273.56346    306.58645    295.20325    1.6868087   0.57041111    11.383206    39.667293 
152164000     275.3604    323.87324    287.99715   0.47562758   0.87389834    35.876086    39.636833 
152168000    274.73827    321.21908    290.73622    1.0819298   0.43389687    30.482853    39.602382 
152172000    273.57087    332.15853    266.84164    0.7621517    1.3631548    65.316883    39.633188 
152176000    262.20715    299.22776    274.69465    2.6900961   0.89653648    24.533116    39.630811 
152180000    268.89464    308.49447    272.73094    1.0306699     1.996882    35.763529    39.675219 
152184000    278.59404    329.87437    280.54378   0.59976159    1.8189477    49.330589    39.621923 
152188000    264.98222    309.10363    264.85972    1.7959283     1.981167    44.243906    39.562911 
152192000    270.59642    343.12033    263.20198  -0.33776979    1.9239898    79.918352    39.586192 
152196000    278.70793    349.15866    280.39109  -0.58255728   0.84867614    68.767565    39.589459 
152200000    267.71455    313.22022    276.02157    1.3091334    1.1730228     37.19865    39.535347 
152204000    261.84983    303.28919    267.93289     2.297547    2.5301854    35.356301    39.424781 
152208000    273.64454    324.47924    291.59534   0.65289295    1.0938501    32.883893    39.422453 
152212000    264.89155    320.18629    274.71248   0.72132859    1.6833398    45.473812    39.469278 
152216000     263.4486    317.20386    272.38474    0.2573862   0.96865549    44.819123    39.419891 
152220000    266.70045     297.6264    286.77364    2.2122637   0.74631939    10.852757    39.325395 
152224000    275.49023    332.21092    287.53663  0.025879742    1.3707741    44.674284    39.283954 
152228000    267.19517    305.89462    280.24533    1.8620765    1.5911475    25.649293    39.317861 
152232000    276.79838    343.50795    273.70614   0.23514824    2.7003159    69.801808    39.337683 
152236000    266.39303    321.06661    268.66466    0.6101178    1.8501582    52.401957    39.390737 
152240000    265.56394    306.66269    281.52527    1.3510099    1.2903656    25.137419    39.360984 
152244000    268.57615     312.5593    284.47489  -0.20016484    1.0953571    28.084405    39.321384 
152248000     285.2144    356.88748    282.51434   -1.8057355    2.0243622    74.373144    39.334372 
152252000    269.04731    307.14951    279.54181   0.66721833    1.0890183      27.6077       39.376 
152256000     277.2753    327.83547    289.93936  -0.74126091    1.8495507    37.896108    39.389488 
152260000    272.39835    318.77298    282.19125  0.047271831     2.128179    36.581732    39.436141 
152264000    270.39433    320.94512    283.80677   0.19111211    2.4133674    37.138349    39.341091 
152268000    275.17536     313.2978    293.09548   0.20466887    1.4837263    20.202315     39.39048 
152272000      273.693     327.7856      280.797  -0.56511632    2.3073767    46.988601    39.443265 
152276000    265.39011    299.10302    266.01962    1.5703482    2.9189779    33.083392    39.487396 
152280000    273.10201    334.02589    291.79254  -0.59060041    1.6571459    42.233348    39.453412 
152284000    267.78282    323.81763    286.74069 -0.033772423    2.6008507    37.076934    39.439487 
152288000    271.13147    330.80565    278.47941  -0.39949456    2.3948693    52.326248    39.453124 
152292000    271.78669    325.40912    276.82041    0.4242256    2.6258999    48.588709    39.412421 
152296000    265.76825    331.80105    278.89582   -1.0370466    3.5566498    52.905235    39.434461 
152300000     280.9537    341.27062    302.04686  -0.47626048   0.50453612    39.223762    39.441359 
152304000    256.75923    286.72454    261.55058      2.15431    3.3158808    25.173958    39.441312 
152308000    264.09454     312.9212    257.73806   0.67513723    3.7505017    55.183134    39.433159 
152312000    276.83843    339.70957    287.36634   -1.0155796    1.4328635    52.343227    39.485836 
152316000    266.88558    322.64931    273.65361  -0.35344997    2.3464216    48.995699    39.480258 
152320000    270.98837    304.05252    299.26913   0.30910286   0.97141981      4.78339    39.503152 
152324000    262.11508    296.60438    265.15372    0.4515359    2.6708688    31.450656     39.53231 
152328000    255.19058    295.86292    259.18829    1.3763999     2.904362    36.674628    39.505846 
152332000     270.5375    330.42267    285.48523   -1.5948639    2.3445745    44.937445    39.590916 
152336000    274.09065    336.07478     272.3662  -0.24077918    2.5704621    63.708584    39.584249 
152340000    268.25976    313.85125    281.55145   0.42870265       1.5415    32.299794    39.614905 
152344000    265.17303    336.76362    273.00669  -0.53001691    2.9349095    63.756932    39.663772 
152348000    269.44259    326.76927    281.99093   0.65773463    2.3532745    44.778338    39.673665 
152352000    262.34073    301.60166    274.65006   0.93517805    3.3623831    26.951597     39.67404 
152356000    264.14775    320.23199    257.87159  -0.40401181    3.5015432    62.360405    39.741346 
152360000    269.33317     331.1603    284.62291  -0.38578616    1.9035744    46.537384    39.764471 
152364000    273.77696    344.69279    285.93514  -0.86893463   0.86203203    58.757649    39.745858 
152368000    260.86842    301.65174    274.91669    1.3781294    1.8705899    26.735045    39.716394 
152372000    268.77388    320.25066    290.53112  -0.28377373    1.6735579    29.719541     39.68353 
152376000    265.49585    295.61489    288.36423    1.1283238    1.1008477    7.2506628    39.701594 
152380000    263.66948    309.31926    271.20083    1.5155159     2.189353    38.118427    39.688249 
152384000    267.70992    313.36611    285.07162    0.8984801    1.4402165    28.294482    39.668128 
152388000    268.97226    328.66024    286.34705   0.43461317      2.24498    42.313195    39.733431 
152392000    256.75788    302.59137    282.66289    1.2066504    1.8351366    19.928479    39.721664 
152396000    276.48238    330.68477    298.64774  0.021710996    1.0005216    32.037034    39.690081 
152400000    272.89496    316.15249    288.24399   0.31413179     1.402882    27.908498    39.658973 
152404000    276.52527    338.04151    282.97835   -1.1533871    2.6176805    55.063157    39.688591 
152408000    270.95041    347.72528    256.22308   -1.9862747    2.8332119      91.5022    39.646187 
152412000    266.47084     316.5143    276.54547   0.54995557    2.1417005    39.968837    39.624146 
152416000    264.85437    318.86337    270.01686   -0.2072084     3.165911    48.846511    39.655666 
152420000    275.81736    328.08804    308.69794  -0.45091908     1.176248    19.390098    39.695088 
152424000    275.73511    327.76339    315.25682   -1.4018431   0.47529017     12.50657    39.662569 
152428000    267.51711     314.6668     283.9637   0.48394649    2.1441561    30.703105    39.686503 
152432000    263.10684     299.7885    272.25779    1.9411533    2.8839945    27.530708    39.665378 
152436000    267.32079    324.63152    288.64356    1.4727924    2.2182805    35.987953    39.637594 
152440000    263.60802    313.89837    276.30606    1.8324787    2.0392713    37.592309    39.627863 
152444000    264.66717    317.92835    270.52079    1.3603836      1.68949    47.407552    39.598078 
152448000    260.71447    328.19272    253.90648    1.1531482    2.5073468    74.286244    39.607663 
152452000    265.76617    312.72638    284.69956    1.9819668   0.88606963    28.026821    39.575691 
152456000    277.18882    323.00346    293.11696    1.0969583   0.27099864    29.886502    39.636081 
152460000    273.07645    322.85838    285.66747    1.2980217    1.4224142    37.190912    39.634339 
152464000    270.20748      328.272    270.17545    1.3961982     1.072316    58.096556    39.643326 
152468000    271.29967    307.99671    280.84984   0.54939872   0.05679248     27.14687    39.627446 
152472000    258.28286    316.62739    267.69346    1.1611131     1.798781    48.933927    39.668815 
152476000     270.5053    317.64046    284.79767   0.20884086    2.1570315    32.842798    39.646427 
152480000    259.92618    315.48466    264.16122    2.3865467    2.8372449    51.323448    39.647355 
152484000    266.49848    334.00516    273.26434  -0.20299528    1.0975569    60.740813    39.658973 
152488000    271.62783    317.42856    288.26989    1.2843232 -0.077496231    29.158667    39.644035 
152492000    271.61303    311.87158    267.16995    1.7210997    1.3170624    44.701622    39.644832 
152496000    283.87818    350.20194     304.1675   -1.0306804  -0.82915187    46.034441    39.632419 
152500000    269.13867    317.07333    286.92733   0.49400736   0.26383674    30.146006    39.634416 
152504000     275.0214    302.92345    280.87139    1.9092369   0.26766635    22.052068    39.628924 
152508000    284.80422    341.30454    302.99706   0.32797172   0.28365719    38.307482    39.622029 
152512000    268.08143    326.49227    283.80175  -0.21217138    2.4931035    42.690522    39.616376 
152516000    273.18563    333.43775     278.6782   0.07607931    2.1808652    54.759556    39.612958 
152520000    272.35401    331.30224    284.01211 -0.048163853    2.6883044    47.290129    39.611882 
152524000    278.21891    337.34204    295.80273  -0.58027752   0.68417502    41.539311    39.584102 
152528000    266.71883    311.26042     274.2429   0.86286909    1.2169396    37.017521     39.60987 
152532000    261.45408    302.92678    272.42559    1.4111804    1.2995295     30.50119    39.622942 
152536000    271.06563    303.02555    286.13018  -0.52855571   0.72199722    16.895367    39.582684 
152540000    268.52347    328.29586    267.64287  -0.41117365    2.2088626     60.65299    39.566695 
152544000     266.7661    311.58694    272.10854    0.1823042    2.2231784    39.478408    39.558422 
152548000    274.18869    311.15417    292.90064   0.18849769    1.6879554    18.253529    39.548527 
152552000    265.05561    307.01261    280.84727   0.76903122    1.3947028    26.165341    39.535133 
152556000    274.57713    324.14496    271.55988  -0.14156152    1.5671088    52.585085    39.544737 
152560000    277.11271    330.14205     285.8394    -0.849716  -0.93041294     44.30265    39.550716 
152564000    274.49331    305.09712    284.29971   0.79651188   0.19935371    20.797416    39.552275 
152568000    278.55243    333.29696    295.74193   0.45539368  -0.44902857    37.555033     39.57952 
152572000    268.73626    325.02652    274.26475    0.1187555   0.37009447    50.761774    39.584718 
152576000    266.33725    323.98275     275.8525  -0.54137989    1.0874222     48.13025    39.549207 
152580000    274.75973    309.65108      287.038   0.35176328  -0.48952131    22.613074    39.557625 
152584000    271.79287    320.21301    271.46384  -0.41032697   0.87566713    48.749169    39.577238 
152588000    270.75478    326.59521    289.71511   -0.6312882   0.50114612    36.880097    39.597148 
152592000    274.55456    316.54678    296.10647    1.0508112  -0.05233076    20.440309      39.5595 
152596000    274.44651    321.91411    288.34218   0.11941375   0.82229235    33.571926    39.527026 
152600000    274.47606    328.29573    271.93608  -0.95067192   0.44529687    56.359644    39.547622 
152604000    269.50149    323.83024     266.3455  -0.14587435    2.0541868    57.484741    39.535617 
152608000    274.30079    329.24352    290.19585   -1.7174151  -0.73683904     39.04767    39.536316 
152612000    271.01119    303.09459    283.67379  -0.52157769    1.4494962    19.420807      39.5399 
152616000    277.64935    322.15096    291.40119 -0.0020082132 -0.079476355    30.749767    39.540898 
152620000    270.70755    313.33386    277.87182   0.11186053    2.1296757    35.462043    39.545648 
152624000    272.85622    321.38282    280.29193  0.079669531    1.9104679    41.090892    39.533253 
152628000    275.13196    322.72842    288.68826  0.080220833   0.60324359    34.040167    39.530396 
152632000     279.8504    342.82403    285.00116  -0.59902274    1.2524734     57.82287    39.554863 
152636000    270.85233    338.10173    270.32848  -0.52557452   0.14895365    67.773246    39.565826 
152640000    275.44701    321.43051     287.7327  -0.17951786   0.25261759    33.697816    39.565859 
152644000    268.44151    306.02903    275.27237   0.12226973    1.5604737    30.756658     39.58619 
152648000    273.48534    321.73092    289.14184 -0.014250947  -0.53674245    32.589078    39.578782 
152652000    276.66095    323.23323    276.47702  -0.44956869    1.5178204    46.756207    39.605027 
152656000    273.47577    310.16233    285.83187  0.076711157    2.1445916     24.33046    39.574837 
152660000    278.60834    330.89106     288.9765   -1.1523078    1.2345581    41.914561    39.567643 
152664000    266.06788    297.43196    278.02965   0.35171278    1.2792378    19.402307    39.540145 
152668000    268.35731    314.01789    285.24788    0.2339803    1.1920898    28.770009    39.573342 
152672000     272.0794    319.26957    266.69619   -1.1350568    2.2294778     52.57338    39.577227 
152676000    266.94311    325.02269    266.79611   -1.0180484    2.5177006    58.226571    39.590429 
152680000    280.02924    328.82956    292.35769   -1.4553017   0.92228611    36.471872    39.598185 
152684000    270.46906    299.85787     280.7305 -0.099368226    1.3307345    19.127366    39.595466 
152688000    277.79833     337.2343    287.73056   -1.4890255   0.67603886    49.503739    39.623011 
152692000     275.0123    339.81229    297.91363   -1.7720139  -0.84550103    41.898667    39.626647 
152696000    278.77469    338.55214    281.73858   -1.0875207  0.010976708     56.81356    39.644846 
152700000    281.30914    339.26815    276.79031   -1.3703693    1.2245704    62.477839    39.660767 
152704000    274.66397    309.54386    285.33989   0.33748636     2.199879    24.203978    39.653704 
152708000    272.48945    309.90574      289.561   0.14281309  -0.21694998    20.344749    39.646636 
152712000    278.55228    318.10323     291.8364   0.28685153   0.85104764     26.26683    39.649297 
152716000    268.91544    306.86402     272.2413   0.50005698    2.0605783    34.622722    39.640778 
152720000    273.95954    330.53891    261.05598   -2.0245666    2.4214255    69.482925    39.655324 
152724000    270.54564    320.79115    287.44276   -2.2602475    1.8634877    33.348391    39.643692 
152728000    274.00734    331.43649    270.70509   -2.2740949    1.9749714    60.731394    39.663026 
152732000    282.16297    335.16643    283.69886   -2.2690718   0.87327698     51.46757    39.672012 
152736000    273.69127    301.70009    284.82805   -1.1978961    1.4537888    16.872031    39.670162 
152740000    272.11308    330.60481    272.81524    -1.826459    2.4437955    57.789573    39.676638 
152744000    284.16263    337.61237    300.15072   -2.0689647  0.067848201    37.461649    39.681297 
152748000     272.9141    325.06494    286.48138   -1.8144438   0.57250952    38.583561    39.671507 
152752000    276.21806    322.17874    271.58509  -0.91396276    1.3947865    50.593648    39.683083 
152756000    278.82633    331.45849     282.7139   -2.9386853    1.2899749    48.744597     39.69963 
152760000    276.43547    320.57619    283.60868   -1.3601842    1.9366045    36.967514    39.686266 
152764000    277.49142     325.1313    293.06364  -0.77488809   0.77106407     32.06766    39.693585 
152768000    271.09157    309.35405    262.39478  -0.34599716    2.9344164    46.959273    39.684599 
152772000    282.19902    350.11672    293.04652   -2.1637025    1.2897659    57.070206    39.692666 
152776000    272.07137    317.11963    280.32242  -0.21911073    1.5484954    36.797217    39.679879 
152780000    264.09346     298.0186    284.38519  -0.43065315     2.302522     13.63341      39.6888 
152784000    268.34117    329.64236     262.6611   -0.4564849    2.8080683     66.98126    39.704026 
152788000    269.50268    332.94355    261.66187  -0.34260533    2.7580343    71.281678    39.713784 
152792000    273.61476    321.78069    280.94671   0.48117581    2.3136232    40.833975    39.701405 
152796000    277.36265    331.93203    287.67215  -0.48419967    2.0677683    44.259881      39.7252 
152800000     267.6775    311.41281    265.10102   -1.0763011    3.5042868    46.311788    39.758832 
152804000    274.25344     317.6692    287.69223 -0.081484223    3.4076181    29.976969    39.759968 
152808000    268.76749    323.89123    275.81887  -0.28030319     3.175731    48.072356    39.762413 
152812000      279.197    334.14539    280.99643  -0.66309952    1.8546845     53.14896    39.770684 
152816000    265.49209    295.74261    274.75702   0.27389116     1.962616    20.985598    39.762571 
152820000    279.67812    351.24309    294.00927   -2.4436427    1.1391769    57.233821    39.775819 
152824000    264.15222    312.95101    259.70565   0.10223052    2.6683133    53.245362    39.769353 
152828000    276.11908    339.82184    267.76298   -2.0802003    2.2222349    72.058867    39.793785 
152832000      277.039    318.03907    286.10396   -1.7697723    1.7818358    31.935105    39.791693 
152836000    275.17225    325.37835    274.40213   -1.9885734    1.8539312    50.976222    39.790262 
152840000    274.46508    319.95427     278.1673   -1.0196821    2.5640489    41.786968    39.793095 
152844000    268.60651    327.14863     268.1669   -1.9517174     2.396376     58.98173    39.787777 
152848000    269.04172    318.72195    269.17082   -1.9170809     1.575126    49.551127    39.800171 
152852000    272.27121    298.32088    288.35607   -1.3095331     0.405349    9.9648093     39.80759 
152856000    267.22251    315.55659    269.12461   -2.6884429    1.5478903    46.431984    39.791417 
152860000      267.073     292.8026     274.8638   -1.3790232    1.6616721    17.938796    39.800532 
152864000    275.00031    323.47423    279.36866  -0.99520745    1.3373709    44.105566    39.781443 
152868000    276.39505    321.17003    271.07455  -0.63718228    1.4724534    50.095478    39.761235 
152872000    265.46605    286.38509    265.67647  -0.31936482    1.6842557    20.708615    39.759845 
152876000    269.45201    304.59788     263.0973   -1.3398873    1.8408296    41.500585     39.76375 
152880000     275.8595    304.67615    277.59721   -0.9239074    2.2115127    27.078933    39.765158 
152884000    280.12679    351.59345    273.09436   -4.3417649    2.1270693    78.499083    39.791405 
152888000    275.24405    335.96962    279.28345   -3.9904864    1.5860467    56.686172     39.79212 
152892000    280.00004     303.5179    281.96062     -1.22671    1.3799057    21.557283    39.790276 
152896000    278.01653    307.94193    297.73283   -1.7990375    0.3849351    10.209102    39.780265 
152900000    283.79813    325.17508    285.15819   -3.0452676   0.37109539    40.016892    39.785612 
152904000    279.92104    336.64527    279.07659    -2.090375  0.069127536    57.568674     39.81108 
152908000    279.55786    315.21973    298.73623  -0.24388463   -1.0679344    16.483502    39.825954 
152912000    278.08777    321.94162    269.05249   -1.1816979    1.4622629    52.889132    39.826114 
152916000    277.59617    313.01086     300.0807  -0.57431778   0.33159703     12.93016    39.819434 
152920000    276.50532    332.32572    286.02501   -2.0639629   0.21683977    46.300706    39.810436 
152924000    271.60755    314.74714    261.63803   -1.7788329     2.422347    53.109109    39.810396 
152928000    277.32605    311.06193    293.95802   -0.6471051   0.34454363    17.103907    39.794636 
152932000    282.74108    344.85421    278.08702   -2.4023928    1.1204073    66.767186    39.801831 
152936000    269.87987    319.64031    265.42138  -0.64548474    2.4482693    54.218935    39.790912 
152940000    266.30784    303.22589    263.30874   -1.0943522    1.4550586    39.917151    39.811987 
152944000    264.63025    318.07391    258.98268  -0.56612987    1.7586922    59.091229    39.822977 
152948000    281.12137    351.14591    272.82336   -1.9724945   0.96325482     78.32255    39.839618 
152952000    283.21568    334.97392    281.97014     -1.21127   0.11193392     53.00378    39.829207 
152956000    280.48823    340.72112    271.54322   -1.1278183    1.0448536    69.177894    39.848335 
152960000     278.6735    327.78094    281.65598   -1.5011428  -0.24284016    46.124956    39.849398 
152964000    277.45296    303.20351    299.12968  -0.64805822  -0.91483083    4.0738383    39.841271 
152968000    281.79985    328.58631    281.94052    -1.195808    0.9548719    46.645796    39.831144 
152972000    276.88204    310.24414    271.96631   0.86979454 -0.093494347    38.277836    39.842654 
152976000     271.1899    299.34033     262.8986   -0.5551573   0.63847431    36.441724    39.834735 
152980000    276.01909    342.03225    275.01026    -2.886647   0.24764109    67.021998    39.831739 
152984000    274.81106    305.74737     261.7381  -0.79257734    2.6698564     44.00927     39.83195 
152988000    280.08788    323.56982    292.25359   -1.8092855   0.61290074     31.31623    39.854907 
152992000    278.06401    318.09672    285.47077   -1.1817384   0.91100405    32.625949    39.862443 
152996000    284.48212    333.59874    306.02539   -1.5396177  -0.92219231    27.573353    39.854382 
153000000    286.22066    333.01475    295.57252     -1.45935   0.26434628    37.442233    39.839931 
153004000    283.16755    321.36156    315.68243   -2.3440037   0.10965623     5.679124    39.842118 
153008000    269.35966    303.57706    273.01675   -1.3275568     1.474818    30.560314    39.838247 
153012000    283.40617    323.03003    290.99987   -1.9615208    1.0354465    32.030153    39.824459 
153016000    281.34418     306.5316    289.37595   -2.1854502    1.4475661    17.155654    39.822457 
153020000    283.51631    317.12173    288.74073   -2.9238102    1.3887393    28.381006    39.804311 
153024000    286.46124    339.40225    278.33126   -3.7239344    1.4194558    61.070986    39.807771 
153028000    281.51748    320.90279    296.13253   -2.5052587   0.57210376    24.770259    39.798349 
153032000    281.46131    313.17498    278.62208   -2.7859168    1.2109496    34.552898    39.798513 
153036000     285.7195    332.32716     272.2898   -3.4277113     1.075255    60.037358    39.788152 
153040000    272.41214    307.18535    271.84528   -1.9527405    1.0487672    35.340071    39.781706 
153044000    274.65265    304.93001      282.476    -2.409865   0.74896741    22.454011    39.784549 
153048000    274.43317    294.82679    264.12534   -1.9932879    1.5146626    30.701443    39.770038 
153052000    282.66874    341.58697    290.62935   -2.9851597    1.8344099    50.957617    39.775505 
153056000    282.20291    319.29414    265.36365   -3.5849813    1.9391658    53.930493    39.778139 
153060000    290.38251    318.98751     302.6299   -3.1635802   0.50872119    16.357606    39.788769 
153064000    292.98797    356.01952    278.85328   -3.7577606   0.17441005     77.16624    39.794341 
153068000    273.02032    306.19072    281.55284   -2.8918859   0.22677698    24.637881    39.786302 
153072000    288.37028     334.2829    290.27442   -3.7389639   0.11537272    44.008472    39.768238 
153076000    282.27271    341.82473    257.11989   -4.2031316    2.1969002    84.704839    39.768998 
153080000    278.15406    329.21728    278.35201   -2.6529504    1.1090128    50.865265    39.767022 
153084000    286.26511     338.9719    302.74364   -4.3019868   0.19567064    36.228268    39.770916 
153088000    287.01261    328.12555    304.46957    -2.998085   0.32588708    23.655978     39.78183 
153092000    282.29733    332.15199    285.23292    -3.011227    1.4478708    46.919074    39.801559 
153096000    279.37229    321.47374    290.60408   -1.7677404     1.566527    30.869656    39.807602 
153100000    277.36641    309.27387    279.00366   -1.2588625    1.8360394    30.270205    39.813336 
153104000    283.06037    329.92408    290.95456   -1.9440027    1.6573139    38.969519    39.804493 
153108000    282.48014    353.33127    258.58675   -4.0067387    3.1568789    94.744517    39.809805 
153112000    278.95883    318.64024    287.59475    -1.848279    1.3649475    31.045493    39.817012 
153116000    275.78751    317.63074     271.6793   -3.0782535    3.0888932    45.951438    39.829946 
153120000    280.85245    320.46605    262.37254   -2.5693831    2.3201301    58.093511    39.831481 
153124000    283.09819     324.4364    292.32888   -2.7153959   0.73819032    32.107527    39.826968 
153128000    270.99505    308.64799    266.42236   -2.0819654    1.3626764    42.225624    39.828469 
153132000    285.05709    316.48582    293.41748   -2.9437424  0.010706103    23.068336    39.820448 
153136000    274.54081    296.10736     295.1118   -1.6493054   0.91900549    0.9955582    39.806984 
153140000    286.61878     329.1092    285.13189   -3.3376276    2.2644145    43.977303    39.796654 
153144000    259.83663    286.79843    251.66401   -1.5167981    3.4250826     35.13442    39.797128 
153148000    282.37536    327.94778    284.76278   -2.3834073    1.9274064       43.185    39.807058 
153152000    279.71705    318.84839    288.16976   -2.9891501    1.1183516    30.678635     39.80399 
153156000    282.03065    321.34957    310.90574    -4.187717  -0.10317904    10.443838    39.785708 
153160000    281.67266    305.58425    291.01164   -2.8820238    1.0394645     14.57261    39.775138 
153164000    281.82611    316.92049    296.57525    -3.258454   0.98511852    20.345241     39.78219 
153168000    271.24594    331.34363     240.3196   -4.7131031    3.4428607    91.024026    39.782288 
153172000    280.49494     337.6817    267.35981   -3.6805287    2.7409074    70.321893    39.787957 
153176000    270.26528    283.19646    274.76444   -2.3067364    2.5111992    8.4320191    39.792562 
153180000    277.67151    324.97125    287.96995   -3.2990384    1.9608204    37.001298    39.788226 
153184000    267.48595    288.68599    271.49556   -1.7530012    2.6116242    17.190425    39.795544 
153188000    280.10136    311.03268    302.88076   -2.9818344    1.2339577    8.1519222    39.804374 
153192000    274.64219    305.07585    277.88232   -1.8737692     2.057728    27.193524    39.807718 
153196000    277.53238    320.84931    283.28771   -3.0665868    1.7908392    37.561601    39.820386 
153200000    276.94498    316.50968    265.66291   -3.8977293     2.333069     50.84677    39.824841 
153204000    263.54111    300.44428    252.26705    -3.369219    3.3551154     48.17723    39.847601 
153208000    284.21628    322.31903    280.13208   -2.9257408    2.1245334    42.186952    39.853404 
153212000    291.34332    353.29084    301.44979   -4.6143536     0.350585    51.841049    39.857565 
153216000    280.02458    324.01856    275.90423   -3.3298212    2.4515621    48.114325    39.872502 
153220000    290.29023    347.20931    301.13552   -3.5147392    1.0573899    46.073783    39.881627 
153224000     271.1818    301.23384    262.35347   -2.2741724    2.5048637    38.880362    39.895892 
153228000    286.30874    345.07075    283.69427   -4.2378549    1.7874574    61.376476    39.901917 
153232000    291.12748    350.57766    287.93229    -5.132644    2.0569671    62.645372    39.909229 
153236000    275.44831    308.13061     283.6733   -1.8968786    2.2984845    24.457305    39.891375 
153240000    272.42299    316.21321    264.53966   -1.8555483    2.9872565    51.673542    39.887408 
153244000    269.55071    303.21123     264.7382   -1.9670778    2.6607973    38.473029    39.877851 
153248000    283.25011    317.86709    301.13674   -3.0334212    1.5086206    16.730353    39.868305 
153252000    275.76906    351.00362    281.31839   -4.8411804    2.9374941    69.685234    39.856378 
153256000    279.37655    314.63041     306.6596   -3.2746774   0.94023522    7.9708107    39.863633 
153260000    281.44108    336.08251      298.023   -3.6389117     2.001189    38.059507    39.868379 
153264000    272.05961    321.41922    282.44828   -2.9191317    2.6534172    38.970943    39.869171 
153268000    279.15545    322.28572    268.87099   -2.6209576    2.6506543    53.414736    39.875669 
153272000    278.22943    318.35251    282.46685   -1.8805465    1.1794497    35.885663    39.875184 
153276000    279.66402    327.75022    284.09754   -2.5218837   0.71146569    43.652677    39.886489 
153280000    284.02263     332.5498    277.82532   -2.6182561    2.0192785    54.724479    39.874248 
153284000    278.22471    330.07274    293.42027   -1.1458503   0.83449283    36.652478    39.855743 
153288000    278.20478    317.02588     284.1965   -1.7084321    1.1208029    32.829377    39.857522 
153292000    280.39803    334.38013    274.48595   -2.5159459    1.7649633    59.894179    39.875323 
153296000     264.2147     313.3527    262.47109   -1.0661439    3.3223138    50.881613    39.889173 
153300000    271.18206     330.7144    273.37333   -1.2926033    2.0451502    57.341073    39.893895 
153304000    276.88298    322.12998    294.01335  -0.70066048   0.85770748    28.116629    39.883977 
153308000    272.20582    317.83577    285.41939  -0.83713773    2.4511345    32.416384    39.897866 
153312000    270.19106     308.2366    270.75639   -1.4498825    2.7743358    37.480208    39.909971 
153316000    271.52194    314.25417    281.90791  0.084877471    2.0627149    32.346256    39.899861 
153320000    273.55253    327.98103    270.85597   -1.8234411    2.9939946    57.125064    39.895215 
153324000    275.15936    303.50152    301.01172  -0.21527999    1.2807183    2.4898016    39.885711 
153328000    264.46218    305.43505    258.83879  -0.75982388     3.443244    46.596263    39.888972 
153332000    263.79323    316.53569     279.4219   0.46340195    3.0751992    37.113789    39.901884 
153336000    269.99054    310.53033    285.33691   0.66727931     2.688776    25.193416     39.90548 
153340000    268.97325    320.23087    283.62145   -1.0530215     2.986175    36.609416    39.883435 
153344000    270.24083     322.6519    280.64344   0.35339849     2.784555    42.008459     39.88514 
153348000    273.91661    348.31697      262.979   -2.9800254    3.1924729    85.337964    39.904842 
153352000    274.46126    323.53544    294.62186  -0.43196701    1.5342112    28.913583    39.909372 
153356000    265.04078    298.25138    269.83993  0.082466293    1.7238447     28.41145    39.916349 
153360000    269.55435    309.77584    278.46926   0.13201149    2.2157633    31.306578    39.911778 
153364000    264.97477    314.52843    279.60355  -0.32228617    1.8809692    34.924879    39.911682 
153368000    276.87909    314.97465    299.79499   -1.5312346    1.2628901    15.179659    39.919871 
153372000     263.9418    313.41892    270.84121   -1.9576008    2.5057973    42.577714    39.913307 
153376000    267.05203    290.59897    287.83166  -0.31827645    2.2252234     2.767305    39.901813 
153380000    271.84316    301.75418    295.49714  -0.68340643    2.3249857    6.2570351    39.895746 
153384000    286.54155    335.75237    306.22029  -0.70759763    1.4066484    29.532081    39.900823 
153388000    271.07281    311.23038    277.54998  -0.33187004    2.9446164    33.680405    39.896693 
153392000    273.63301    307.53811    305.89795 0.0075064827     1.375998     1.640153    39.899299 
153396000    273.56165    315.85522    289.63516  -0.49879281    1.6243956    26.220055    39.893418 
153400000    261.35487    312.07899    255.41532   0.99721559    3.3776876    56.663669    39.882838 
153404000    277.61967    303.99905    300.80112    1.0680074    1.4378601    3.1979334    39.871712 
153408000    266.95107    297.44375    273.40295   0.87028409    2.5606807    24.040803    39.862959 
153412000    268.41272    314.96609    283.44192 -0.078601071    2.3917259     31.52417     39.85794 
153416000    264.85364    304.08405    280.98628   0.70224118    1.0707142    23.097774    39.844791 
153420000    265.52449    322.84508    266.60438   0.26296631     3.105241    56.240703    39.851785 
153424000    272.16654       324.76    281.92805   0.41387138    1.8296104    42.831956    39.848775 
153428000    279.73918    348.22141    272.04924   -2.0505928    3.4193192    76.172171    39.839718 
153432000    283.53558    332.54753     304.9283  -0.62967507   0.79944779    27.619235    39.840548 
153436000    274.46947    288.92523    298.74049   0.78603682    1.1152332   -9.8152651    39.834623 
153440000    272.58102    328.24755     285.4329  -0.18541648    1.5696449    42.814651    39.831417 
153444000     273.8357    325.00301    288.52821   0.25570246   0.95493894    36.474792    39.824532 
153448000    278.84348    347.56392     273.1349   -1.9658287    1.5791975    74.429024    39.831249 
153452000    276.22943    332.52269    280.70437   -1.7389609    2.0417469    51.818314     39.84849 
153456000     283.5365    342.83772    274.73476   -1.1588818    2.5782357    68.102955    39.848144 
153460000    275.20552    335.36624    283.46657    -1.778453    1.0464113    51.899667    39.842248 
153464000    269.72556    310.39233    280.92927   -1.2153818     2.158556    29.463059    39.831192 
153468000    272.28592    330.86345    270.98259    -1.395094    3.3032398    59.880861    39.826659 
153472000    266.11288    300.51106    277.95563  -0.36571626    1.5275047     22.55543    39.837526 
153476000    269.55157    328.51795     269.7852  -0.69415862    1.9023914    58.732744     39.84181 
153480000    271.75264    334.29945    258.19911  -0.94833134    3.4867128    76.100337    39.841394 
153484000     276.4772    314.01876     293.9593  -0.54115742    1.0016032     20.05946    39.831785 
153488000    280.73296    333.36227    294.55715    -1.323124   0.76004589     38.80512    39.833964 
153492000    266.80052    325.15439    271.64988   -1.3660243    1.6960749    53.504503    39.830037 
153496000    274.71961    331.84284     272.9524   -1.5652366     1.873618    58.890442    39.832874 
153500000    277.01966    308.27612    318.06233  -0.67929161   0.60142993   -9.7862066    39.825704 
153504000    263.31894    302.24757    254.56238   -0.7191339    2.6735662    47.685192    39.813516 
153508000    279.72341    339.88195    286.08165   -2.4284034    2.2656983    53.800296    39.825042 
153512000    277.22157    319.55824    293.60674   -1.4028118    1.5395489    25.951506    39.810036 
153516000    268.72468    333.64128    262.95974   -1.6954264    3.0643043    70.681541    39.798105 
153520000    270.89759    335.30648     278.9488   -2.5360967    2.5634566    56.357674    39.800315 
153524000    275.52803    322.40007    288.23673   -1.3401666    2.7400249    34.163339    39.804821 
153528000    277.25569    326.91341    292.83243   -2.6439792    1.8091781    34.080978    39.816183 
153532000    270.31054    310.82441    285.50302   -1.0480104     2.427979    25.321393    39.827526 
153536000    266.03936    319.37863    260.88563   -1.5452192    3.1057947    58.493008    39.825488 
153540000    273.29713    332.80096    264.69443   -2.2046684    4.2018643    68.106539    39.838234 
153544000     272.4364    329.57252    297.04001  -0.32521137     2.104884    32.532514    39.827203 
153548000     268.5615    331.32179     284.6571   -0.4215043    2.6783645     46.66469    39.833628 
153552000      270.435    343.61051     276.4076   -1.1301698    4.1279962    67.202906    39.841489 
153556000    267.87206    326.14994    284.38762   -1.2234563    2.6947418    41.762321    39.844649 
153560000    278.89556    322.04953    303.21254   -1.7869854    1.2167943    18.836991    39.834383 
153564000    267.78678    306.21218    281.30558    -1.150095    3.8927613    24.906599    39.844361 
153568000    261.79415    300.53486    281.47738 -0.056055459    2.9964848    19.057475    39.837368 
153572000    271.01904    313.63123    300.62813   -1.7467012    1.0194804    13.003097    39.849653 
153576000    276.92709    344.75464     290.5596     -2.09873    2.6085397    54.195033    39.847681 
153580000    278.05448    317.23325    304.38644  -0.87983186    1.9124214    12.846807    39.843507 
153584000    272.11977    330.09515    281.60422   -1.9985035     2.714306    48.490932    39.842789 
153588000    268.07283    308.25318    275.81399  -0.99901654    2.6844215    32.439187    39.844227 
153592000    271.85935    315.67762    292.23993  0.003187686    1.4368285    23.437693     39.84417 
153596000    272.18876    349.95566    265.86893   -2.9522314    3.2479426    84.086736    39.844459 
153600000     269.4107    322.07012    275.79434   -1.6681309    2.5995698    46.275787    39.846107 
153604000    271.33692    323.01067    266.75716  -0.79712098    3.4122781    56.253507    39.844532 
153608000    274.27632    311.54578    286.76734  -0.97421205    2.3144473    24.778433    39.832478 
153612000     265.8629    317.80946    268.90923  -0.77349538    3.4281817    48.900234    39.847226 
153616000    266.38052    291.46499    287.32336    0.1914178    2.1178071    4.1416292    39.841438 
153620000    269.30126    324.84077    264.55054  -0.90617026    2.8636781    60.290227    39.831907 
153624000    262.69479    311.08885    263.55803  -0.76766828    2.9630775    47.530825    39.830983 
153628000    267.18358    313.72949    277.55139   0.64228044    3.1439713    36.178097    39.824385 
153632000    275.90089    317.56076     291.3839   0.36693904    2.7058948    26.176862    39.824665 
153636000     263.6289    302.56271    288.57834    1.0375848      2.27254    13.984373    39.827086 
153640000    267.48267    315.53679    280.32709  -0.98098503    3.0267191    35.209705    39.829758 
153644000    265.99847    328.95098    281.87306  -0.62309709    2.6444824    47.077916    39.835367 
153648000    267.47431     307.8318    285.67407   0.11676693    3.3299353    22.157735    39.835621 
153652000    273.87529    311.12257    287.69378   0.46913954    2.9891261    23.428784    39.835725 
153656000    268.23955    324.85987     279.1286   -1.5684338    3.5363506    45.731264    39.838471 
153660000    272.11368    320.70651    267.95061  -0.17364694    2.4177346    52.755901    39.833106 
153664000    267.36964     309.3574    294.50916   0.62730384   0.95490253    14.848246    39.841263 
153668000    278.12354    324.60696    285.58102   -1.7098273    2.7306876    39.025946    39.850145 
153672000    279.77185    331.76566    305.97169    -1.671951    1.5894138    25.793973    39.852417 
153676000    272.83131    327.94336    289.09932  -0.73733056    1.4802116    38.844046    39.841256 
153680000    274.84515     338.2697    281.61527   -1.3209617     1.648094    56.654433     39.85401 
153684000    266.14722    314.91259    286.17926   0.28862017    1.6047636    28.733325     39.84482 
153688000    282.29367     348.6163    303.72231   -2.9258485    1.6806089    44.893995    39.841226 
153692000    268.18837    309.17234    283.14374   0.56531215     4.027923    26.028596    39.848223 
153696000    264.02008    315.61606    280.40465    1.4616752    3.5428207    35.211407    39.845178 
153700000    274.12947    330.60027    282.50895  -0.48782874    2.8777398    48.091316    39.847322 
153704000    269.68135    287.00264    307.07621    1.0888193    2.1459955   -20.073564    39.832661 
153708000    265.79598    314.94467    256.26191  -0.82054838    4.4756034    58.682759    39.832008 
153712000    272.75086    318.67911    294.20732   -1.5235528    3.0846501    24.471789     39.81742 
153716000    275.19757    329.48386    276.33959   -2.0056039    3.6082381    53.144267       39.833 
153720000    270.54604    289.21338    287.24906    0.2351879    2.4640232    1.9643158    39.822781 
153724000    271.67727    317.71461    295.66343   -1.2076901    1.2714321    22.051184    39.821388 
153728000    263.63609    315.46262    259.28114    -1.267713    3.5865587    56.181476    39.810543 
153732000    286.77257    333.82976     314.5889   -2.7930777   0.78977967    19.240861    39.818382 
153736000    265.20548     315.6515    271.03079   -2.0034515    3.0784533    44.620707    39.841714 
153740000    276.89961    313.58768    280.52988   -1.3444722    1.9313708    33.057798    39.833391 
153744000    271.06985    325.09491    262.07961   -1.3112945    3.6795662    63.015302    39.843855 
153748000    273.18836    301.28225    298.23349  -0.60959318    1.2640944    3.0487574    39.839817 
153752000    273.25557    331.75541    284.47752   -3.9808835    2.6835108     47.27789    39.842633 
153756000    264.51392     290.3527     268.6935   -0.8942339     2.818868    21.659197     39.83171 
153760000    268.76614    329.99426    276.02683   -1.4299703    3.3000983    53.967429    39.833935 
153764000     273.8861    319.61821    290.02993   -1.8497872    2.9774113    29.588274    39.834674 
153768000    261.34855    308.75877    270.03277   -1.2868081    3.7698418    38.725994    39.836632 
153772000    277.07321    311.01463    292.04349   -1.1898009    2.5023583    18.971133    39.834896 
153776000    272.36067    315.81542    287.68727   -2.0415006    3.2231603    28.128143    39.829732 
153780000    266.66775    317.46569    268.32569   -2.6820948    3.4380236    49.140001    39.829653 
153784000    266.86197    313.12466    275.19482  -0.37059353    3.0511097    37.929837    39.832209 
153788000    285.58825    364.01663    287.79055   -3.3877279    2.4971924    76.226079    39.831257 
153792000    274.48875    317.56753    284.19553   -2.4004883    2.4324855    33.371992    39.836054 
153796000    269.78813    307.62047    295.33819  -0.99548744    1.5895158    12.282272    39.835987 
153800000    272.55261    312.70464    285.31087   -1.6433542    2.0586873    27.393775     39.82865 
153804000    281.59146    338.83335    280.94524   -2.9526377    2.1306049    57.888106    39.818386 
153808000    280.38907    353.76711    273.95551   -3.7794475     2.733084    79.811594    39.812737 
153812000    268.84363    324.43817    257.28087   -1.2042484    4.0982759    67.157296    39.811286 
153816000    272.88632    311.21736    284.27171    0.1249587    1.9972921    26.945652    39.811811 
153820000    279.98127    326.18931    281.30334   -2.1421307    2.2082005    44.885975    39.818307 
153824000    285.66727    341.94831    301.53774   -2.2310825   0.81823561    40.410568    39.821651 
153828000    283.19625    336.10514    295.46104   -2.9632435    0.8671667    40.644094    39.823974 
153832000    278.69675    323.25576    277.75102   -1.8479003   0.48120088    45.504742    39.829243 
153836000    283.62163    332.30537    287.66997   -1.3906113    1.2601026    44.635404    39.827484 
153840000    276.82323    330.27626    277.24462   -2.6763171    0.2582421    53.031647    39.835839 
153844000    277.80567    324.81104    277.27589   -2.6760504    1.6134217    47.535143     39.84071 
153848000    282.20834     317.8657    265.63532   -1.4545439    2.8002131    52.230374    39.843365 
153852000    280.70993    327.13267    289.69759   -1.9043491    1.6748007    37.435077    39.850642 
153856000     266.4376    293.58236    270.20663  0.053619706    2.6846933    23.375729    39.841903 
153860000    283.64168    345.52244    288.82137   -1.0730489    1.5784255    56.701068    39.837567 
153864000    276.85503    336.04545    283.81996   -2.6531433    1.2153669    52.225484     39.83666 
153868000    282.43041    325.41077    304.07009    -2.876072  -0.18435735    21.340678    39.845366 
153872000    270.82528    308.98693    268.20509   -1.5302235    2.0076607     40.78184     39.84487 
153876000    274.59557    325.22764    271.45763    -2.372772    1.6882048    53.770007    39.852988 
153880000    275.24009    325.95704    264.59428   -1.6456035      1.92972    61.362757    39.847537 
153884000    272.50104    317.38088    283.26098   -1.0130583    2.3370949    34.119896    39.854177 
153888000    275.77435     304.2863    274.88429  -0.54463349    1.4123698    29.402003    39.852124 
153892000    279.42638    321.89571    280.52383  -0.89466109    1.7727635    41.371885    39.851241 
153896000     279.7589    352.64945     273.7077   -2.4317474    2.1299499    78.941756    39.856478 
153900000    277.30661    317.74578    275.31246  -0.25697493    1.8365825    42.433317    39.861448 
153904000    286.38682    331.06164    301.03894   -2.1221979   0.42582806    30.022695    39.866134 
153908000    282.24165    321.07474    276.03245  -0.95373882    1.0084907    45.042282     39.86442 
153912000     274.5929    324.14181    269.14876   -1.4577773    2.0707308    54.993042     39.85719 
153916000    280.85551    321.15261    289.64032   -1.1786781   0.88454382    31.512292    39.859974 
153920000    282.13987    334.55332     258.1756    -2.639729    2.3354943    76.377725    39.868963 
153924000    281.55414    330.60856    281.69707   -2.5335032    1.0827405    48.911489    39.882543 
153928000     280.9319    322.06325    299.84883   -1.4384378  -0.44769885    22.214421    39.881716 
153932000    270.67238    291.29366    293.83217   0.23524898    1.2678122   -2.5385037    39.873554 
153936000    271.76192    317.95077     257.9797   -1.2980153    2.9724087    59.971073    39.866868 
153940000    285.41639     340.7921    281.49058   -2.5167348    2.4402319    59.301516    39.872246 
153944000    281.75659     324.9484    288.28521   -1.8804016    1.8021671    36.663193     39.86499 
153948000    279.18645    323.55214    271.45971   -2.2279838     1.305268    52.092429    39.871537 
153952000     268.0678    317.82743    267.12888   -2.1549188    1.7832805    50.698555    39.876849 
153956000    275.31206    297.48033    290.52231   0.24790534    1.4422832    6.9580195    39.882216 
153960000    274.75898    323.58208    280.48029   -2.7078428    2.7848374    43.101793     39.88741 
153964000    268.72924    327.54692    252.52109   -2.2523073    2.6109756    75.025826    39.899255 
153968000    278.51476    322.44298     279.8238    -2.631692    2.5812537    42.619186    39.901785 
153972000    276.36925    312.23402    290.22862   -1.0714094    1.4920751    22.005397    39.910751 
153976000    279.46293    318.68741    292.18109   -1.0493947    2.3024827    26.506321    39.913446 
153980000    262.89354    322.16869     252.2942   -2.6764898    4.1619115    69.874492    39.918281 
153984000    280.90572    326.40279    299.13095   -2.6181673    1.5845691    27.271835    39.912502 
153988000     276.5476    323.89556    283.97857   -1.1132491    2.3280356     39.91699    39.916333 
153992000    275.91593    320.70638    275.03985   -1.3537023    2.8447885    45.666527    39.915806 
153996000    268.60894    309.23503    278.47497    -2.080409    4.1564467     30.76006    39.925136 
154000000    269.44511    327.83446    281.97165   -3.2387255    3.2121838     45.86281    39.926013 
154004000    278.87665    316.85992    289.22618   -1.5413554    2.0609205    27.633745    39.922079 
154008000    275.41874    303.27934    273.49053  -0.33968271    1.7179199    29.788807    39.923813 
154012000    267.09323    310.49622    261.45028   -0.2725983    4.1973489     49.04594    39.930382 
154016000    268.84508    316.31506    265.53769  -0.75479404    3.7276502    50.777378    39.928632 
154020000    268.64623    318.01318    274.36347  -0.45108846    3.5543074    43.649712    39.934454 
154024000    273.01022    329.35435    276.32922   -1.6845993    3.4435201    53.025129    39.939029 
154028000    268.66616    327.76014    267.78029  -0.39749125    3.8143785    59.979851    39.939616 
154032000    265.53927    288.03681    274.70316  -0.13132428    3.7441344    13.333657    39.936392 
154036000    275.73351    321.33866     265.1094  -0.89305009    4.6469642    56.229257    39.949461 
154040000     278.2175    329.07351    290.26248   -3.0356754    3.1389619    38.811031    39.947384 
154044000    277.81779    337.13259    274.57041   -3.1076564    3.7529765     62.56218    39.953236 
154048000    268.13477    310.14767     268.4943   -1.9854821    5.1582136    41.653373     39.94867 
154052000    277.44109    343.32223    278.06556   -3.3929713    3.9476034    65.256662    39.955959 
154056000    262.71067    304.31234    267.63101   -1.7332889    4.3268841     36.68133    39.956718 
154060000    272.46293    329.88983    290.26963   -2.3189335    2.6642344    39.620206     39.96034 
154064000    273.73342    327.07807    291.64566    -1.379521    2.4624624    35.432415    39.965507 
154068000     276.5511    318.99126    284.39479   -2.0465364    1.2452802    34.596468    39.963406 
154072000    270.53947    308.74039    274.25741  -0.78979614    2.6207832    34.482983    39.964604 
154076000    273.52464    333.17207    269.28903   -2.1768679    3.4379843     63.88304    39.970283 
154080000    263.16056    298.95532     265.9632   -1.6956601     3.644293    32.992123    39.980022 
154084000    265.96339    312.07402    273.44942   -1.3664954    3.5999811    38.624593    39.975633 
154088000    279.41988    322.67372    321.12414   -2.1844905   0.59946884    1.5495816    39.974152 
154092000    270.26146    324.56409    265.83268   -2.8349739    3.9272457    58.731411    39.978699 
154096000    269.77219    296.43388    282.73093   -1.0685641    2.2339462    13.702948     39.98266 
154100000    272.35635    316.82583    274.70536   -1.7519214    3.1335437    42.120472    39.986603 
154104000    270.32206    291.62126    280.27978   -1.2263128    3.1982152    11.341483     39.99201 
154108000    271.61414    315.39403    272.00064   -2.4663688    3.7128037    43.393399    39.981872 
154112000      269.566    333.50042    271.89395   -1.1904734    3.1650077    61.606465    39.983188 
154116000    276.38274    336.44327     280.7743   -2.4560792    1.5652924    55.668965    39.984859 
154120000    277.75639    317.51399    281.40199   -1.8261225    2.3273629    36.112004    39.978246 
154124000    265.84494    314.28918    274.38562   -1.8019651     3.542178    39.903558    39.981627 
154128000    278.36183    334.46037    275.63148   -2.2853392    2.8688225     58.82889    39.987068 
154132000    275.45311     330.4635    294.00831   -2.1157989    1.1555151    36.455192    39.982276 
154136000    265.37882     325.8927    266.64191 -0.094127023    3.4877196    59.250787    39.973562 
154140000    261.77665    320.99469    264.67193  -0.69790924    4.2459937    56.322755    39.965567 
154144000     277.0024    327.91639    281.32653    -2.539898     3.756262    46.589863    39.960494 
154148000    271.91321    317.33117    277.79496   -2.4204551    4.4085146    39.536202    39.959099 
154152000      267.655    304.96911    282.53822   -1.1743758    3.3762595    22.430889    39.955399 
154156000     268.9444     312.2195    283.24317  -0.40578109    3.2361405     28.97633    39.956412 
154160000    273.29608     322.6099    296.91504   -1.5597989    2.6280119    25.694856    39.964747 
154164000     270.5687    329.39388    262.95342   -1.7347689    4.7532705    66.440464    39.967342 
154168000    271.08403     318.5038    283.42369    -1.885141    4.5680463    35.080109    39.965175 
154172000    266.17126    325.17003    267.52262   -3.2955318    4.2832423    57.647402    39.963656 
154176000    269.59571     309.5577     293.6282   -1.7917105    2.9646658    15.929499    39.959015 
154180000    277.24205    321.35739    282.43166    -2.805044    2.8089665    38.925735    39.963623 
154184000    274.43824    322.57685     278.9576   -2.2780728    3.5274509    43.619254    39.962525 
154188000    273.06722     308.7736    313.88276  -0.99099532    1.4383164   -5.1091671    39.951466 
154192000    276.41136    326.05849    285.63337   -2.2191836    3.1810359    40.425118    39.960969 
154196000    271.99092    301.76392    291.32468  -0.32074995    3.4061522    10.439243    39.957066 
154200000    273.30807    313.78012    273.22388   -1.1849224    4.5432849    40.556241    39.956357 
154204000    275.10221    292.09287    293.49203   -1.6847024    3.1088309   -1.3991561    39.952943 
154208000    277.93139    344.43094    283.91664   -3.7425736    2.6337327    60.514301    39.966399 
154212000    265.13169    303.63908    274.65061   -2.4351049    4.2277299    28.988466    39.952809 
154216000     279.9692    332.67975    285.22451   -3.9946272    3.5156996    47.455239    39.952448 
154220000    266.47181    305.91415    262.65321    -3.941937    4.2186094    43.260941    39.953784 
154224000    273.94071    301.59233     289.3573   -1.9728381    3.2142675    12.235033    39.946964 
154228000    271.51001    340.26605    257.14167   -4.5997148    4.6813188    83.124377    39.944756 
154232000    267.18193    309.00352    282.34645   -2.6621321    2.5679816    26.657076    39.942539 
154236000    275.73322    327.87803    270.65378   -2.9481809    4.9321798    57.224253    39.941527 
154240000    276.61548    343.19001    267.98607   -4.0980174    5.1506473    75.203943    39.957216 
154244000    270.77704     315.1915     264.0688   -2.4398229    4.8810539    51.122698    39.957831 
154248000    269.41245    318.48781    279.82273    -1.865546    4.1079654    38.665082    39.963668 
154252000    269.03757    312.90926    269.06965   -1.8526753    4.3208936    43.839616    39.966812 
154256000    280.23004    323.97377    289.20656   -3.3927278    3.9048664     34.76721    39.968607 
154260000     271.6941    320.70906     276.9181   -1.9940136    5.1392618    43.790965     39.97308 
154264000    274.66409    331.35754    276.92668   -1.9619934    4.3264188    54.430857    39.972452 
154268000    278.35218    337.06407    287.62541   -3.3134101    5.0388303    49.438662    39.973568 
154272000    268.56787    304.65431    272.73484    -2.957765    5.0935566    31.919471    39.972852 
154276000    275.52077    332.72182    260.94706   -3.2967291    5.0004382    71.774753    39.972252 
154280000    275.01973    322.31278    281.72145   -3.3237342    3.9461014    40.591323    39.964794 
154284000    271.07964     286.5481    291.40476  -0.68499867    2.6511011   -4.8566598    39.964421 
154288000    277.61784    329.73807    285.65051   -3.9205092    4.6811719    44.087555    39.961448 
154292000    276.18402    323.56735    270.42218   -3.5785779     4.634049    53.145169    39.962877 
154296000    281.95978    315.65179    308.36936   -3.0334221    2.8342121    7.2824247    39.973752 
154300000    273.78719    309.39859      284.889    -3.682625      3.29867    24.509588    39.980374 
154304000    278.45861    327.81131    291.38342   -4.5300597    3.7256872    36.427892    39.982165 
154308000    275.81405    323.69909    270.99699    -4.482242    3.2544025    52.702107    39.975554 
154312000    278.38928    321.19388    277.91049   -4.2911046    3.5888251    43.283398    39.973339 
154316000    264.74561    288.22845    277.62683   -2.9386392    4.3678548    10.601624    39.971422 
154320000    271.95398    314.77988    281.13344     -3.33725    4.7358671    33.646446    39.976644 
154324000    269.85695    314.74818    276.38262   -3.5804926    5.2299471    38.365569    39.980314 
154328000    271.15175    322.26823    255.73987   -3.0813306    5.5175394    66.528352    39.974707 
154332000    268.73558    316.99263    274.12985   -2.5386205    3.9616153     42.86278    39.977211 
154336000    273.90804    313.85139    279.01165   -2.9793152    4.4472456    34.839748    39.977528 
154340000    278.49831    319.67059     290.4474   -2.5063868    4.8916038    29.223194    39.976176 
154344000    278.72047    349.82869    269.22416   -4.1836926    5.0569303    80.604534    39.979673 
154348000    271.87742    333.53814    277.03182   -2.5319919    4.0152992    56.506314    39.979485 
154352000    275.55511    345.09446    275.05657   -4.6930257     4.287886    70.037887     39.97457 
154356000    267.68484     334.3883    274.10071   -4.1752155    4.7526017    60.287585    39.971022 
154360000    270.92563    336.78461    260.70849   -3.5247004    5.1362691    76.076122     39.97883 
154364000    267.14417    322.36577    282.40326   -3.3424207    5.0560813    39.962517    39.985963 
154368000    274.00401     323.0693    285.19899   -4.6437903    5.2666079    37.870308    39.977005 
154372000    275.60524    309.65916    300.74369   -3.9547174    4.1610259    8.9154726     39.96483 
154376000     275.3482    335.45463    258.30654   -4.9954902    5.9379857     77.14809     39.95965 
154380000    263.31105    299.77984    249.81557   -2.4659905    7.0417345    49.964267    39.962776 
154384000    270.75333    325.54825    288.90452   -4.4826912    4.1324844    36.643737    39.961004 
154388000    267.33082    326.65961    275.69987   -3.2254516    4.6766874    50.959735     39.95642 
154392000    274.85233    315.86401    280.46352   -1.8267378    4.6488989    35.400489    39.950365 
154396000    271.50812    324.72755    269.51755   -2.8767353    4.9476996    55.210003     39.95583 
154400000    277.56735    344.08728    276.52389   -4.6000709     4.255002    67.563383    39.956047 
154404000     271.0535    330.13323    271.32302   -4.0396763    5.3323807    58.810214    39.967367 
154408000    271.73346    320.15211     291.6961   -4.4921539    3.2835598    28.456006    39.968346 
154412000    277.99331    324.10306    286.44896   -3.7243129    5.0435495    37.654097    39.967191 
154416000    278.18715    322.98316    293.33235   -6.0313173    4.2268171    29.650812    39.973065 
154420000    265.51075    304.75561    271.53842   -4.8685144    4.7577891    33.217196    39.974251 
154424000    268.06364    307.94518    282.83322   -4.8252323    5.0503281    25.111961    39.977168 
154428000    285.12311    346.50478    290.22479   -5.8604236    3.9545624    56.279989    39.978548 
154432000    271.10284    329.20842    264.06383   -6.1049283     4.892047    65.144594    39.981182 
154436000    275.61331    327.88196    299.45728   -4.4935245     2.273419    28.424688    39.983046 
154440000    286.48879    340.79017    288.81994   -5.9179044    5.0909611    51.970231    39.987538 
154444000    275.03275    304.05248    274.38408   -4.6658635    4.6804884    29.668399    39.987528 
154448000    280.76485    338.96701    285.23018   -3.6828869    3.6346627    53.736834    39.993652 
154452000    281.66256     339.3675    262.93954   -4.1943189     5.047519    76.427969     40.00163 
154456000     286.5664    333.39161    283.86989   -5.1488263    4.1573434    49.521722    39.999039 
154460000    276.41864    318.71212    277.19213   -4.6489672    3.9957246    41.519985    39.990779 
154464000    273.76417    306.15457    301.74169   -3.0473204    3.4718278    4.4128777    39.985816 
154468000    282.82958    332.01184    295.86957   -5.4822936    3.8667102    36.142264    39.985812 
154472000    273.71155    304.85167    298.11698   -4.4094843     4.465726    6.7346867    39.981492 
154476000    278.31255    326.04382     274.3291   -4.0136429    4.6632635    51.714721     39.98262 
154480000    275.51924     309.3797    288.90944   -3.7520137    4.3689685    20.470261    39.979925 
154484000    275.24171    336.21365    267.23678   -4.7832384    5.3434413    68.976868    39.975162 
154488000    277.84594    319.83993    315.82051    -4.196996    2.9499638    4.0194239       39.979 
154492000    272.20152    310.52632    287.06012   -4.1925702    4.3559295    23.466203    39.977688 
154496000    267.01185    290.48389     286.0009   -1.9103606    3.6598089    4.4829888    39.976818 
154500000    278.18505    330.26805     289.2187     -5.83034    4.7148035    41.049342     39.96976 
154504000    274.60379     337.6379    282.99846   -5.6451312    5.1057298    54.639436    39.974387 
154508000    266.80428    315.16143     266.4952   -3.9548834    5.1339934    48.666225    39.970854 
154512000    273.67536    314.94702     275.5245   -4.0768766    5.4528776    39.422523    39.975818 
154516000    263.41188    308.78815    248.37541   -3.4439001    6.9086651    60.412747    39.974488 
154520000    280.69502    337.42439    283.10073     -6.62829    5.1041832    54.323654    39.969557 
154524000    275.59192    308.77515     299.0515   -4.9820426     4.258424    9.7236469     39.96218 
154528000    275.77359    315.30086    275.06345   -4.2398896     5.313247    40.237409    39.950734 
154532000    281.26361    348.91088    288.76451   -6.3617205    6.3694602    60.146369    39.952547 
154536000    277.76371    324.32022    283.46316   -4.6612335    5.1104194    40.857066    39.953871 
154540000    272.38333    315.91175    283.63144   -5.3028633    5.5370542    32.280308     39.96407 
154544000     276.6231    347.84185    286.40485   -6.4354002    5.6724764    61.437004     39.96759 
154548000    276.94001     328.2218    286.49303   -5.3076208    4.9391128    41.728767    39.975531 
154552000    275.24967    308.33155    291.81912   -3.8572454    5.5877044    16.512434    39.971222 
154556000    277.18153     316.9647    294.67071   -5.0553556     3.678558    22.293989    39.971898 
154560000    277.18295    315.23764    279.58376   -5.8342315     4.908937    35.653879    39.973518 
154564000    280.88861    321.91671    298.87965   -5.5497039     3.043905    23.037058    39.964801 
154568000    281.84771     336.2359     282.6562   -6.1277496    3.8011467    53.579696    39.967599 
154572000    279.73965    353.69209    285.88032   -6.5679322    4.7957296    67.811768    39.969823 
154576000    268.81549    307.24519    281.07658   -4.7759408    4.2856833    26.168607    39.967728 
154580000    272.01383    340.16269    271.60549   -5.8625317    4.3537569    68.557199    39.968576 
154584000    272.55028    326.75466    281.68247   -4.1952635    4.2526692     45.07219    39.970105 
154588000    273.15462    323.15981    278.31268   -5.5823534    5.1056785    44.847134     39.97703 
154592000    279.38612    320.57591    301.05004   -3.3769792    4.1959427    19.525864    39.973406 
154596000     273.6904    326.70428    267.81643   -3.2457677    4.0827991    58.887852    39.976021 
154600000    273.34907    310.84897    296.16359   -3.3394591     4.295445    14.685382    39.976543 
154604000     274.5267    326.64708     284.0212   -4.1485905    4.4289854    42.625889     39.97869 
154608000    269.70081    307.17476    269.81701   -4.3029944    3.7959718    37.357757    39.978734 
154612000    268.06101    321.59016    257.84529   -4.1314135    5.5129375    63.744871    39.984593 
154616000    258.05139     290.9737    263.00559   -2.4438751    4.7316752    27.968108    39.986646 
154620000    270.98593    317.47691    289.38803    -2.556725    4.0903052    28.088879    39.990541 
154624000    272.40747    313.04175    279.24795   -2.2612084    4.8510342    33.793797    39.994819 
154628000    277.26564    328.93109    288.99042   -3.0847981    4.5833342     39.94067    39.994812 
154632000    276.05646    317.77273    273.41482   -3.4215307    4.7530695    44.357902     39.99305 
154636000    272.36111     305.4926    294.64157   -1.7809476    3.6055137    10.851027    39.987823 
154640000    275.68556    326.57301    286.07335   -3.6656327    4.0729247    40.499658    39.983831 
154644000    267.12334    312.99498    270.97298   -3.3289297    5.4967814    42.021991    39.987089 
154648000    263.74489     303.3959    266.70403   -2.7021736    5.2729907    36.691874    39.990498 
154652000    267.95518    335.98319     268.3769   -3.2112934    5.9290116    67.606292    39.987427 
154656000    267.90065    328.78069    264.97032   -3.8541967    5.5776746    63.810377    39.987553 
154660000    276.53662    310.81998    297.51124   -2.2965336     4.252287    13.308737    39.984824 
154664000    269.07797    306.46853    282.42942   -2.7201816    5.5601371    24.039116    39.979704 
154668000    273.75752     339.0734    288.01666   -4.7407961    4.8103444    51.056745    39.989589 
154672000    266.67106    307.35301     277.8085   -4.1055106    5.5287827    29.544503    39.993294 
154676000    272.80968    335.46025    286.01838   -5.6902583    4.3039961    49.441874    39.995234 
154680000    279.86427    323.44997    298.84086   -4.8331611    4.1576491    24.609113    39.993384 
154684000    273.88541    325.44222    274.40377   -4.4576998    5.6457146    51.038447    40.000581 
154688000    283.11778    329.06004    298.40441   -5.3401186    3.7936655    30.655639    40.002752 
154692000    279.25662    328.99268    290.25938   -4.4288434    4.3852103    38.733296     40.00725 
154696000    276.30858    302.15728    302.28691   -4.0118249      4.87648  -0.12963273    40.007044 
154700000    266.75152    320.51851    284.02895   -5.4693707    5.3361475    36.489565    40.014447 
154704000    277.67103    322.11823     285.0441   -4.9417136    3.8982733    37.074136    40.008186 
154708000    280.25831    326.19832    286.82365   -6.0855462    3.8940219    39.374674    39.999795 
154712000    273.95469    301.63583    280.99941   -4.4959985    5.5871109     20.63642     40.00295 
154716000     282.1536    323.26058     278.6699   -5.5246997    4.7962647    44.590681    40.003136 
154720000    282.23531    337.47854    295.48248   -6.2534065    3.8346066    41.996057    40.007686 
154724000    276.40578    316.50804    261.13045   -5.5949411    4.7359314    55.377588    39.999422 
154728000    271.21642    308.41305    286.53593    -5.349745    3.6532597    21.877114    40.009036 
154732000    283.49896    336.98398    284.90134   -6.6341912    4.7872285    52.082645    40.014177 
154736000    274.80726    339.67817    271.38493   -7.1229031    5.7784724    68.293242    40.011163 
154740000    276.16702    309.65454    279.05194   -6.1306665    4.8818746      30.6026    40.005891 
154744000    287.49697    333.37904    297.84497   -7.1146111    4.2636015    35.534067    40.009295 
154748000    280.81699    317.30643    287.74906   -6.3936314    3.7328917    29.557369    40.007529 
154752000    278.39581    303.55655    284.59557   -3.7455217     5.357071     18.96098    40.006821 
154756000      280.983    335.59986    268.34859   -5.7410045    4.7970873    67.251271    40.006213 
154760000    284.26303    366.21842    264.55218   -6.2517332    5.2174075    101.66624    40.006157 
154764000    283.98542    346.89737    279.61791   -6.9806194    4.6275269    67.279456    40.007027 
154768000    281.33546    332.94038     296.4902   -5.7158803    4.5652371    36.450177    40.013301 
154772000    289.61803    336.38173    288.15158   -7.2649112    5.7657586    48.230144    40.015863 
154776000    279.74072    317.42605    289.94214   -5.9107122     5.901953     27.48391    40.015445 
154780000    273.43082    311.35637    289.62022   -6.2676435    4.8339265    21.736143    40.011463 
154784000    271.17031    312.28168    277.50072   -5.0865771     5.489755    34.780954    40.013361 
154788000    269.11753    318.57835    260.14924    -5.806636    6.6948098    58.429105    40.013462 
154792000     276.2261    328.71584    271.30404   -5.7526102    5.7792992    57.411799    40.018007 
154796000    279.60304    332.82324    283.40764    -7.084219    5.1821351    49.415592    40.019415 
154800000    274.49174    319.83956    275.77463   -5.4024248    5.8507803    44.064922    40.013221 
154804000    272.29993    300.71634    281.58716   -4.5142502    5.8766736     19.12918    40.014689 
154808000    281.33866    352.92913     274.8102   -6.6825395    5.5171474    78.118935    40.013205 
154812000    279.51233    333.84062    283.72493   -5.7028616    6.0249077    50.115683    40.010793 
154816000    272.37228    321.27722    270.28891   -4.9820949    5.7114364    50.988306    40.014084 
154820000    261.58065    298.56236     273.6328   -3.2663755     4.893574    24.929558    40.019936 
154824000    272.44128    329.91699    261.03601   -5.0827082    6.8389772    68.880986     40.02347 
154828000     270.7663    330.80769    276.98124   -4.1118861    6.0576583     53.82645    40.029891 
154832000    272.55135    320.80453     285.6681   -4.6822314     5.357957    35.136435     40.03464 
154836000     268.2859    301.99071    272.57517   -3.0060153    5.6126738    29.415534    40.030122 
154840000    269.14485    301.51689    271.63792   -2.2545345    5.3026774    29.878974    40.032014 
154844000    272.44097    326.65501    265.25679   -4.9336386    6.2668887    61.398228    40.033836 
154848000    269.78718     322.8367    257.71911    -4.946372    5.8147885    65.117588    40.034015 
154852000    272.15578    299.53557     297.5145   -3.8004687    4.1992356    2.0210724    40.033244 
154856000     271.3207    322.00825    276.47075   -4.4368799    5.9429414    45.537496    40.034261 
154860000    276.99116      336.515    279.41007   -5.4499972    5.4015208    57.104926    40.034974 
154864000    267.92392    313.38333    266.76067   -3.4761045    5.4623412    46.622662    40.034346 
154868000    276.87663    328.83017    283.41662   -4.2664707    4.7711089    45.413556    40.026718 
154872000    279.39307    310.29863    292.52545   -4.1278955    3.5149073    17.773179    40.025252 
154876000    270.18485    305.98549    272.45116   -4.7828186       4.6274    33.534335    40.027858 
154880000    278.66522    326.24739    285.59385   -4.5256228    4.2978407    40.653537    40.030685 
154884000    278.00116     333.8949    279.89811   -5.6667778    4.6561866    53.996789    40.024692 
154888000    285.90575    334.33537    293.21762    -4.595253    3.9000619    41.117748    40.022757 
154892000    279.77621    321.72624    284.50137   -5.5121563    3.7060373    37.224873     40.02506 
154896000    277.43997    340.88038    289.34364   -4.8276975    4.1445448    51.536736     40.02745 
154900000    282.24483    351.53391    280.43757   -6.3828779    3.3283421    71.096341    40.025972 
154904000    272.44688    319.63548    254.56783   -4.7608363    5.2615408    65.067642    40.022279 
154908000     276.6232    320.83823    284.52441   -4.7406309    3.4186246     36.31382    40.023732 
154912000    264.65877    305.17435    269.74924   -2.9865268    4.6147365    35.425105    40.027963 
154916000    270.61073    314.05287    266.26433   -4.4457788    5.6244611    47.788545    40.033346 
154920000    279.17577    317.91623    290.66945   -4.9715725    4.6095092    27.246772     40.03705 
154924000    281.79143    329.61478    281.48351   -5.5332817    4.1146279     48.13127    40.033223 
154928000    269.53813    316.80893    264.87526   -3.0968405    6.1305877    51.933673    40.035266 
154932000    278.10076    329.69098    275.26779   -3.7873702    5.4871198    54.423183    40.036584 
154936000    272.66491    326.36172    268.63669   -5.0092865    5.3553274    57.725026    40.033512 
154940000     265.0699     320.4318    260.89135   -3.1350548    6.1665432    59.540452     40.03785 
154944000    272.86646    312.66297    292.99901   -3.3227311    4.7156346    19.663959    40.031611 
154948000    277.63402     320.3376    300.82594   -3.9153182    4.1936247    19.511661    40.031127 
154952000    267.55446    303.57818     269.5305   -2.6876867    5.8033892    34.047674    40.032556 
154956000     280.8241    333.02766    291.74906   -4.0588295    4.9367993    41.278602    40.036187 
154960000    271.61553    312.77399    289.30115   -3.4146182     4.898333    23.472845    40.039302 
154964000    270.17024    319.34005    286.76345   -4.7020192    6.3138349    32.576595    40.040984 
154968000    277.95198    346.50036    282.27199   -5.8449695    6.0727985    64.228364    40.044248 
154972000    268.70398    325.01758    286.58732   -3.5382135    6.8582353    38.430257    40.046902 
154976000     264.4437     303.1955    276.83887   -3.3701157    7.2234059    26.356625    40.044964 
154980000    273.41879    331.66332    282.12565   -5.3283963    5.8924461    49.537667    40.042687 
154984000    275.83486    327.38149    290.73484    -4.162572    5.3432679    36.646653    40.045851 
154988000    278.31257    310.98474    292.17891   -2.9798716    5.6958938    18.805835    40.040086 
154992000    271.24105    322.81291    280.11579   -4.7538939    5.5091009    42.697116    40.041979 
154996000     266.0076     298.0931    288.30678   -3.5589412    5.0905076    9.7863279    40.045929 
155000000    276.80397    327.81704    284.70916    -4.503774    5.0049262    43.107879    40.050875 
155004000    277.56358    315.46581    283.63714   -3.6981991    6.0309227    31.828674    40.047787 
155008000    268.55455    306.84503    286.08997   -2.3569252    5.8683079    20.755064    40.040522 
155012000     275.0164    333.61914    283.05093   -5.3647145    4.8923604    50.568212    40.042908 
155016000    275.63991    321.04014    293.36827   -3.1765938    5.1372496    27.671862    40.042484 
155020000    279.81133    324.16134    286.57672   -3.1124151    5.9303264    37.584621    40.036981 
155024000    270.13809    326.01221    279.31763   -3.5453799    6.0715771    46.694587    40.036293 
155028000    277.34604    330.76924    271.57106   -4.7236859    5.6143801     59.19818    40.034288 
155032000    269.84979    307.75512     272.4177   -3.4422768    5.6356139    35.337423     40.03509 
155036000     273.0031    304.66988    297.47183   -2.9159825    3.8401255    7.1980499    40.033729 
155040000     269.7761    327.11221    256.81397   -4.0358003    6.1985118    70.298241    40.033526 
155044000     273.9925    342.33647    263.66788   -3.9122618    5.8528475    78.668592    40.040118 
155048000    264.86756    313.04654    269.64916   -3.3092947    5.9991846    43.397377    40.036869 
155052000    273.49498    319.18035    289.49509   -2.5536784    3.8867038    29.685262     40.03181 
155056000    268.48734     315.3905    275.23299   -3.1689359    5.2361724    40.157508    40.028515 
155060000    274.77577    315.05728     284.8544   -4.3636194    4.9787861    30.202883    40.028255 
155064000    273.18376    306.31694    295.69908    -4.030643    4.2624631    10.617862     40.03094 
155068000    283.59611    341.39931    321.24203   -6.4118873    3.9351899    20.157285    40.027586 
155072000    270.52845    324.60214    266.69164    -5.214019    5.1530429    57.910503    40.029067 
155076000    267.78545    304.39053    281.13059   -4.3485528    4.9515322     23.25994    40.020683 
155080000     272.7767    300.03097    300.52125   -4.4331304    5.8810694    -0.490281    40.019727 
155084000    279.46232    321.44749    297.43704   -5.2296654    5.2891739    24.010442    40.020942 
155088000    277.49737    321.41636     296.2839   -4.3348085    5.3420693     25.13246    40.021489 
155092000    273.96509    321.58455    292.17279   -5.6523671    5.8339443    29.411763    40.026132 
155096000    276.79398    325.45869    294.25549   -6.5956248    5.2798167    31.203202    40.029858 
155100000    270.34226     328.4481    279.17471   -5.1809021    6.4122358    49.273385    40.030633 
155104000    277.18216    320.23267    274.53132   -5.0400917    5.2898213    45.701348     40.01733 
155108000    278.61358    321.10261    283.29318   -4.3642678    4.8609577    37.809425    40.018904 
155112000    281.07429     338.2716    288.49039   -5.5466249    5.4029321    49.781204    40.016534 
155116000    278.33568    322.55554    291.11439   -5.4469726    5.9934121    31.441149    40.014208 
155120000    276.91787    323.14469    276.79641   -5.2950042    6.1778369    46.348278    40.011749 
155124000    271.92679    310.72383    285.16663   -5.6025626    5.5799118    25.557193    40.015411 
155128000    280.67222     318.1042    286.73789   -4.9734052    5.4411172    31.366308     40.01245 
155132000    275.92505     323.7212    282.04068   -4.8795379    4.7431711    41.680526    40.014511 
155136000     274.1352    320.64606    270.40002   -4.8627172    6.0534694    50.246039     40.01123 
155140000    273.77627    314.22423    287.73579   -4.8231641    5.3221932    26.488435    40.013336 
155144000    282.70652    325.24525    288.76958   -5.7816922    5.5120949    36.475672    40.012447 
155148000    275.68431    325.77978    284.22355    -6.054994    5.8566294    41.556227    40.018613 
155152000     277.2193    325.39805    292.68565    -6.010225    6.4632593    32.712405    40.011005 
155156000    264.54547    314.23296    255.69207   -4.7623323    8.2953886    58.540889    40.011105 
155160000    264.36833    312.28657    267.15369   -3.9314165    7.3519213    45.132882    40.010362 
155164000    268.54943    315.44061    276.60445   -4.0394673    7.2196907    38.836166     40.00716 
155168000    264.57232    317.73135    272.86215   -4.2331148    7.7956396    44.869201    40.017421 
155172000    273.83145    309.42185    296.93156   -3.5718322    6.1155999    12.490288    40.018435 
155176000    277.57616     331.7548    295.42671    -5.514506    6.5691476    36.328093    40.019136 
155180000    278.88295    329.35618    280.88453   -4.6150965     6.304079    48.471654    40.024474 
155184000    269.86061     313.4965    290.97347   -5.1043794    6.3512972    22.523032    40.028494 
155188000    271.21061    312.82726    284.71344   -4.0129625    8.2021288    28.113822    40.025655 
155192000    274.55026    304.28727    289.62171   -3.9041026    6.2335603    14.665556    40.019256 
155196000     270.7112    337.72092    279.05109   -6.0589574    5.8021543    58.669826    40.021218 
155200000    279.29279    335.54889    287.84025   -5.1952257    5.9300283    47.708642    40.018894 
155204000    267.06468    309.37008    285.28703   -5.0506802    5.9051865    24.083041    40.010985 
155208000    270.18701    319.41006    263.73889   -5.1690337    6.5295224    55.671168    40.013675 
155212000     268.1408    313.66326    274.60351   -4.0581408    5.8506774    39.059747    40.010426 
155216000    284.20734    358.26365    311.10926   -7.0693512    3.0909328    47.154395    40.010161 
155220000    275.69036    291.31503    283.59479   -3.4791885    5.7675332    7.7202402    40.012806 
155224000    279.89933    325.56826    307.93635   -4.8843936    3.6807894    17.631901    40.013705 
155228000    280.53766    351.55755    274.24294   -5.6031311     6.260874    77.314611    40.020346 
155232000    270.21572    315.97091    263.40364    -3.715084    7.1546625    52.567267    40.022879 
155236000    263.14693    307.36621    273.96737   -3.9486843    5.9690044    33.398835    40.023811 
155240000    274.98873    301.64654    269.31385   -4.4526001    6.2848452    32.332696    40.024853 
155244000     277.8336    329.58709     310.6776   -5.2492812    3.9584203    18.909497    40.029794 
155248000    275.39983    327.98841    289.81393   -4.4043326    5.1940535     38.17448    40.032903 
155252000    267.99153    287.48831    294.05423   -3.1824003    4.8875901   -6.5659207    40.029135 
155256000     268.4111    298.26016    275.49451   -4.3655632    6.5925474    22.765657     40.03113 
155260000    273.20877    310.54283    274.35688   -4.3964069    6.5019565    36.185946    40.031554 
155264000    270.72749    288.94183    291.81219   -3.8119008    5.6548101   -2.8703658     40.02983 
155268000    283.64446    332.37786    302.86042   -6.2679393    4.2883424    29.517436    40.029525 
155272000    270.54939    301.22793    283.20288   -3.8425471    5.4317834    18.025046    40.024654 
155276000    286.83448    338.33276     303.3088   -7.0673826    4.8548825    35.023953    40.020249 
155280000    280.91203    323.57732    292.48282   -4.6172802    5.4173755    31.094495    40.013735 
155284000    276.46871    313.07707    285.48761   -5.3511639    6.0567122    27.589464    40.013965 
155288000    281.70126    320.29291    278.79917   -5.6503346    5.6929592    41.493733    40.013738 
155292000    283.49271    333.02737    277.10654   -6.6146742     5.718403    55.920833    40.018961 
155296000    276.10926    330.55864    289.95898   -6.3880888    5.4377878     40.59966    40.026607 
155300000    284.10835    337.26829    277.16364   -6.7879279    7.2618997    60.104654    40.022501 
155304000    276.61861    341.76924    275.92866   -6.8518708    6.2671379    65.840578    40.018756 
155308000    273.99255    294.60665    281.76244   -5.5345469    6.3669571    12.844202     40.01451 
155312000    286.05249    325.14318    296.31917   -6.5337751    6.3743182    28.824004    40.011918 
155316000     285.3756    315.61409     298.7538   -6.8006895    5.1468274    16.860295    40.010925 
155320000    274.84234    340.73092    264.26195   -6.7602701    7.4711999     76.46897    40.008035 
155324000    277.68391    313.15272    303.12692   -6.8758561    4.7694526    10.025801    40.004158 
155328000    273.00565    327.57897    271.84019   -6.1132845    6.5530479    55.738784    40.003298 
155332000    269.13432    314.12469    270.66748   -5.5788851    5.7844684    43.457212    40.001193 
155336000    275.44607    318.35092    268.88426   -6.6834053    6.7056287    49.466667    40.003248 
155340000    274.86439    315.17518    288.55819   -6.5747557    5.8520684    26.616984    40.003642 
155344000    277.27958      323.793    266.97855   -7.7291714    7.5506708    56.814449    40.000682 
155348000    284.47384    319.67715    286.59247   -6.8185023    5.9267535    33.084682    39.993695 
155352000    286.44708    332.54093    273.44309   -5.7521774    5.9165586    59.097835    39.989048 
155356000    286.00959    355.01077    274.90442   -7.9474444    6.7092541    80.106344    39.990171 
155360000    282.33965    347.18186    282.54404   -6.7279973    6.5807892    64.637817    39.985928 
155364000    282.97704    343.66712     283.9977   -6.8771324    5.9987953    59.669427    39.982429 
155368000    276.86264    324.87499    269.98206   -6.5170288    7.0974666    54.892931    39.984606 
155372000    276.84254    325.09144    286.02266   -6.8949136    6.2563403    39.068788    39.986208 
155376000    270.59991    294.61459    273.56032   -5.5535471    7.4973695    21.054276    39.988671 
155380000    279.07917     327.5082    279.50038   -7.2413037    6.0638601    48.007821    39.997682 
155384000    288.45287    334.66121    309.60366   -6.3756088    4.9696547    25.057542    39.996033 
155388000    270.27087    311.76264    267.92112   -5.0605928    8.3965074    43.841514    39.993972 
155392000    277.52536    309.92896    284.72045   -5.6117628    7.2576017    25.208504    39.991903 
155396000    278.28614    326.73401    271.92846   -7.2472284    7.2508403    54.805547    39.997172 
155400000     275.2974    337.33793    273.52144   -6.6701063    7.7536866    63.816496     40.00148 
155404000     276.4977    321.86974    270.68936   -7.5325795     6.632493     51.18038     40.00207 
155408000    276.36717    320.31743    268.01556    -7.355307    7.3384441    52.301867    40.004104 
155412000    283.62431    327.37168    292.67017   -7.9865085     5.222046    34.701511    40.007844 
155416000     282.3062    325.73209    291.64595   -6.4523546    5.3243369    34.086131    40.001256 
155420000     281.5258    329.41225     279.9718   -6.3944754    6.8058414     49.44045    40.001343 
155424000    272.33479    303.29029    290.86306   -4.7287292     6.603643    12.427233    39.998416 
155428000    279.07399    335.24187    284.62857   -5.5893242    6.0156986    50.613306    40.002404 
155432000     269.1081    322.96724    260.58418   -5.3354681     6.631286    62.383061    40.001924 
155436000    270.49559    316.38597      265.938   -5.0918197    6.7549806    50.447969    39.999205 
155440000    281.86161    358.45577    292.60933   -6.5012291    5.0866613    65.846445    40.005076 
155444000    277.98896    343.47135    276.57968   -5.6836952    5.7192945     66.89167    40.002872 
155448000    274.31234    323.06267     295.4819   -4.5462662    5.1679593    27.580762    40.007411 
155452000    273.72815    322.12948    269.87682   -4.9398241    7.1773781    52.252663    40.011343 
155456000    266.51977     308.0495    280.74705   -5.0225257    7.1266611    27.302453    40.010723 
155460000    264.88179    294.74847    283.69847   -3.7376509      6.33024    11.049997    40.008186 
155464000    268.37343    339.13837     266.1591   -5.8367746    6.9078911    72.979272    40.012766 
155468000    271.26425    324.67857    259.57233   -5.1863247    7.8327357    65.106237    40.014592 
155472000    273.06925    308.35896    278.70202   -5.3688198    7.1398152    29.656946    40.013359 
155476000    266.44837    299.21944    272.49667   -4.0465136     7.260232    26.722771    40.008789 
155480000    275.14285    326.22108    298.59744   -5.4855389     6.566551     27.62364    40.016245 
155484000    271.54964    309.79776    267.72648   -4.6601706    8.3535486     42.07128     40.01707 
155488000    275.15964     345.8862    281.67962   -6.7700834    6.9050742     64.20658    40.013921 
155492000    266.53971     297.3341    281.94722   -4.3400247    7.4670601    15.386879    40.008461 
155496000     267.6876    282.61259    275.95981   -5.1497259    7.2074226    6.6527751    40.009696 
155500000    273.09664    326.45892    278.08745   -6.7565743    6.9468314    48.371469    40.010957 
155504000    277.40258    324.18902    298.21021   -5.5748091    6.5191314    25.978817    40.011629 
155508000    270.88125    317.56852    280.91553   -4.9049523    7.2805266    36.652985    40.012172 
155512000    270.35952    319.19665    269.17228   -6.1688178    7.8760653    50.024377    40.009824 
155516000     269.1903    333.35032    267.57401   -7.1079045    7.8658778    65.776307    40.004043 
155520000    267.48918    314.12838    269.75191   -3.6686667    7.1851195    44.376466    40.006668 
155524000    271.19034    325.90667      278.729   -4.8406448    6.6674628    47.177668     40.00103 
155528000    275.28848    311.83945    288.36191   -4.9057056    7.0398053    23.477535    39.999765 
155532000    271.17902    302.81726    293.32089   -4.9011146    6.5941587    9.4963669    39.999919 
155536000    269.01135    321.01677    273.40209   -5.9691991    5.5151124    47.614682    39.996341 
155540000    271.55614    307.45643    290.38624   -3.8659796    5.8989308    17.070188    39.993413 
155544000    268.62789    301.58133    272.83594   -4.3129079    6.6464076    28.745391    39.985581 
155548000     268.1388    313.21617     259.8797    -3.957439    8.4982676    53.336473    39.982463 
155552000    275.75037    347.14012    268.30823   -6.3668843    7.6500292    78.831894    39.987394 
155556000     270.3895    325.33375    275.33572   -5.8756525     8.093154    49.998029    39.985483 
155560000    275.79834    322.80961    295.34742   -4.9917684    7.5357134    27.462188    39.986572 
155564000    270.80876    317.64144    291.40047   -5.5612158    7.1817119    26.240966     39.98934 
155568000    264.63573    314.08708    278.03709   -5.5488122    6.6559816    36.049989    39.987834 
155572000    267.84616    293.24549    305.20898   -4.4902648     6.629936   -11.963494    39.988105 
155576000    265.57669     324.5831    274.15766   -4.9926537    8.6606596    50.425442    39.984528 
155580000    262.04584    314.25894    270.02859    -4.601443    7.4906141    44.230356    39.980153 
155584000    281.04905    335.86057    289.13543   -5.3490206    7.2969502    46.725138    39.978772 
155588000    264.11542    315.16048    274.07991   -4.9863354    7.6934338    41.080569    39.980209 
155592000    272.71267    347.49303      262.903   -5.1164252    7.6751259     84.59003    39.982518 
155596000    269.79497    324.76087    288.48927   -6.1264382     6.494261      36.2716    39.986529 
155600000    266.05641    311.16636    257.80683   -5.2229708    8.2472391    53.359526    39.989104 
155604000    278.27145    332.52725    291.91961    -6.885347    7.3118583    40.607638    39.987009 
155608000    267.37375    314.80813    278.49367   -4.9485498    6.4952973    36.314459    39.987284 
155612000    277.48369    330.35995    289.28247   -5.4593638    6.7319133    41.077486     39.98618 
155616000     284.9472    365.48962    289.59677   -7.9064538    6.0083392    75.892853    39.990546 
155620000    270.33798    305.20984    278.88349   -5.2362884    7.1176131    26.326345    39.993006 
155624000    267.83085    328.31201    266.16366   -6.0285354    8.2143926    62.148343    39.992428 
155628000    273.48177    324.16727    291.39814   -5.8363198    7.2177762    32.769126    39.991719 
155632000    267.88068    303.77112    277.63018   -5.0132617    7.3049568     26.14094    39.993957 
155636000    273.87659    314.12742    285.79138   -6.3228022    7.2045886    28.336038     39.99226 
155640000    278.54784    319.12806    271.18377   -5.5134618    8.2104082     47.94429    39.993361 
155644000    275.25521    317.28375    277.53381   -7.0932366    7.6278818    39.749943    39.991713 
155648000    266.39621    300.18629    272.58055   -5.2001693    7.9622725    27.605734    39.993876 
155652000    284.35197    332.77674    297.92406   -6.4370276     5.686807    34.852684    39.997478 
155656000    265.83168    306.37653    284.96798   -6.4955896    6.8749346    21.408559    40.000734 
155660000    278.29846    321.84872    292.22899   -5.9868092    7.1008901    29.619728    39.995757 
155664000    269.09167    311.24188    279.86585   -5.7094663    7.1306571    31.376024    39.997618 
155668000    270.04655    320.46147    279.77999   -5.9259871    7.3630747    40.681477    40.000757 
155672000    276.12204     313.3628    299.29511   -5.9322566    7.8433019    14.067693    40.002903 
155676000    265.65864    312.73358    264.42829   -6.5110783    8.6323992    48.305287    40.001112 
155680000    264.37736    293.67309    270.62893     -5.64964      8.19934    23.044162    40.001918 
155684000    271.37926    337.95094    264.81058   -5.7345681    8.8547016    73.140363    40.002404 
155688000    276.04105     329.3056    283.28989   -6.5801309    8.1115101    46.015705    40.010068 
155692000    279.96279    352.21553    267.95445   -7.8742272    7.9429548    84.261078    40.009117 
155696000    268.97236     323.8742    273.34779   -5.8920124    8.8718909    50.526401    40.011356 
155700000      268.091    316.42624    267.64098   -5.4360652    7.9777198    48.785259    40.011527 
155704000    266.63655    310.22004    275.30837   -4.9238766    7.7832673     34.91167    40.010124 
155708000    272.29017    318.32581    270.68444   -4.7470705    8.4973157    47.641374     40.01219 
155712000    268.24159    287.15884    301.10752   -5.6138283    7.3765125   -13.948677     40.01008 
155716000    268.09615    323.98623    267.74988   -8.0885921    8.2216052    56.236347    40.010956 
155720000    264.01943     303.1845     272.4908   -6.1401456    8.9392419    30.693693    40.008018 
155724000    268.62701    303.42114    273.48639   -4.8703447     8.616424    29.934743    40.005241 
155728000    276.41588    324.16667    286.40919   -5.9648265    8.3498363    37.757479    40.007859 
155732000    274.18148    342.62342    263.13051   -7.0428519    8.5229283    79.492914    40.009021 
155736000    279.66453    330.84901    286.01129   -6.7405864    7.7554209    44.837718    40.006287 
155740000    261.48112    322.18894    256.36323   -6.6704644    8.8109585     65.82571    40.006609 
155744000    272.20697    330.18768    261.30871   -7.6046968    6.8255962    68.878977    40.006529 
155748000     279.3878    348.27008    286.98003   -7.5188982    6.0106552    61.290047     40.00837 
155752000    270.40791    309.27878    282.40403   -6.4209932    6.2476213    26.874747    40.013347 
155756000    267.14007    317.71526    280.25759   -4.9363173    7.4985548    37.457669    40.015422 
155760000    266.82484    304.38079    288.47813   -5.1462345    6.8071764     15.90266    40.013821 
155764000    275.91162    316.01742    288.97909   -6.4537886    6.4557343    27.038324    40.013569 
155768000    284.97587    367.23068    280.33268   -8.2538798     6.511862       86.898    40.011943 
155772000     274.6404    305.83414    292.40919   -4.8773328    6.3408459    13.424947    40.011398 
155776000    276.42003    309.50602    306.53247   -4.8705556    5.5971991    2.9735503    40.012458 
155780000    262.80627    298.61047    267.98847   -4.3556917    7.6483631    30.621998     40.01056 
155784000    274.47539     327.6431    286.40659   -6.5651763    5.7832677    41.236515     40.01184 
155788000    286.24895    335.81204    311.23047     -6.15796     5.068195    24.581569    40.010154 
155792000     273.7823    330.85771      255.752   -6.8624856    7.2293823    75.105712    40.010156 
155796000    277.52301    316.89772    285.47599   -5.5341866    6.0351315    31.421731    40.012431 
155800000    277.69383    324.84762    285.90663   -6.2944777     4.907069    38.940998    40.011391 
155804000    280.31392    324.61393    290.80125   -6.1138437    5.8795214    33.812686    40.007771 
155808000    285.36489     324.7414    317.40382   -7.3361471    5.5042627    7.3375823    40.008226 
155812000    276.08122     321.4457     279.2754   -8.0315785    6.5753517    42.170296    40.004715 
155816000    276.91885    314.11918    290.45124   -6.7886143    6.4374786    23.667944    40.010563 
155820000    265.55976     291.7831    281.94675   -4.9819123    7.2443448    9.8363523    40.012858 
155824000    278.02757     341.4094    272.55045   -7.4422524    7.2991119    68.858945    40.013385 
155828000    275.86988    315.89703    292.53444   -6.0730431    7.5798517    23.362594    40.011478 
155832000    272.48142    321.95725    277.67416   -7.9291522    7.0405761    44.283088    40.006141 
155836000    287.05708    359.97877    289.17066   -8.1627858    7.0635086    70.808107    40.011673 
155840000    281.40846    342.80917    276.15745   -7.1027458    8.4484877    66.651721    40.013201 
155844000    269.38438    316.61402    279.93325   -5.7258523    7.4200685    36.680772    40.009902 
155848000    266.61947    303.82542    274.38747    -5.448183    7.5485395    29.437951    40.011573 
155852000    276.56653    315.63414    279.29699   -5.6365859    7.2883707    36.337147    40.017262 
155856000     277.2055    322.16801    294.10541   -8.3779253    7.1929761      28.0626    40.014993 
155860000    265.92949    305.88675    256.46789    -6.171085    8.4270891    49.418859    40.015175 
155864000    272.55182    323.48397    271.23173   -7.7909706    6.9915762    52.252246    40.022642 
155868000    281.72771     342.5642    283.07744   -9.0837202    6.6287673    59.486758    40.024059 
155872000    284.54111      353.174    273.81523   -8.1334307     7.381627    79.358773    40.026316 
155876000    279.51455    320.22598    284.23405   -7.6607027    6.4721296    35.991933    40.025756 
155880000    269.68751    336.11471    263.48602   -8.0155834     7.664926    72.628687    40.032656 
155884000    277.07298    341.08642    256.45797   -8.8755447    8.7013495     84.62845    40.031615 
155888000    283.25436    367.81929    274.20373   -8.7970478    7.1253039    93.615566    40.032201 
155892000    273.19372    332.69036    278.29184   -7.1012573    8.3251379    54.398521    40.035326 
155896000    273.35716    323.77473    274.16099   -7.0714751    7.9548937    49.613736    40.028836 
155900000    267.35923    306.06233    263.21852   -5.9930761    9.0986055     42.84381    40.027087 
155904000    272.23582    305.62426    297.00744   -4.7604842    7.2742161    8.6168223    40.022082 
155908000     287.4756    327.20366    299.95054   -6.4755173    5.6888824    27.253125    40.021669 
155912000    270.22708    305.34329    272.61427   -6.5404668    7.7564271    32.729018    40.018562 
155916000     268.2841    298.25564    283.78253    -5.892606    6.7268932    14.473111    40.018235 
155920000     280.0831    306.63454    299.39528   -7.1533169     6.173663    7.2392542    40.020977 
155924000    275.43583    330.08194    270.95481   -8.3381316    8.2231427    59.127134    40.020587 
155928000    275.05795    317.51891    275.77534     -8.49906    7.5474602     41.74357    40.019986 
155932000    276.76735    318.78295    256.09037    -8.381497    9.1622041    62.692575     40.02045 
155936000    272.99429    309.76302    303.59182   -7.4361637    7.1865366    6.1712009    40.020185 
155940000    274.88572    322.55699    279.02343   -8.5076142    8.0634478    43.533567    40.018384 
155944000    276.75063    337.21757    280.79401   -9.0114251    7.9196316    56.423561    40.019406 
155948000    278.85732    320.79659    293.17045   -7.7399653    7.0561648    27.626147    40.014126 
155952000    279.85202    339.32667    297.76307   -8.8761647    7.3587288    41.563605    40.014708 
155956000    278.17939    327.25157    286.67328   -8.0176407    7.4284048    40.578284    40.012116 
155960000    269.43147    321.76019    275.92903   -6.5628226    8.0129482    45.831159    40.013068 
155964000    279.97276     353.2128    271.59858   -8.3760925    7.7199597    81.614224    40.016903 
155968000    273.50334    314.70712    277.70402    -7.176304    7.6241962      37.0031    40.021078 
155972000    280.82067    331.60198    280.37784   -8.1814038    7.3551128     51.22414    40.020568 
155976000    287.68214    352.90771    285.43629   -9.3957125     7.744992    67.471428    40.020649 
155980000    265.80121    303.95665    267.42891   -7.6588098    7.9476193    36.527736    40.020438 
155984000    284.49192    345.01703    300.14796   -8.4120495    6.5913346    44.869077    40.017859 
155988000    271.71905    320.80384    256.54008   -7.5492397    7.5300195    64.263762    40.022803 
155992000    279.85004    337.46119    265.14013    -7.999738    7.4707684    72.321061    40.018388 
155996000    276.72703    321.22604     281.2659   -7.2169325    5.7236882    39.960138    40.021509 
156000000    274.85598    308.10093    300.94872   -7.3665223    5.6750055    7.1522083    40.021262 
156004000    270.54742    318.39565    256.58764   -6.6082771    7.6564587    61.808007     40.01951 
156008000     274.8726    284.62169    304.91022   -5.4138082    6.5111775   -20.288527    40.024148 
156012000    272.22107    323.20483    252.30493   -7.4623903    9.9352871    70.899895    40.025943 
156016000    268.26309    312.50022    259.46897   -6.8539039    8.2035952    53.031244     40.02588 
156020000    272.70188    315.53957     268.6232   -7.3752706     7.770101     46.91637    40.025626 
156024000    264.03223    297.53188    270.22058   -6.4829789    7.8027407    27.311302    40.024566 
156028000    279.71967    322.99049    293.24385   -8.4023142    7.2075073    29.746644    40.022272 
156032000     277.0528    328.99703    280.15747    -8.264391    8.0096024    48.839556    40.021994 
156036000    278.37995    315.30089    285.80528   -8.7517765    7.0281744    29.495616    40.014472 
156040000    280.96864    324.86875    269.71497   -7.9288425    7.4029801    55.153778    40.019468 
156044000    273.12334    322.91633    279.90031   -8.0458564    7.3946281    43.016027    40.020393 
156048000    282.14935    317.81234    273.27907    -8.128188    7.0325953    44.533273     40.02348 
156052000    280.87098    347.42538    281.09957   -9.1555387     7.470808    66.325811    40.027958 
156056000    266.97538    311.88696    273.49229   -8.3688051    9.1102126    38.394672    40.028147 
156060000    277.01703    306.90603    279.30828   -7.7067559    8.6507543    27.597751    40.029075 
156064000    278.73158    314.11658    290.01575   -8.4697482    8.2230293     24.10083    40.028449 
156068000    274.51491    316.23207    266.55636   -9.1999561    9.7280447     49.67571    40.019786 
156072000    277.32736    323.27358    283.92161   -9.2993567    7.5308366    39.351972    40.022029 
156076000    279.25933    334.75787    293.16423   -8.8423999    5.8324569    41.593637     40.01619 
156080000    276.43092    327.28982    252.46754   -8.5718712    9.6275196    74.822283    40.019184 
156084000    277.44238    333.18239    288.07939   -8.8051017    8.5330429    45.102997    40.016893 
156088000    270.22605    317.24078    286.07352   -7.6237011    6.7867226    31.167256    40.017112 
156092000    278.65494    332.43552    276.42465   -7.3316235    8.3571645    56.010876    40.015344 
156096000    280.37637    328.54035    290.97715   -8.1224447    6.8183363    37.563202     40.01933 
156100000    278.97318    320.04989    288.31854   -7.7255499    7.5185254    31.731346     40.01787 
156104000    279.32763     328.0711    265.88848   -9.2403546    8.9919351    62.182617    40.014352 
156108000    279.88127    318.36267     292.1391   -8.5688392    7.5710479    26.223575    40.010707 
156112000    280.67862     328.3844    294.11713   -9.3252135    6.7643415    34.267265    40.011762 
156116000    274.64165    311.33321    281.92077   -6.9744779    7.6003298    29.412437    40.013304 
156120000    269.73069    302.83099    265.54554   -6.5798508    8.4865955    37.285453     40.01395 
156124000    270.53529    331.83977    252.99311   -9.0545408    8.3692458    78.846654    40.015825 
156128000    277.93372    341.02837    271.91058   -9.1719544    8.0929599    69.117792     40.01932 
156132000    273.67372    325.74679    265.90032   -8.1345755    9.0371981    59.846463    40.024299 
156136000    262.28565    313.10825    260.19272   -7.5027219    9.0204538    52.915528    40.024886 
156140000    282.89652    326.44374    304.69905   -8.1073419    7.3626803    21.744692    40.025392 
156144000    280.45936    331.99345    290.99717   -8.0991253    7.1372598    40.996281     40.02723 
156148000    280.39141    316.84515    293.45918   -7.7418163    7.0321584    23.385971    40.025996 
156152000    278.64545    325.69854    266.56586   -8.0310426    9.6470957    59.132675    40.026926 
156156000    267.49459    313.45679    280.60783   -6.8858812    8.4525386    32.848959    40.022742 
156160000    286.20432    344.77129     293.5284   -8.2568142    7.8516506    51.242891    40.021117 
156164000    277.24004    319.05205    283.31473   -8.3518329    8.4106818     35.73732     40.01792 
156168000     269.0964    310.79936    264.08034   -8.2991082    9.5133914    46.719019    40.015847 
156172000    277.54621    328.13533    273.73237   -8.9059301    8.4703586    54.402955    40.021448 
156176000    277.92518    328.33317    286.38941   -8.3652726     7.493283    41.943753    40.021575 
156180000    277.05278    314.08427    282.09977   -7.3163841    8.3308807    31.984501    40.019183 
156184000    272.27264     323.5172    281.43679   -8.3595137    7.7725518     42.08041    40.019709 
156188000    278.46201    336.48646    299.62679   -9.8043385    7.4207245    36.859672    40.016834 
156192000    264.54792    297.81618    277.83372    -8.255768    9.4037171    19.982462     40.01922 
156196000     283.4689    332.11595    291.97655   -9.3747802    8.4442031    40.139401    40.015231 
156200000    275.78981    304.39761    287.31646   -6.3079041    8.1794962    17.081146    40.014341 
156204000    271.47174    316.80896    271.97201   -8.3030281    8.8125637    44.836943     40.01052 
156208000    279.21093    332.29416    268.34032     -8.49522     9.884697    63.953848    40.012555 
156212000    278.02724    312.97917    295.95683   -8.6039147    8.0500816    17.022341    40.011993 
156216000    279.21741     326.9729    294.55853   -7.9945008    8.2544473    32.414377     40.01313 
156220000    274.81124    332.72967    280.53619   -9.0428027    9.2676819    52.193484    40.013451 
156224000    277.31116    326.68476    277.52344   -9.7130231    9.5454583    49.161318    40.014648 
156228000    280.44184    330.70241    286.38208   -10.425544    7.9614768    44.320322    40.012312 
156232000    266.74686    296.64465    283.14211   -6.7603498    8.1210971    13.502532    40.007128 
156236000    273.21939    308.42913    280.40995   -9.2195786    8.4840827    28.019184    40.006001 
156240000    282.47535    301.82702    300.71692   -7.8680671    8.1172576    1.1101005    40.007963 
156244000    268.12302    311.00893    250.02029   -7.3814165    9.8794121    60.988643    40.011763 
156248000    284.89451    352.87085    279.90873   -9.2273272    6.7581939    72.962116    40.015324 
156252000    279.12213    329.21857    281.44291   -8.1139679    7.8031854     47.77566    40.011092 
156256000    279.14641    334.10184    271.19212   -8.5129934    7.0573487    62.909722    40.013276 
156260000    273.42965    302.23836    278.01531   -7.8345762    6.9672783    24.223055    40.010956 
156264000    284.79039    327.82722    297.09412   -9.4363395    6.7623945    30.733106    40.010463 
156268000    284.42177    336.41335    277.64448   -10.044425    7.8880157    58.768864    40.013333 
156272000    277.58438    324.17409    269.70436   -9.1352656    8.3064358    54.469732     40.01169 
156276000    287.19363    361.97368    290.37882   -9.8978488     7.311278    71.594857    40.010737 
156280000    271.95461    316.33308    264.84504   -8.4834033     9.009297    51.488039    40.011642 
156284000    282.89631    329.53919    298.15302   -8.6520954    7.4492786    31.386167    40.016019 
156288000    282.66578     338.5749    286.60926   -8.9885768    7.8058216    51.965638     40.01289 
156292000    273.17688    292.60259    278.80349   -7.0904965    8.3530031    13.799101    40.014521 
156296000    281.16253    337.07902    273.19681     -9.57356    8.9385193    63.882211    40.011131 
156300000    273.40811    313.10121    275.56865   -8.7260386    8.7300327    37.532566    40.006281 
156304000    274.77658    307.64597    283.85345    -7.843071    7.4500368     23.79252    39.999713 
156308000    277.06723    303.66118    284.18995   -7.9087437     8.012585    19.471232    39.997003 
156312000    269.88196    310.90772    264.53666   -8.7254544    8.9320098    46.371057    39.995472 
156316000    280.35165     336.6547    297.36832   -9.3254135    7.6967364     39.28637    39.995363 
156320000    280.83039    311.98186    291.20906   -8.2507745    8.6262293    20.772797    39.998861 
156324000     279.4785    315.10933    283.66426   -7.9626193    8.6635271    31.445062     39.99487 
156328000    272.61726    329.41126    260.19964   -8.2740809    9.6016469    69.211622    39.991294 
156332000    280.14325    335.80381    292.61629   -8.1149545    9.2890138    43.187518    39.991435 
156336000    282.15027    322.45158    287.70468   -10.133222    9.0473689    34.746897     39.99419 
156340000    281.10532    334.95316    267.65085   -9.7151624    10.246598    67.302316    39.996887 
156344000    275.74097    317.63683     284.9723    -9.846046    9.8683223    32.664529    39.999225 
156348000    273.23753    297.50529    271.98075   -9.1009012    9.9090458    25.524538    40.000501 
156352000    278.07352    306.13173    286.91722   -8.4303463    9.0364822    19.214507    39.997375 
156356000    277.84226    325.39789    270.59809   -9.1022043    9.2528845    54.799801    39.992327 
156360000    268.11712    312.85098    264.55475   -9.0642035    9.2087387     48.29623    39.997586 
156364000    273.57312    331.06923    287.13522   -9.9594967    9.2319991     43.93401    40.001712 
156368000    276.67982    333.01845    282.49389    -9.779059    8.8432833    50.524562    40.003247 
156372000    263.80403    300.18328    284.90209   -8.0885459    9.2869169    15.281188    40.003969 
156376000    280.53311    314.01099    273.21737   -8.9541649    10.320066    40.793613    40.004395 
156380000    271.53092    305.51115    277.96631     -8.43957    11.107104    27.544843    40.001549 
156384000     269.1184    309.83327    278.45346   -8.3305559    10.297754    31.379806    40.008213 
156388000    268.36453    312.69525    271.64474   -8.4722083    10.370325    41.050513    40.005819 
156392000    275.14206    331.10009    267.99155   -9.5336289    10.126047    63.108539    40.009207 
156396000    264.21238     317.1698    252.97175   -7.9687818    11.135724    64.198045    40.010714 
156400000    276.84177    321.25403    280.93497   -8.2622608    10.186528    40.319064    40.012453 
156404000    279.71245    351.44781    265.61782   -9.5042028    10.747889    85.829988    40.013216 
156408000     279.6488    325.96829    309.20265   -8.8021736    9.3053098    16.765639    40.013609 
156412000    275.99443    312.20076    305.10232   -7.9353379    8.6537814    7.0984401    40.013355 
156416000    265.47002    306.68372    268.06696   -8.2580361    8.8884316     38.61676    40.018373 
156420000    273.78682    322.18899    274.43564   -7.0105327    9.7845389    47.753349    40.019991 
156424000    271.22062    326.74535    268.18332   -8.5609286    9.7287737    58.562026    40.018748 
156428000    274.96539    316.53873    288.49426   -8.9545568    8.4037385    28.044469    40.016655 
156432000    269.15113    302.44575    272.42857   -8.1939913    9.7869951    30.017184    40.018225 
156436000    278.26286     340.4124    277.82726   -9.5460033    10.290337    62.585134    40.016451 
156440000     263.3615    312.32276    262.69379   -7.1063112    11.641497    49.628972    40.015417 
156444000    271.14857    315.44114    289.50912   -7.9133172    10.371497    25.932017    40.017961 
156448000    269.50258    308.88481    285.56772   -8.0158429     10.04995    23.317087     40.01563 
156452000    270.86273    325.52591    272.35739   -10.059973     9.907456    53.168518    40.015135 
156456000    268.16672    312.32552    282.10007   -8.0389948    9.9467851    30.225441    40.016402 
156460000    274.43289    328.97732    292.99534   -8.7208878    9.4742929    35.981974    40.014695 
156464000    269.42372    306.29798    285.01587   -7.1890969    10.167637    21.282107    40.012993 
156468000    270.92498    320.99812    269.54452   -7.8378184     10.96939    51.453598    40.011267 
156472000    274.02714    331.23825    284.15333   -8.7587594    9.6625416    47.084916    40.019433 
156476000    265.06328    313.50585    277.43413   -7.6445338    10.170807    36.071725    40.016369 
156480000    269.36632    302.51567    292.00244   -6.2202633    9.8891324    10.513236    40.013958 
156484000    274.91829    327.28079    282.31104   -7.5653641    10.080954    44.969757    40.013272 
156488000    268.47219    312.72859     273.0035   -7.6011968    9.6416789    39.725088    40.009212 
156492000    272.09843    309.69153    285.03571   -7.6828552     11.09635    24.655824    40.009017 
156496000     269.9609    319.11295    265.95032   -6.7269316    11.038429    53.162623    40.011318 
156500000    268.21459    323.87448    261.20815   -8.0887567    12.762826    62.666322    40.012759 
156504000    282.05234    347.19805    284.46366   -9.2203648    10.851039    62.734385    40.016904 
156508000    274.84914    329.98751    285.08252   -8.3037262    10.645991    44.904995     40.01802 
156512000    268.77663    315.28991    289.33592   -7.7831537    10.900666    25.953991    40.015913 
156516000    276.88077    341.48373     298.1806   -9.3743412    11.200178    43.303128    40.015088 
156520000    274.21128    349.50342    258.87339   -9.3618276    12.444062     90.63003     40.01639 
156524000    258.50846    298.07861    276.98039   -7.2835272    12.330404    21.098223    40.016825 
156528000    268.81153     328.2984    283.20758    -9.255195    11.637505    45.090821    40.018197 
156532000    270.82625    331.36027    268.36086   -9.2901503    11.769937    62.999411    40.016255 
156536000    267.49961    294.92315     308.0027   -7.0627118    9.6626259   -13.079559    40.010183 
156540000    267.76491    320.53368    268.82107   -8.7674019    12.167537     51.71261    40.012211 
156544000    279.78331    347.20121    284.91894   -9.9208851    11.504142    62.282275    40.010324 
156548000    270.07841    309.48633    288.49201   -8.7899086    12.194938    20.994327    40.012411 
156552000    270.22761     309.5186    289.41322   -8.3672206    11.707628    20.105387    40.009894 
156556000    266.54703    303.23705    290.71557   -8.8838687    10.092078    12.521484    40.010909 
156560000    269.59818    329.12775    265.57815   -10.537705     11.55441    63.549599    40.011335 
156564000    269.63268    308.51617    263.48741   -9.2322819     11.79231    45.028763    40.007434 
156568000     272.1542    318.91149    281.03356   -10.646409    10.851882    37.877929    40.008537 
156572000    272.24159    303.64302    298.17938   -8.8176692     10.11958    5.4636327    40.012985 
156576000    261.36746     298.5508     277.1727   -8.5985194    11.506085      21.3781    40.017813 
156580000    275.54021    349.49129     300.2924   -10.171916    11.290784    49.198888    40.023944 
156584000     269.5102    325.46038    279.49154   -9.9786662     11.77438    45.968834    40.022264 
156588000    266.24623    326.42181    289.19063   -8.8628771    12.496705     37.23118    40.025341 
156592000    275.14371    315.85095    300.52195   -7.8594643    11.809517    15.328998    40.027157 
156596000    267.79216    316.64476    294.21504    -7.448037    11.998455    22.429717    40.027073 
156600000    272.76997    322.33414    290.29325   -8.5541253     11.95431    32.040896    40.027571 
156604000    268.41657    328.46092    272.64546   -7.9324923     11.77219    55.815456    40.028459 
156608000    265.30338    311.02956    270.34206   -7.7190531    11.469999    40.687499    40.028966 
156612000    267.17004    315.10273     285.2809   -7.4721433    11.887818    29.821831    40.028756 
156616000    273.59072    302.78686    295.62798   -6.6615855    11.371099    7.1588805    40.033857 
156620000    265.82858    306.23686    275.07429    -7.808666    11.767526     31.16257    40.035675 
156624000    262.26214    303.27428    256.65718   -7.1433955     11.74862    46.617105    40.037921 
156628000    270.28115    339.07265    269.64513   -9.7183729    10.707896     69.42752    40.033885 
156632000    276.03619    350.77362    276.73603   -9.4445845    9.9807389    74.037589    40.031408 
156636000    272.86991    335.29074    281.74682   -7.6258691    11.229714    53.543921    40.027811 
156640000    268.43351    320.05658     283.4508   -7.4228333    12.102267     36.60578    40.027639 
156644000    271.90894    319.53043     283.9568   -7.6024929    11.639148    35.573628    40.030031 
156648000    273.03916    334.72426    289.93882   -8.5584479    12.434833    44.785434    40.030296 
156652000    262.24636    317.35396    268.78208   -7.5422259    11.980603    48.571875    40.033202 
156656000    260.49231    300.79607    292.79957   -6.0235606    11.298859    7.9964994     40.03688 
156660000    264.61439    308.84292    278.68998   -7.2280248    11.826075    30.152941    40.032952 
156664000    264.66134    330.34866    272.09748   -8.5006226     11.58816     58.25118    40.034393 
156668000      259.728    304.58681    274.30088   -6.5187378    11.204799    30.285928    40.037288 
156672000    269.84133    331.04807    278.15555   -7.9478219    12.231498    52.892516     40.03467 
156676000     268.3712    328.22215    300.90455   -7.8429084    11.552055    27.317604    40.036192 
156680000    272.99742    321.67245     291.7477   -7.8585546    11.453677     29.92475    40.034215 
156684000    270.63343    339.78274    285.61897   -9.0202946    10.787121    54.163772    40.031814 
156688000    270.06296    324.61926     278.2668   -8.3512303    11.961993    46.352461    40.027017 
156692000    271.28266    322.73315    286.73149   -9.6400031    11.670893    36.001653    40.026185 
156696000    271.44811    314.70314    297.14695   -8.1797227    9.0797948    17.556187    40.021239 
156700000    274.15091    318.25357    296.72975    -8.150796    10.375074    21.523815    40.021372 
156704000    264.36436    320.10519    274.38261   -9.5244616    11.237842    45.722584    40.021903 
156708000    274.71601    309.60291    291.44359   -9.0036633    10.717029    18.159326     40.02055 
156712000    267.35259    324.23265    272.35629   -8.8925982    11.759813    51.876359    40.020333 
156716000     268.5519    320.60164    266.10369    -10.16998    11.853152    54.497948    40.022059 
156720000      264.774    322.77749    271.82904   -9.7707875     12.23178     50.94845    40.025525 
156724000    275.48692    333.85287    277.05036    -10.75241    11.521612    56.802511    40.026134 
156728000    279.92527    322.55501    287.80288   -9.6130334    10.398391    34.752131    40.030317 
156732000    270.65511    323.43201    288.20405   -10.049653    11.211284     35.22796    40.028766 
156736000     270.5308    307.88458    287.19813   -9.7318788    9.5712336    20.686453    40.028148 
156740000    274.18974    324.50267    272.63036   -9.1147383     10.10976     51.87231    40.029572 
156744000    262.38146    306.18317    249.23665   -8.5039357    11.692008    56.946527    40.033242 
156748000    269.38991    310.55574    294.90385   -9.1964836    10.975831    15.651886    40.030186 
156752000    270.26057    322.61344    286.42064   -10.518672    10.710783    36.192802    40.031325 
156756000    266.20813    323.47148    250.63278   -8.8387326    11.959948    72.838705    40.028168 
156760000      272.787    306.17303    291.62418   -8.6876628    10.835739    14.548851    40.030677 
156764000    275.34326    323.27867     290.1635    -10.18957    9.8532352    33.115169    40.030041 
156768000    273.01205    328.31217    281.36217   -9.9875424    9.7772929    46.950003    40.031092 
156772000    275.34227    324.48388    283.38453   -9.7565686    10.315354    41.099344    40.029288 
156776000    273.57525    319.27816    288.29714   -8.4399274    10.553508    30.981023    40.029136 
156780000    279.53502    325.05675    306.37587   -9.8353798     7.489505    18.680885    40.024479 
156784000    273.81917    314.20276    283.89372   -9.4819661    8.8446891    30.309032    40.024324 
156788000    269.42529     304.1223    268.23189   -8.8886253    9.9140565    35.890405    40.026537 
156792000    267.79071    311.07909    279.31162    -10.13772     8.785369     31.76747    40.029252 
156796000    278.85276    308.67564    294.46842   -8.9675984    9.2657238     14.20722    40.029204 
156800000    277.26392    329.63205    278.61761   -9.3538604    9.2641769     51.01444      40.0305 
156804000    275.89478    323.00377    278.20189   -9.4594724    9.5571931    44.801885     40.02934 
156808000    270.41592     319.5684    267.67241   -9.6528531    10.506939    51.895991    40.028986 
156812000    272.25778    340.92842    279.56469   -10.168403    10.901157     61.36373    40.030952 
156816000    280.71683    321.23759    296.72396   -8.3694001    9.2035033    24.513631    40.027347 
156820000     276.0809    304.65856    284.10203   -9.7040448    9.0620771     20.55653     40.02649 
156824000    276.94331    324.92158    290.50126    -10.12948     8.655318    34.420323    40.028972 
156828000    269.89719    304.40046    288.30508   -9.5321817    9.5867369    16.095374    40.025811 
156832000    275.81358    319.67973    271.46422   -9.8817587    9.8540788      48.2155     40.02478 
156836000    274.67927    326.72779    267.36655    -10.57315     11.01398    59.361235    40.027987 
156840000    268.15581    297.06639    295.17627   -8.5831124     9.584392    1.8901176     40.02791 
156844000    279.92212    336.47342    275.03341   -10.188738    10.266651    61.440008    40.027537 
156848000    279.85704     320.6188    281.36432   -9.6235182      10.2231    39.254478    40.026662 
156852000    262.43539    301.88773    264.38782   -9.0556079    11.742363    37.499909    40.027185 
156856000    273.71118    316.91096    315.49795   -8.6582238    8.0904888     1.413015    40.029223 
156860000    272.00966    341.67213    262.08666   -9.8318704    10.800541    79.585466    40.031147 
156864000    278.48437    326.77072    293.77236   -9.0466482    9.3472627    32.998359    40.030769 
156868000    276.63766    350.24636     277.5212   -11.488032    10.607457    72.725166    40.030528 
156872000     281.3148    350.00111    297.41965   -11.018774    10.405624    52.581453    40.028699 
156876000    269.31479    313.52291    279.50665   -9.0525875    10.422251    34.016256    40.031711 
156880000    262.25109    310.89781    281.16554   -8.3366937    10.163109    29.732271    40.031105 
156884000    273.87706    317.78869    286.61354   -7.6830248    9.2375034    31.175147    40.029772 
156888000    270.49097    318.95296      267.893   -9.5133205    10.555881    51.059963    40.030279 
156892000    270.80315    301.99299    290.53989   -9.3887837    9.5107412      11.4531    40.029385 
156896000    274.55617    324.51288    277.13089   -8.5697801    10.569972     47.38199    40.029359 
156900000     265.1836    317.24743    263.48136   -8.7398513    10.797465    53.766069    40.028175 
156904000    279.26121    323.27317    293.45007   -9.5193273    9.9850716    29.823106    40.025496 
156908000    268.05227    317.45269    279.42547   -9.1416855    9.8580218    38.027224    40.027487 
156912000    279.27574    326.23958    290.75492   -9.0752134    10.531538    35.484659    40.026964 
156916000    272.85068    322.05931    276.06189   -10.825329     11.25392    45.997423    40.026677 
156920000    276.17548    333.89629    258.85793   -9.5710336      11.4398     75.03836    40.025424 
156924000    268.34915    295.42569    279.34152   -8.3562451    11.273725    16.084178    40.024684 
156928000    268.45303    305.84046    270.50521   -9.3254921    10.651653    35.335247    40.025151 
156932000    269.54383    294.88597    295.43121   -9.4253219    10.052877  -0.54524218    40.024401 
156936000    272.66576    325.68135    279.27582    -9.780428    10.268742    46.405531    40.021863 
156940000    269.57274    298.81838     274.0695   -8.2421342    11.397858    24.748882    40.024465 
156944000    272.10447    324.46231    277.96805   -11.159623    11.260202    46.494253    40.022349 
156948000    278.47875    325.32819    275.41937    -9.601345    11.891648    49.908824    40.023711 
156952000    271.50083     319.3743    272.73654   -8.7231938    11.810141    46.637769    40.025915 
156956000    275.63486    326.45484    281.58295   -10.715923    10.392946    44.871885    40.027446 
156960000    274.23492    317.13455    275.16841   -9.3214168    10.828291    41.966142    40.028717 
156964000    272.20523    315.52777    273.79394   -10.642035    10.747632    41.733825    40.027845 
156968000     270.4857     305.1971    281.76584   -9.2176679    11.141189    23.431252    40.028277 
156972000    272.41013    339.22917    274.43809    -10.85182     11.19341    64.791078    40.028746 
156976000    276.21818    343.40034    276.08749   -12.024149    11.192944    67.312849    40.027891 
156980000    271.00406    309.50414    279.68687    -10.85751    11.846502    29.817271    40.028511 
156984000     265.8586    305.86047    262.50493     -10.2468    12.571979    43.355539    40.031477 
156988000    269.88045     313.4999     289.1048   -9.0988305    11.177817    24.395097    40.031172 
156992000    267.90872    308.31847    275.07789   -9.8424033    12.766008    33.240589    40.030604 
156996000    272.15276    309.64663     288.4761   -9.1386792    12.303982     21.17053     40.02815 
157000000    280.54647    321.50163    296.48662   -10.751287    12.063967    25.015013    40.026922 
157004000    272.14837     302.0088    293.76976   -10.073962    11.198378    8.2390467    40.026499 
157008000    274.29212    320.42714    276.71705   -10.910648    12.360547    43.710088    40.025502 
157012000    277.66991    325.59839    290.32758    -10.43629    11.488682    35.270803    40.022287 
157016000    268.98488    306.84976    291.30596   -8.7732106    11.334695    15.543803    40.022505 
157020000    281.71889    335.23418    273.54403   -10.984829    10.671068     61.69015    40.019175 
157024000    274.87286    339.26469    293.11015    -10.87629    10.465152    46.154537       40.017 
157028000    277.30157    304.04476     295.1674   -10.432352    9.8014317    8.8773575    40.018159 
157032000    267.94107    317.35409    264.67056   -9.2727091    12.399557    52.683529    40.019117 
157036000    276.94542    321.29958     289.5317   -10.978027    10.504001    31.767882     40.02156 
157040000    268.31392    318.84442    271.16004   -11.413862    11.310405    47.684386    40.017841 
157044000    279.11043    337.93527    277.19495   -11.788841    11.467413    60.740314    40.018794 
157048000     280.0213    340.85968    286.50251   -12.446003    11.970081     54.35717    40.021493 
157052000    272.51689    329.72014    274.76078   -11.357012    11.754003    54.959354    40.021944 
157056000    279.86534    324.63403    283.31872    -10.66784    10.684616    41.315301    40.019194 
157060000    275.13589    328.63735     254.6627   -11.002764    13.007778    73.974659    40.017117 
157064000    266.33277    288.51699    281.52872   -10.086761    11.948699    6.9882761    40.013522 
157068000    273.02365    311.49834    287.85363   -10.838243    10.867457    23.644709    40.014225 
157072000    281.90728    332.64322    276.35651   -12.052089    11.621733    56.286714    40.016991 
157076000    269.63554     322.8138    267.52706   -12.564137    12.111519    55.286742    40.014054 
157080000    275.37918    333.20428     282.2112   -11.978551    11.810628    50.993078    40.014512 
157084000     273.0815    313.68703    271.39001   -9.5479189    12.219752    42.297021    40.018381 
157088000    281.24664    345.43245    290.02931    -12.04426    11.998574    55.403139    40.017783 
157092000     274.1967    302.89316    309.10577   -10.487005    10.703533   -6.2126016     40.01542 
157096000    267.39681     321.4733    258.95531   -11.489431    12.572771    62.517987    40.016071 
157100000    275.05752    327.71798    277.71127   -11.997037    12.505595    50.006717    40.016822 
157104000    266.36221    299.39497    269.16218    -9.830196    12.338665    30.232796    40.012802 
157108000    272.80307    313.67499    272.96438   -11.465665    12.993394    40.710609    40.009172 
157112000    272.75314    334.41219    270.97964   -12.005462    12.569341    63.432543    40.014294 
157116000    268.60276     295.7285    279.60514   -9.5275722    11.273975    16.123362    40.014123 
157120000    276.02251     324.4978    287.57065   -11.931078    10.039887    36.927143    40.010384 
157124000    269.40614    307.69638    267.49655   -10.915167    12.011281    40.199831    40.011233 
157128000    275.64891    315.72881    288.89924   -11.528375    11.858876    26.829574    40.009357 
157132000    274.94534    304.42971    304.71209   -9.8584748    11.032582   -0.2823823     40.00828 
157136000    270.98933    321.80936    271.32652   -12.785879    12.369279    50.482836     40.00847 
157140000    277.17062    334.24168    275.49033   -11.510883     12.60846    58.751357    40.007971 
157144000    283.30191    348.00347    283.40193   -13.509102    11.616429    64.601537    40.003073 
157148000    270.15687    335.67649    266.07891   -13.197389    13.090439    69.597576    40.000654 
157152000    280.47847    339.41937     287.5378   -11.992431    11.708485    51.881576    39.999669 
157156000    266.29375    309.50597    275.09394    -11.27427    12.646286     34.41203    39.998459 
157160000    276.75165    328.52706    289.23788    -11.67067    11.428666    39.289187    40.000324 
157164000    273.74696    326.52606    289.33033   -10.896178    11.505573    37.195732    40.000767 
157168000    273.50276    323.75721    279.59435   -12.193622    12.268209    44.162862    40.002421 
157172000     271.6585    307.59627    289.44204   -11.744696    11.760024    18.154224    40.003785 
157176000    270.62815    309.94875    276.98725   -10.938896    12.387912    32.961494    40.004486 
157180000    274.84311    341.59225    277.31107   -11.658403    12.780581    64.281178     40.00561 
157184000    280.11324    339.63188    291.41459   -13.322549    11.826962    48.217293     40.00862 
157188000    285.45898    333.12509    305.24404   -11.245567    11.331997    27.881047    40.007092 
157192000    278.25073    323.18368    272.81448   -11.767705    12.294403    50.369193    40.010928 
157196000    269.23836    300.03556    271.74222   -10.602857    11.793986    28.293339    40.010746 
157200000    274.10715    314.29388    272.78135   -11.619022    11.551869    41.512529    40.012963 
157204000    275.23488    318.74684    290.12288   -10.543878    12.045074    28.623963    40.015873 
157208000    277.79689    336.26785    269.64249   -11.733665     12.46442    66.625359    40.016432 
157212000    271.61255    314.36346    289.68019   -11.686847    11.538436    24.683263    40.017877 
157216000    280.19143     334.4181    284.23435   -12.272317     11.19258    50.183758    40.017541 
157220000    269.55793    307.22968    291.34456   -10.401313    12.091963    15.885117    40.019517 
157224000    273.38963    345.73754    277.04257   -12.054828    12.633459    68.694964     40.01933 
157228000    270.79407    319.35391    268.64448    -11.68433    13.568502    50.709428     40.01829 
157232000    277.49334    330.12373    284.08074   -12.064472    11.941721    46.042986    40.015672 
157236000    274.51565    316.67336    274.99242   -11.754013    12.190987     41.68094     40.01923 
157240000     266.8775    309.55187    282.16783   -11.815628    11.715915    27.384036     40.01753 
157244000    264.53359    325.45169    259.91604   -12.958185    12.356922    65.535654     40.01644 
157248000     278.8945    315.81975    269.97147   -11.117795    12.416175    45.848275    40.016541 
157252000     281.7743    317.83253    285.79889   -11.056448    11.935591    32.033636    40.018734 
157256000    269.37239     297.9275    272.02765   -11.339648    13.154487    25.899849    40.017877 
157260000    268.70826    318.45421    259.03743   -11.700496    13.074846    59.416782    40.018936 
157264000    279.75536    329.36862    304.88207   -11.389588    11.510975     24.48655    40.018768 
157268000    269.37969    306.07953     282.2827   -11.227491    12.579344    23.796827    40.022375 
157272000    266.76383    310.10536    275.40909   -10.427225    12.568834    34.696273    40.020827 
157276000    272.05634    320.28193    277.26268   -11.727824    12.450506    43.019248     40.02039 
157280000    279.96308    326.40581    295.03101   -12.074099    11.420469    31.374794    40.024234 
157284000    285.84808    370.48856    280.20992   -14.196428    12.124122    90.278645    40.024267 
157288000    277.85664    319.11893    290.02011   -11.848192    12.553324    29.098824    40.026636 
157292000    269.78618    311.91041    284.48116    -10.63848    11.952528    27.429247    40.027321 
157296000    270.77806    316.71877    279.12619   -11.388911    13.508681    37.592584    40.028923 
157300000     267.5603    304.48755    274.48695   -11.046739    12.163811    30.000595    40.031974 
157304000    273.19391    307.72639    287.99264   -11.433636    12.458867    19.733754    40.027869 
157308000    271.93196    323.71116    274.19425   -12.784163    11.817026    49.516919    40.027966 
157312000    267.51763    304.78463    276.69379   -11.661274    12.491679    28.090835    40.027557 
157316000    272.22993    322.39062     268.7394   -12.306813    12.957052    53.651226    40.031474 
157320000     271.9268    307.20049    282.50157   -11.493164     11.91681    24.698921     40.03464 
157324000    277.76457    322.35552    289.30362   -12.383584    11.783563    33.051899    40.038053 
157328000     283.3205    327.40093      286.259   -12.044128    11.604911    41.141928    40.040942 
157332000    277.53361     330.1769     286.7323   -11.458396     11.71099    43.444601    40.041467 
157336000    274.57255    319.13022    285.41256   -12.475295    11.695253    33.717669    40.042772 
157340000    263.52117    275.10181    274.08031   -10.705502    13.122726    1.0215048    40.039421 
157344000    269.69446    277.08176    281.95186   -8.9116382    11.354617   -4.8700938    40.038947 
157348000    277.45354    303.76635    288.35638   -11.317598     11.41597    15.409964    40.040196 
157352000     277.2357    319.27199    271.16712   -11.509188    11.922349    48.104865    40.042857 
157356000    275.85008    302.33641    283.46359   -11.056947     11.43161    18.872824    40.042899 
157360000    278.68712    332.23546    280.34011   -12.483922    12.166848    51.895346    40.045004 
157364000    275.16399    335.97019    280.55307   -12.359522    12.214714    55.417116    40.045228 
157368000    272.27984    337.60065    275.39101   -13.872482    11.877373    62.209633    40.042614 
157372000     273.9247    321.64445    290.24082   -13.276107    11.458109    31.403627    40.041127 
157376000    272.49215    324.32657    275.10007   -12.702565    13.830257    49.226505    40.039691 
157380000    275.84599    318.84866    289.46008   -12.389715    13.555901    29.388576    40.036954 
157384000    280.64312    343.67328    274.93963    -12.84507    12.864252    68.733647    40.034698 
157388000    276.46112    324.88675    291.80542    -11.85068    11.321377    33.081335     40.03646 
157392000    276.73125     324.5641    284.53282   -12.435786    13.057245    40.031287    40.036415 
157396000    279.80044    336.39243    277.68614   -12.079911    13.389174    58.706286    40.032516 
157400000    266.60536    327.26833     268.4021   -11.392034    12.920699    58.866234    40.030125 
157404000    272.65767     320.1059     292.7198   -11.803055    11.466415      27.3861    40.027051 
157408000    273.49833    313.19073     297.3565   -12.538892    10.816555    15.834238    40.025484 
157412000    266.64935    309.23824     274.8014    -10.29104    13.824133    34.436836    40.025462 
157416000     275.7771    325.68574    293.66033   -11.319436    12.597997    32.025406    40.027793 
157420000    271.75413    317.92114    285.93135   -11.852173    12.464128    31.989791    40.029116 
157424000    273.85974    316.07308    276.05866   -11.870695    12.026931    40.014424    40.027905 
157428000    268.87662    327.28752     268.2136   -11.475662    13.998405    59.073925    40.025911 
157432000    274.21424    328.28569    294.14995    -11.70646    12.854886     34.13575    40.023777 
157436000    267.85293    319.41694    284.53878   -11.265166     14.37385    34.878157    40.021612 
157440000    269.67203    319.44108    269.46912   -10.390029    13.671022    49.971963    40.018764 
157444000    267.89276    325.83033    264.65121   -10.448825     13.42925    61.179122    40.017964 
157448000    270.92759    324.24819    282.70484    -9.670181    12.683149    41.543347    40.019245 
157452000    268.41478    325.78779    277.44804   -9.8969727    12.969941    48.339751    40.020501 
157456000    268.09329    329.38573    270.59448   -9.9346599    13.326015    58.791254    40.016532 
157460000    260.32567    313.78705    264.56615   -10.718922    14.030126    49.220903    40.016754 
157464000     268.6001    298.26318    300.31729   -10.075146    12.801418   -2.0541088    40.015803 
157468000    267.15639    321.81121    284.39563    -9.949329    13.713439    37.415574    40.018792 
157472000    267.02585    326.04361    257.52894   -10.492005    16.083087    68.514668     40.01878 
157476000    267.12459    319.94262    258.48714   -10.540755      13.9699    61.455483    40.017102 
157480000    266.05637    313.21249    251.22338   -10.742377    14.292423    61.989112    40.016291 
157484000    267.10025    309.34822    275.41375   -10.719943    12.338044    33.934472    40.015428 
157488000    274.63702    331.25113    286.95192   -12.824352    12.430406    44.299211    40.017323 
157492000    267.45391    321.93878    276.93981   -12.492884    12.843244    44.998964    40.018029 
157496000    275.62437    324.00575    281.91429   -12.741427    12.464311    42.091461    40.017307 
157500000    272.59813    331.10007    283.17842   -11.873612    13.189701    47.921645    40.021253 
157504000    270.69746    324.75733    276.50387   -11.874035    12.885567    48.253452    40.023305 
157508000    272.03655    320.51924    276.76884   -12.040782    13.046644    43.750393      40.0249 
157512000    277.57186     337.2609     275.6724   -11.354264    12.816508    61.588508    40.024994 
157516000     279.5927    339.23296    286.15845   -12.282805    13.061282    53.074507    40.025969 
157520000     269.5436    326.82086    277.68679   -12.011441    13.197706     49.13407    40.026641 
157524000    265.89371    321.64339    275.91483   -11.465405    13.087189    45.728569    40.025633 
157528000    275.99805    318.56624    298.01683   -12.690342    12.286872    20.549414    40.023828 
157532000    278.82032    334.47509    284.81816   -13.444394     12.95808    49.656929    40.021325 
157536000    277.58385    326.43238    271.74809   -11.500061    13.124049     54.68429    40.021653 
157540000    265.28671    320.82888     276.5193   -12.321457    12.833913    44.309578    40.023641 
157544000    273.06837    332.65329     278.0452   -13.907136    13.262416    54.608092    40.023412 
157548000    279.16551     327.5355    278.94161   -12.175928    12.140703     48.59389    40.025637 
157552000    281.67766    328.96448    280.00798   -11.665045    13.174119    48.956505    40.026132 
157556000    267.18886    308.12536    266.51693   -11.631317     13.12838    41.608431    40.028582 
157560000    274.89609     302.5613    266.96317   -10.678704    12.602841    35.598131    40.029513 
157564000     277.4026    332.93925    273.06143   -11.787648    11.873429    59.877817    40.028275 
157568000    278.01379    326.19473    285.70374   -11.956089    11.787921    40.490985    40.028103 
157572000    272.41907    317.96889     278.4102   -12.356878     12.68824    39.558693    40.024361 
157576000    276.61619     317.4339    276.94576   -11.499874    13.755382    40.488141    40.021943 
157580000    279.46732    330.31243    277.84906   -13.405629    12.827792    52.463368    40.021961 
157584000    270.62039    317.35235    262.59335   -11.805685    13.547672    54.759001    40.022451 
157588000    278.53527    324.08784    303.83278   -13.539705    11.965746    20.255053    40.022091 
157592000    285.27886    354.15835    290.75071   -14.226455    12.871546    63.407642    40.021634 
157596000    270.62095    295.41985    291.03737   -9.8773539    12.608396    4.3824785    40.022288 
157600000     283.7124    328.59946    287.10696    -11.61579    12.530114    41.492497    40.020154 
157604000    266.51701     323.7541    272.38321   -11.621587    13.067939    51.370892    40.018645 
157608000    268.31194    330.56676    265.67748   -11.543574    12.998899    64.889278    40.022875 
157612000    275.08044    331.66009    279.08083    -11.38265    14.371772    52.579263    40.025531 
157616000    268.89476    326.29778    278.33509   -10.581552    13.308775    47.962691    40.024405 
157620000    267.13933    306.31323    279.23304   -10.622516    12.063206    27.080183    40.023719 
157624000    277.85109    331.70936    303.48669   -10.245462    11.230446    28.222677    40.028917 
157628000    277.59456    325.61232    295.76365   -9.6694489    11.500121    29.848668    40.031368 
157632000    266.46708    328.46135    282.68275   -10.268621    12.107404      45.7786    40.031627 
157636000    265.94173     313.6822     267.1963   -9.6562269    12.765241    46.485896    40.035133 
157640000    269.35603    315.81677    291.84177   -10.637727    11.264524    23.975002    40.034841 
157644000    268.13368    322.30348    280.52874   -11.730449    11.535561    41.774747    40.037931 
157648000    271.51641    314.10625    295.65855   -10.350795    11.350905    18.447698    40.039878 
157652000    276.85205    323.33592    267.05247   -11.503944    12.045473    56.283451    40.036296 
157656000    283.54851    329.39624    303.13515   -11.429647    10.793316    26.261086    40.038406 
157660000    281.47384    322.06703    305.56851   -10.952094     10.74727     16.49852    40.039567 
157664000    262.91172    295.04954    282.49786   -9.8097217    11.773881    12.551674    40.036188 
157668000    271.14663    307.82262    273.16894   -9.7182502    12.400088    34.653682    40.035178 
157672000    282.72132    316.96519    303.29364    -9.495971    11.380111     13.67155     40.03566 
157676000    280.36161    350.15904    280.94226   -11.371771    11.046343    69.216786    40.036898 
157680000    268.28142    323.91441    262.76846   -11.481078    11.721454    61.145954    40.036488 
157684000    267.14347    302.36486    273.96325   -10.348494    12.956042    28.401612    40.036564 
157688000    270.16576    308.81333     283.5106   -9.8559214    11.890613     25.30273    40.037832 
157692000    277.52336    335.51525    274.53262   -13.074471    12.256005    60.982636    40.040658 
157696000    280.76782    324.29609    299.37364   -12.299688    10.752035    24.922456     40.03894 
157700000    271.97246    315.48978    266.01207   -11.187543    12.564082    49.477703    40.038452 
157704000    272.03416    327.56617    266.16468   -11.948476    13.702964    61.401495     40.03973 
157708000    273.31787     326.7919    281.61861     -11.4165    12.532892    45.173288    40.043015 
157712000    281.34804    330.43171    290.58892   -11.782115    12.378189    39.842782    40.045691 
157716000    286.03247    346.57571    290.73404   -12.430607    11.562092    55.841672    40.047794 
157720000     265.8832    319.33542    254.61705   -10.558772    13.860438    64.718369    40.047612 
157724000    258.92056    289.27749    247.98616   -9.5250189    14.261077    41.291327    40.045512 
157728000    279.93555    344.40997     286.7133   -10.957186    12.572101    57.696662     40.04832 
157732000     275.0394    321.03606    276.92101   -10.337245    11.434085    44.115054    40.046506 
157736000     262.7924    304.07263     271.6725   -10.103608    12.428455    32.400125    40.050583 
157740000    270.89285    311.18721    259.73829   -10.734775    13.605351    51.448928    40.051863 
157744000    273.72674    331.16138     266.6751   -12.529592     13.66541    64.486278    40.054181 
157748000    284.74989    339.43973     299.2221   -13.318162    12.024598    40.217632    40.054791 
157752000    270.04033    303.97916    289.03925   -12.063028    12.718511    14.939912    40.055302 
157756000    270.84759    325.69346    275.79053   -12.778262    12.897848    49.902927    40.056684 
157760000    273.99721    325.23944    277.18572   -12.300107     12.50351    48.053718    40.055423 
157764000    275.89292     317.4656    289.60169   -12.624949    11.534986    27.863914    40.053011 
157768000    276.55665    316.46144     277.1994   -12.282496    11.698849    39.262039    40.056051 
157772000     284.9509    334.17457    291.50986   -13.250799    10.094067    42.664714    40.056342 
157776000    274.27647    318.74529    275.62452   -12.509743     12.13403    43.120769    40.054746 
157780000    283.27596      330.848    286.05881   -12.036084    10.975973     44.78919    40.059019 
157784000    276.43959    340.28539    271.35386   -11.999472    12.164952     68.93153    40.060509 
157788000    277.91783    325.42515    267.47899   -12.383098    12.985499    57.946159    40.060725 
157792000    275.01402    317.03028    274.25963   -12.763062    12.949853    42.770642    40.066217 
157796000    273.40539    312.72415    289.90729   -13.007044    13.159771     22.81686    40.062436 
157800000    279.48416    323.92761    276.75983   -12.608377    11.818961    47.167785    40.059787 
157804000    260.19644    297.61588     257.4397   -11.333559    14.467844    40.176178    40.060188 
157808000    281.94396    341.63273    281.68378   -13.120421    12.430734    59.948945    40.061177 
157812000    278.67709    334.31053    298.97749   -11.877102    12.094626     35.33304    40.057652 
157816000    274.22353    320.37545     274.9361   -12.287309    12.953545    45.439348    40.057825 
157820000      266.865    306.52231    283.56699   -11.940099    13.002358    22.955321    40.055023 
157824000    265.57799    326.49171    271.71288   -12.571566    14.047447    54.778828    40.054658 
157828000    271.54069    301.34734    272.77486   -11.706699    13.483783     28.57248    40.054921 
157832000    274.52949    302.57823    275.92268   -11.803856    13.059975    26.655548    40.055996 
157836000    270.39279    292.56268    299.78904   -11.597003     12.21332    -7.226363    40.054822 
157840000    273.21954    327.26296    266.33049     -14.1365    12.714214    60.932468    40.054562 
157844000    273.85198    324.39303    275.87494   -13.246994    13.135303    48.518084     40.05369 
157848000    276.00827    326.85194    290.53911   -14.107133     12.92538     36.31283    40.052566 
157852000    275.74788     326.8591    284.85636   -12.383122    12.126063    42.002739    40.051747 
157856000    274.72941    311.52449     284.9568   -12.447921    12.426465     26.56769    40.050256 
157860000    283.50569    323.90585    299.79538   -11.895052    11.867915    24.110467    40.049442 
157864000    284.27214    338.89667    287.13352   -13.218347     11.33532    51.763149    40.051983 
157868000    275.80162    310.83699    292.89126   -12.179572    11.766661    17.945736    40.050438 
157872000    282.03982    338.68627    277.05462   -12.339664    12.488546    61.631655     40.05055 
157876000    271.32114    313.56694    290.12006    -12.13539    11.967832    23.446882    40.048522 
157880000    269.02563    309.23305    274.38066   -13.015268    12.783594    34.852394    40.049168 
157884000    267.09756    317.54904    270.81462   -12.045913    13.698599    46.734423    40.048404 
157888000    266.53483    321.51584    267.81119   -13.605937    13.398355    53.704649    40.047995 
157892000    267.57597    297.15161     287.5116   -11.234627    14.002606    9.6400144    40.047361 
157896000    275.64629      313.379    293.82497    -12.54182    12.300068    19.554033    40.049985 
157900000    281.20281    323.80995    286.21046   -13.021296    13.884733    37.599493    40.050833 
157904000    270.10087    297.56483    278.24637   -11.757279    13.255369    19.318462    40.048217 
157908000    273.50672    304.78862     294.1326   -10.864026    12.786206    10.656021    40.050607 
157912000    271.97893    327.53852    269.93818   -12.175632    13.464356    57.600345    40.052591 
157916000    272.99649    316.87218    289.60689   -12.619091     13.02398    27.265294    40.050923 
157920000    286.65335    356.42302     287.7211   -14.232286    12.573813     68.70192    40.050457 
157924000    270.95541    298.25314    287.21878   -11.378657    12.538501    11.034362    40.047771 
157928000    283.42397    343.32447    283.95737   -14.125455    13.397076    59.367098    40.047556 
157932000     270.1555    335.53559    285.03305   -12.966422    12.562078    50.502538    40.049666 
157936000    283.73954    339.91578    293.97587   -14.161183     11.34472     45.93991    40.049742 
157940000    272.04018    292.94193    279.68937   -12.693096    12.270307    13.252561    40.051204 
157944000    270.45875    303.51566    290.65275   -12.138214    12.965959    12.862906    40.050241 
157948000    274.53163     315.6135    268.12507   -13.100213    14.463854    47.488432    40.052535 
157952000    287.68135    344.10743    288.15379   -13.534547    13.056544    55.953649     40.05244 
157956000    278.44504    316.66752    276.83823    -13.75083    12.713708    39.829291    40.050767 
157960000    276.61207    324.30255    268.60745   -13.518883    12.367474    55.695099    40.050124 
157964000    283.71958    347.61494    277.16464   -14.306497    13.740405    70.450302     40.04949 
157968000    277.00625    312.65584    290.06632   -12.634069    11.874252    22.589515    40.049857 
157972000    277.31036    337.62652    275.15403   -14.123667    13.167634    62.472491    40.047568 
157976000    273.94501    324.43323    274.36176   -12.750083    12.760827     50.07147    40.046725 
157980000    274.87582    344.73257    265.82673   -14.868017     13.71612    78.905844    40.045839 
157984000    276.70775    331.11901    270.84452   -14.228437    12.281988    60.274491    40.046401 
157988000    290.26957    334.74101    293.00827   -14.798735    12.939903    41.732743    40.042768 
157992000    262.47621     304.2912    250.68028   -12.027899    14.381379    53.610916    40.042841 
157996000    282.05641    328.77148     289.7107    -13.43576    11.766549    39.060781    40.044404 
158000000    275.48295    318.82591    274.42407   -12.302493    13.009348    44.401841    40.044278 
158004000    289.35322    329.08909    288.59587   -14.690532    12.095929    40.493216    40.045031 
158008000     288.8574    335.86492    294.40834   -13.128229    11.568073    41.456574     40.04514 
158012000    282.72092    323.52441    304.79161   -13.324148    10.880449      18.7328    40.039687 
158016000    281.51015    304.06725    289.26394   -12.421021    11.380831    14.803312    40.042298 
158020000    270.91598    303.75912    263.95044   -13.102417    13.461368    39.808675    40.041025 
158024000    273.23027    320.60847    266.24323   -13.498971    12.511267    54.365236    40.038545 
158028000    274.44729    325.01307    276.51724   -12.974602    12.190276    48.495838    40.040339 
158032000    271.09654    315.16926    271.66306   -13.486897    11.776674    43.506208     40.04272 
158036000    280.40566    332.95346    264.52843   -13.242336    12.468528    68.425027    40.042794 
158040000    267.59892    304.56168    263.32002   -11.671282    12.671411    41.241655    40.044373 
158044000    276.45201    320.42827    287.26979   -13.429684    13.276935    33.158484     40.04474 
158048000    265.18333    315.48817    247.84246   -13.097979    14.203082     67.64571    40.048493 
158052000    280.72332    305.12227     293.6068   -12.367744    12.471614    11.515471    40.048852 
158056000    277.76017    309.85077    283.71199   -13.473471     12.42103     26.13878    40.046576 
158060000    280.67689    320.91683    289.50863   -14.337813    12.736525    31.408197    40.048723 
158064000    276.21862    301.14234    282.77383   -12.473525    11.641587    18.368509    40.046533 
158068000    270.89669    287.33358    276.46758   -12.076095    12.193363    10.865999    40.049161 
158072000    281.88837    321.56006    272.70212   -14.671431    14.489087    48.857934     40.05019 
158076000    286.75746    316.73444    289.46449   -13.870722    12.456424    27.269947    40.051401 
158080000    281.58211      317.092    273.25901   -13.569318    11.967511    43.832991    40.056759 
158084000    277.38723    322.21194    270.37669   -13.481401    12.621583    51.835253    40.058953 
158088000    284.48325    319.67989    289.72626    -14.53231    10.832567    29.953626    40.053355 
158092000    280.64019    304.60688    299.56054   -12.138521    11.176307     5.046345    40.052546 
158096000    276.00346    325.72626    261.97621   -14.182082    13.636639    63.750043    40.050708 
158100000    286.26872    339.09899    300.46558   -15.709625     11.41344    38.633409    40.049016 
158104000    278.90861    322.17394    281.80371    -15.01314    12.781639    40.370226    40.048964 
158108000    274.18967    310.46584    284.45659   -13.864422    12.203851    26.009242    40.050623 
158112000    267.18649    308.35364    269.04054   -12.900067    12.767224      39.3131    40.052011 
158116000    263.99942    323.00776     255.6948   -14.008417    13.688953    67.312956    40.051883 
158120000     287.5979    325.52367     287.7077    -15.05525    12.773971    37.815969    40.053229 
158124000     270.5695    310.01454     259.3811   -14.192676    13.968034    50.633439    40.053069 
158128000    271.59984    318.81879    252.78416   -14.737927    14.809764    66.034626    40.057385 
158132000    278.25979    338.13096     277.2274   -14.858214    13.924287    60.903559    40.058488 
158136000     266.3268    301.33272    269.61126   -12.828243    13.501997    31.721463    40.057535 
158140000     275.8807    314.60104    261.98477   -15.146315    13.680294    52.616268    40.059641 
158144000    278.24927     320.5438    289.82412    -15.81502    10.726915    30.719674    40.061842 
158148000    280.93822    308.49316    286.07624   -15.551991    11.646183    22.416911    40.059318 
158152000    281.28477    313.68179    293.61208   -13.913697    13.117263    20.069707    40.057383 
158156000    277.79162    305.09098    271.98674   -14.032369    12.932639    33.104234    40.057541 
158160000    283.08663    350.58027    259.21426   -16.601687    13.355819    91.366006     40.05739 
158164000    286.30442    320.06603    282.21018   -15.404912    11.529635    37.855848    40.057314 
158168000    289.23785     321.4402    281.55115   -15.737896    11.345987    39.889057    40.055824 
158172000     278.6645    316.43828    291.68404   -16.110497    11.198664    24.754243    40.056009 
158176000    280.33124    328.46528    272.83983   -15.509677    12.073633    55.625453    40.057407 
158180000     280.5276    324.78846    284.73931   -14.402843    11.044604     40.04915    40.057942 
158184000    284.59143    336.98495    277.06811   -14.886381    11.274825    59.916832    40.054554 
158188000    289.82623    331.82935    290.31815   -16.097911    11.115717    41.511205     40.05823 
158192000    289.31996    328.68366    287.89115   -16.571283    11.002225    40.792512    40.056204 
158196000    281.85556    310.01968      279.486   -15.888049    11.827897     30.53368     40.05664 
158200000    288.75693    330.35553    273.78609   -15.545998    11.141447    56.569439    40.058138 
158204000    280.38575    317.95785    286.42901   -15.047903    12.244371    31.528839    40.057703 
158208000    279.17474    300.64999    279.04559   -13.060627    12.931717      21.6044    40.058616 
158212000    289.67033    339.06235    283.19344   -15.440989    12.131922    55.868911    40.059703 
158216000    274.86877    302.65006    278.18328   -14.637291    12.878445    24.466777    40.059071 
158220000     282.8504    313.53221    306.24372   -15.384445    10.757441    7.2884907    40.060743 
158224000    286.87586    299.07872    292.28348   -13.978502    12.095991    6.7952413    40.059327 
158228000    283.21566    326.58298    286.54159   -15.238706    12.182966    40.041382    40.059798 
158232000    282.09226    312.11159    290.46113   -15.006245     11.52309     21.65046    40.060627 
158236000    274.99027    306.51857    269.77986   -13.729531    11.736853    36.738709    40.059556 
158240000    285.64243    338.44529    288.37263   -15.228973    12.059948    50.072653    40.056703 
158244000    288.51308    336.12377    289.03301   -16.142682    11.962776    47.090754    40.059327 
158248000    282.97159    308.48489    296.86392   -13.938611    10.763416    11.620966    40.058931 
158252000     286.0671    320.61141    281.85313   -14.169892    12.223018     38.75828     40.05724 
158256000    277.72405    325.62736    261.68475   -14.543481    12.867249    63.942609    40.057064 
158260000    285.01147    333.81371    290.83112   -15.898998      12.0719    42.982589     40.05722 
158264000    278.98941    307.51642    276.41127   -14.869013    13.144719    31.105147    40.057891 
158268000    282.62046    324.08458    284.44562   -15.872067    13.170734     39.63896    40.060875 
158272000    291.55965    338.07028    284.23586   -16.572358    13.428195    53.834423    40.063712 
158276000    287.30417    335.53988    279.97347   -16.515168    12.451472    55.566406    40.066488 
158280000    283.31159    322.39599    267.34802   -15.362543    12.175694    55.047968    40.065712 
158284000      289.112    327.27169    292.14908   -15.462811    11.666883     35.12261    40.062988 
158288000    285.20879    306.95141    282.42525   -13.990135     11.44959    24.526157    40.063274 
158292000    286.02257    307.35236    294.09518   -14.223503    10.806952    13.257181     40.06188 
158296000     284.6409    307.64605    296.05802    -16.09104    10.695709    11.588026    40.061584 
158300000    270.78363    307.94131    258.25755   -14.958519     13.18744    49.683755    40.061597 
158304000     280.9389    308.45495      280.385   -14.689351    11.951967    28.069955    40.060451 
158308000    277.07928    313.45588    267.38422   -14.728893     12.38967    46.071652    40.059505 
158312000    270.76214    295.48562    270.86116   -12.863061    11.486056    24.624458    40.061489 
158316000    280.46431    318.06866    287.11054   -13.363755    12.439105    30.958124    40.064104 
158320000    277.40336    304.21911    287.42537   -12.440462     10.83087    16.793733    40.067792 
158324000     283.5645    330.12582    306.06074   -14.856326    11.440259    24.065075    40.067003 
158328000    286.24741    342.62936    280.94255   -14.962104     12.57967    61.686811    40.066343 
158332000     283.1204    327.95596    290.24499   -13.826993    10.710153    37.710975    40.065397 
158336000    280.32979    313.41025    296.11594    -14.25215    11.041337    17.294305      40.0654 
158340000    279.38411     314.4611    288.07402   -14.518017    11.467538    26.387079    40.066423 
158344000    293.03829    332.57688    302.72996   -15.679349    10.931573    29.846924    40.065059 
158348000    276.76108    315.65291    279.04035   -13.675566    12.449827    36.612557    40.066463 
158352000    282.76907    337.47535    272.32474   -13.459819    12.906589    65.150608    40.065829 
158356000    274.64522     311.8348    283.02495   -13.228157    12.039563    28.809849     40.06606 
158360000    272.89222      324.395    268.43633   -13.129463    13.435819    55.958677    40.066772 
158364000    283.16918    362.12664    273.30115   -15.093012    13.064848    88.825489    40.066842 
158368000    270.79981    318.62887    260.88638   -13.806176    14.819086    57.742484    40.064843 
158372000    270.69799    315.98433    270.79417   -12.227273    13.736736    45.190153    40.065374 
158376000    278.67604    306.19624    302.82579   -11.765325     11.51796    3.3704477    40.062173 
158380000    278.58584    315.32387       290.97   -12.960402    12.543556    24.353863    40.060649 
158384000    272.57583    324.11161    266.73639   -14.299454    13.553693    57.375211    40.063036 
158388000    277.23353    318.59741    279.41272    -14.63221     13.10941    39.184691    40.063627 
158392000    279.76828    330.27165    290.27907   -14.894059     12.10983    39.992577    40.065842 
158396000    283.31701    334.03827    300.94678   -14.269701    10.930839    33.091489    40.066732 
158400000    273.39012    322.83967    275.53148   -14.496459    13.230762    47.308192    40.067312 
158404000    280.57075     337.3604    297.12785   -15.781766      11.9232    40.232549     40.06686 
158408000    269.12866    307.37625    277.87113   -14.216027    12.602541    29.505118    40.066677 
158412000     278.9588    327.23743    280.41684   -13.228579    12.914167    46.820581    40.067153 
158416000    267.29435    308.69087    277.50704   -13.730832    13.434178    31.183825    40.065016 
158420000    272.66506     316.0919    270.32898   -14.376762    12.632017    45.762921    40.065299 
158424000    273.65424    297.67381    286.15122   -12.869565    12.286151    11.522584    40.060635 
158428000    288.26305    329.80627    290.49269   -14.698028    11.919043    39.313577    40.059947 
158432000    278.70154     297.1447    286.96351   -14.254554    12.047361    10.181182    40.057975 
158436000    288.26232    348.17786    296.57286   -16.125434    11.981724    51.605003    40.059549 
158440000    278.30904    321.08146    280.94872    -15.19298    12.205396    40.132734    40.060886 
158444000    276.31232    301.13129    266.62469   -13.425371    13.565918    34.506597    40.063442 
158448000    284.43617    326.22496    284.94887   -14.531214    13.290465    41.276081      40.0638 
158452000    272.47674    312.14594    273.55368   -14.235539    13.952598    38.592262    40.062232 
158456000    278.87673    326.34102     284.3901   -13.526651    12.401202    41.950913    40.060164 
158460000    271.33654    314.07264    283.37222   -13.297652    13.640905    30.700424    40.062005 
158464000    272.32269    324.57475    273.95669   -14.966759    13.522405    50.618061    40.060373 
158468000    281.70073    327.82944     285.4868    -13.87408     13.01201    42.342641     40.05983 
158472000    274.34714    326.62105    271.86842   -14.222581    14.343872    54.752635    40.061036 
158476000    270.22402    313.95843    269.40466   -12.865819    15.123681    44.553777    40.063115 
158480000    282.02644    342.23847    296.02678    -15.67675      13.1712     46.21169     40.06273 
158484000    281.56117    324.73291    276.67212   -14.922926    13.867273     48.06079    40.063099 
158488000    284.21228    315.49731    298.13413   -13.678764    12.791186    17.363177    40.062188 
158492000    272.12698    325.56798    265.37878   -14.531345    15.088817    60.189206    40.060422 
158496000    262.26202    290.65385    278.48037   -12.138673    15.171939    12.173478    40.061834 
158500000    282.93564    336.71861    289.61554   -13.804587    15.251737    47.103065    40.064457 
158504000    274.30369    316.31497    278.32825   -12.076209    16.055932    37.986712     40.06368 
158508000    274.16338    329.93354     288.1774   -13.372107    14.387921    41.756142    40.064993 
158512000    271.45615     308.4832    271.30069   -12.929388    14.565151     37.18251    40.064906 
158516000     277.4794    318.50211    265.28644   -14.700987    15.102045     53.21567    40.065741 
158520000    283.34899    333.95049    290.01519   -13.819372    13.660697    43.935297    40.066509 
158524000    272.73812    328.39808    281.21529   -14.068373    14.150856    47.182784    40.070321 
158528000    278.05462    317.55338    281.78996   -14.011828    14.147051    35.763424     40.06925 
158532000    277.49667    327.47259    294.34731   -13.904974    13.172069    33.125286    40.069141 
158536000    263.84507    301.77361    254.89644   -13.563263    14.722458    46.877163    40.068351 
158540000    284.12355    340.87332    297.92874   -15.465542    13.667379    42.944585    40.066858 
158544000    272.94474    294.66886    294.18491   -11.888616    13.782333   0.48394562    40.066923 
158548000    274.07597    290.12031    294.94013   -11.820022    13.795786   -4.8198127    40.068748 
158552000    269.01583    312.85501    281.91252   -12.815655    14.244281    30.942487    40.070113 
158556000    274.15811    322.93778    271.15132   -13.305074    13.892578    51.786456    40.068778 
158560000    279.86999    330.02464    281.07396   -12.723849    14.037642    48.950687    40.066301 
158564000    268.87971    310.46257    280.14767   -12.586102    13.452831    30.314908    40.066797 
158568000     270.4836    316.37105    283.19733   -12.478195    13.239329    33.173715    40.065062 
158572000    271.89497    322.74337    291.54813   -14.244857    13.403105    31.195239    40.065616 
158576000    265.57565    305.34237     271.7605   -12.490185    13.313156     33.58187    40.064846 
158580000    274.37791    325.20484    271.71322   -13.154495    14.252038    53.491613    40.064407 
158584000    268.57831    289.28129    278.11255   -10.377189    13.847759    11.168741    40.064131 
158588000    275.44579    301.36074    287.12516   -12.225336    13.517694    14.235581    40.065687 
158592000    272.44362    298.61964     299.3971   -11.927018    12.939906  -0.77745954     40.06704 
158596000    271.99711    315.40925    277.73477   -13.032362     13.42013    37.674488    40.067281 
158600000    271.10274    320.93771    276.59057   -13.354941    14.157371    44.347141    40.066406 
158604000    285.06007    321.15076    295.20857   -13.071079    13.054006    25.942183    40.064468 
158608000    271.92877    314.22472    280.26148   -13.316965    13.661726    33.963246    40.063958 
158612000    275.96818    329.70849    288.13826   -12.942631    11.566696    41.570235    40.064281 
158616000    269.43777    312.90959      275.997   -12.623314    14.715828    36.912589    40.064338 
158620000    271.43062    330.07225    290.11188   -12.944132    12.586076    39.960376    40.065708 
158624000    269.73495    322.75934    277.74279    -12.84641    14.639385    45.016545    40.068758 
158628000    270.30607    316.04214    268.54739   -13.286774    13.441802     47.49475      40.0696 
158632000      270.337    334.01112     288.8536   -12.437528    12.493539    45.157517    40.068738 
158636000    275.20864    325.65753    285.86269     -12.8185    13.744771    39.794841    40.070749 
158640000    280.19888    337.58411    286.02936   -14.263012      13.4525    51.554756    40.069839 
158644000    270.78524    316.87924    272.15715   -12.762163    14.503081     44.72209    40.070485 
158648000    280.87099    350.04901    280.82868   -15.483031    13.838102     69.22033    40.072308 
158652000    282.55512    332.80546    288.06172   -13.375665    13.473332    44.743738    40.070327 
158656000    285.02643    337.34917    280.51184   -15.510544    13.941395    56.837325    40.070534 
158660000    278.22953    339.72641    267.32462     -15.3271    13.744911    72.401785    40.067819 
158664000    284.76555    332.24319    290.49445   -14.506771    13.317921     41.74874    40.068144 
158668000    278.17859    319.07105    278.10752   -14.115927    14.363223    40.963532    40.067926 
158672000    274.43817     311.2738    272.55799   -13.734169    15.163047    38.715804    40.069706 
158676000    277.47525    332.17095    291.99486   -14.894616    13.417938     40.17609    40.071088 
158680000    275.96473    308.44809     282.3902    -13.91216    13.731603    26.057894    40.072073 
158684000     271.6804    316.82217    272.59749   -13.800459    14.714204    44.224673    40.073729 
158688000     273.5127    313.14596    273.97153   -13.985485    13.825666     39.17443    40.074614 
158692000    276.04554    325.33835    282.64325   -14.333446    13.197963    42.695106    40.072444 
158696000    279.90612    336.45037    280.92781   -14.652523    14.836273    55.522563    40.073819 
158700000    269.50476    314.71161    259.48403   -13.491579    15.295255    55.227585    40.073176 
158704000    272.91545    346.41512    267.28517   -16.022326    15.933558     79.12995    40.075702 
158708000    281.27132    347.70884    270.70569   -14.813003    14.782436    77.003148    40.077182 
158712000    273.99819    333.04489    278.42756   -15.258566    14.520828    54.617331       40.078 
158716000    274.98693    310.41053    284.72438   -14.751521    14.903149    25.686158    40.078203 
158720000    264.13394    304.12411    265.82933   -14.238075    15.681566    38.294781    40.076804 
158724000    289.23589       353.14    278.86342   -17.208477    15.918765    74.276588    40.078656 
158728000    280.34627    338.65859    270.58502   -15.782652    15.975112    68.073571    40.079217 
158732000     272.5813    309.74803    295.40016   -15.811733    15.097687    14.347872    40.079386 
158736000    274.31691    310.25852    289.12649   -14.652208    15.239414    21.132027    40.078244 
158740000    284.01047    320.84362    287.79396   -15.143591    14.726756    33.049663    40.079369 
158744000    266.07682    273.73079     286.2187   -13.884354    15.248463   -12.487916    40.078317 
158748000    276.41336    335.91969    268.29592   -15.087315    15.454438    67.623773    40.079072 
158752000    271.87929    319.13088    296.35579   -15.314151    15.037457    22.775084    40.074552 
158756000    282.44539    340.20226    310.57503   -16.700775    14.324694    29.627227    40.074229 
158760000     270.1187    313.20174    275.46385   -15.713729    15.830226    37.737897    40.069579 
158764000    274.51522    336.79328    281.20569   -15.794345    15.167305    55.587589     40.06996 
158768000    282.81918    331.19061    291.12346   -16.410151    14.896881    40.067145    40.067367 
158772000    270.83794    329.52268    274.67858   -15.539753    16.093298    54.844095    40.065384 
158776000    277.05904     331.1516    267.32655   -15.456733    16.472098    63.825047    40.065719 
158780000    281.94958    335.49483    280.73227   -16.212467    17.049285    54.762562    40.066139 
158784000    277.68833    327.18574    285.94703   -15.698662     15.48233    41.238702     40.06757 
158788000    270.44026    309.34936    265.92286   -15.146772    16.759567    43.426504    40.067602 
158792000    274.24091    343.10695    287.91981    -16.30601    15.066993    55.187142    40.068252 
158796000    270.74691    320.11185    262.92213   -15.880419     16.78509    57.189711    40.068179 
158800000    268.63403    315.67523    259.89049    -15.57512    16.616961    55.784745    40.067399 
158804000    265.87927    294.12118     282.4492   -14.182845    15.972722    11.671983    40.069861 
158808000    283.31778    357.38339    279.46747   -16.942231    16.250646    77.915919    40.073212 
158812000    272.41957    323.15415    272.42713   -16.306025     16.80128    50.727017    40.073815 
158816000    277.92915    314.94184    289.09305   -16.736898    16.324698     25.84879     40.07453 
158820000    275.71082    317.77688    281.20061   -15.748869    16.542196    36.576266    40.075694 
158824000    271.49678    310.01352    288.51498   -15.284251    16.882133    21.498542    40.072746 
158828000     277.7969    318.10953    287.21784    -16.26057    16.753594    30.891693    40.073444 
158832000    279.96458     344.6655    279.87672   -17.365143    16.077054    64.788779    40.071953 
158836000    273.92411    308.75024    289.27789     -16.0295    15.084607    19.472344    40.070818 
158840000     275.8993    307.17471    299.26583   -14.856991    15.750951    7.9088767    40.072749 
158844000    276.58603    325.06295    288.30441   -16.448859    15.267176    36.758535    40.070393 
158848000    276.36677    316.94209    283.31603   -15.321186     16.11412    33.626059    40.070793 
158852000    274.30937    316.93467    293.48319   -15.028991    14.942473     23.45148    40.069802 
158856000    288.71806    361.36403    290.31171   -18.220012    15.275076    71.052321    40.068764 
158860000    280.54281    326.92468    276.37263   -16.796119    16.927192    50.552058    40.069574 
158864000    278.19097    319.30217    282.67698   -16.643972    17.214189    36.625194     40.07261 
158868000    285.61123    332.84464    294.19572   -15.529166    16.079172    38.648921    40.072116 
158872000    277.58001    316.04677    286.35017   -15.304863    15.141894    29.696598    40.068899 
158876000    276.47509    315.82396    280.23198   -16.444364    15.867392    35.591978    40.067982 
158880000    279.42205    318.26085    287.80388   -16.170384    14.305222    30.456974    40.067857 
158884000    271.53407    282.05903    289.88633   -13.751246    15.424511   -7.8273012    40.064561 
158888000    275.70389    309.66636    273.07675   -14.581262    15.734163    36.589616     40.06371 
158892000    268.37651    314.67158    266.51231   -14.477324    16.267383    48.159273    40.062604 
158896000    276.48336      316.912    281.85016   -16.684929    15.707379    35.061837    40.064422 
158900000    269.04222    321.23756    258.93354   -15.427548    17.003058    62.304017     40.06463 
158904000     283.7718    336.58014    293.14939    -16.87535     16.45785    43.430745    40.064878 
158908000    271.49686    328.41039    263.66116   -16.321376    16.976213    64.749227    40.069276 
158912000    275.93311    320.90017     287.7243   -16.217099    15.791155    33.175871    40.070553 
158916000    268.83466    316.08896    261.20955   -15.294809    16.619002    54.879408     40.07224 
158920000    289.05423    346.74794    281.46521   -16.529596    15.155316    65.282733    40.071564 
158924000    274.92669    318.75277    263.43743    -14.51143    15.887024    55.315335    40.072375 
158928000    262.91685    305.17947    275.55687   -14.264039    15.565919    29.622603    40.072038 
158932000    277.17652    317.04451    294.01501   -15.286013    15.028874    23.029504    40.071215 
158936000     274.5688    328.13707    280.47117   -16.287481    15.964832    47.665901    40.069285 
158940000    271.67717    311.74518     279.4415   -15.247204    16.508677    32.303677    40.069222 
158944000    274.05016    311.78185    284.47494   -15.984454     16.08965     27.30691     40.07098 
158948000    269.40799      317.247     278.8214   -15.208607    16.693075    38.425598    40.071256 
158952000     278.9461    325.15638    296.63588   -16.256933    15.846668    28.520503    40.071245 
158956000    263.16079    306.88317    255.81846     -15.2972    17.030699    51.064712    40.069969 
158960000    275.22988    324.17277    284.80894   -16.487996    15.354099    39.363824    40.070156 
158964000    276.66917    305.70091    293.15117   -16.790973    15.470449    12.549737    40.067978 
158968000    277.76975    325.36386    296.61695   -16.692392    15.481209    28.746911    40.067585 
158972000    269.44552    285.31799    290.85493   -15.412561      15.3311   -5.5369386    40.067936 
158976000    275.31207    299.63414    277.07073   -16.024007    17.160816    22.563409    40.071932 
158980000    281.13225    327.87988    290.04128   -16.951537    15.944723    37.838601    40.071576 
158984000    276.43389    349.95679    271.22735   -17.495345    16.585039    78.729445     40.07104 
158988000     285.3759    335.02835     288.9101   -19.490571     15.39784    46.118241    40.069407 
158992000    273.14488    303.59788    294.99173   -16.570074    15.332016      8.60615    40.068451 
158996000    275.33103    328.73228      249.625   -17.443318    17.361761    79.107285    40.067704 
159000000    275.12922    309.23529    261.97484   -15.670916    16.889316    47.260449    40.069075 
159004000    283.77197    319.47269    283.68589   -15.645372    15.935255    35.786799    40.068016 
159008000    278.31054    332.10662    269.30507   -17.225334     17.23181    62.801556    40.068847 
159012000     271.2322    295.13954    284.51043   -15.577796    15.439514    10.629103    40.070114 
159016000    273.90178    300.54498    277.32962   -15.382637    15.136046    23.215355    40.070553 
159020000    279.79009     322.4599    285.02865   -17.117073    15.832974    37.431257    40.067564 
159024000    277.39307    318.09225    283.20093   -17.935278     15.41454    34.891315    40.068214 
159028000    275.01703     305.9228    285.55569   -15.878105     14.68927    20.367117    40.066827 
159032000    274.84752    316.35575    283.79523   -17.302401     14.95935    32.560515    40.066584 
159036000    291.70521    361.94167     282.5299   -19.093569    15.378863    79.411767    40.067876 
159040000    284.85166    323.07039    299.46531   -16.799252    14.405998    23.605081    40.067502 
159044000     276.1168    297.73805    276.54884    -15.68903    15.127004    21.189214    40.065392 
159048000    279.36279    315.45295    277.49563   -17.578987    14.984829    37.957317     40.06619 
159052000     281.8864    331.51766     270.9435    -17.74782    16.436431    60.574153    40.066366 
159056000       279.89    301.91439    301.93673   -15.242459    13.520583 -0.022340116    40.066632 
159060000    288.96047    330.09536     307.3905   -16.484887    13.768913    22.704867    40.067005 
159064000    284.45695    314.30807    282.37982   -16.692622    15.742609    31.928245    40.068455 
159068000    281.31609    313.32735    285.67886   -17.777086    13.738615    27.648489    40.069794 
159072000     286.7366     337.2083    293.55701   -18.756935    14.057339    43.651292    40.066804 
159076000    283.69683    337.84277    283.18602   -18.841207     14.47212    54.656751     40.06715 
159080000    285.11358    333.34476    275.71207    -16.85886     15.02226    57.632688    40.068879 
159084000    282.09569    322.98549     295.1995    -17.04636    14.258037    27.785994    40.067554 
159088000     272.3756    313.10612    274.46819   -16.953609    15.610625    38.637935    40.064682 
159092000    282.63768    310.74884    305.50517   -16.013933    14.146833    5.2436716    40.063624 
159096000    278.15472    312.74414    283.60142   -17.199711    15.549399    29.142717    40.065813 
159100000    289.44655    333.87611    310.35811   -17.539077    13.688715       23.518    40.063425 
159104000    278.25231    301.25042    297.63758   -16.224007    15.849442    3.6128421    40.063345 
159108000    287.01009     329.3692    288.81762   -16.826395    16.296386    40.551586    40.065409 
159112000    280.35525    319.62865    300.01699     -16.0098    15.983171    19.611658    40.066331 
159116000    282.07105    320.32784    299.18746   -15.056084    14.734714    21.140384    40.064155 
159120000    279.04027    321.19803    284.32325   -14.932195      16.3443    36.874779     40.06777 
159124000    277.49397    321.28787    280.83474   -15.542012    15.747341    40.453127    40.067762 
159128000    274.98371     323.7753    281.48517   -15.754027    15.235172    42.290131    40.067601 
159132000    270.22263    321.65916     271.3148   -14.849474    16.879193    50.344363    40.071787 
159136000    279.58382    332.20049    279.92885   -16.862629    16.660879     52.27164    40.067776 
159140000    272.98715    329.06775    283.89557    -15.52059    16.772384    45.172178    40.069053 
159144000    277.85694      314.976    297.87514   -15.358187     15.30931    17.100862    40.065361 
159148000    268.66059    319.97388    265.03145    -14.39282    17.928515    54.942431     40.06364 
159152000    265.48104    301.42959    282.39501   -13.300782      16.3226    19.034581    40.064485 
159156000    266.00376    302.68079    260.16146   -14.613906    18.103152    42.519324    40.064567 
159160000    272.59462     321.1127    293.21032   -15.270636    16.106731     27.90238    40.064154 
159164000    270.99633    337.57804     270.9531   -17.156434    17.232407    66.624938    40.060496 
159168000    275.08186    338.62317    279.65819   -15.932095    17.200904    58.964983    40.060667 
159172000    263.14726    319.50842    259.17965    -15.12113    18.116723    60.328765    40.059294 
159176000    277.48397    331.73667    293.84689   -16.172893     16.89359     37.88978    40.057378 
159180000    277.48331    308.47171    298.51918   -14.619926     14.97873     9.952529    40.055836 
159184000    275.86444    314.50296    286.38299   -14.395573    15.431313     28.11997    40.056407 
159188000    267.73931    312.42537    256.87894    -14.57818    16.159868    55.546438    40.056842 
159192000    272.63261    324.46457    291.41197   -15.575282    15.184909      33.0526       40.054 
159196000    276.79506    321.88966    291.57123   -15.205156    14.740229    30.318423    40.052161 
159200000    271.45991    314.89027    290.68615   -15.285542    14.778734    24.204114    40.053173 
159204000    268.05989    325.92912     266.1468   -16.775366    15.623624    59.782322    40.055367 
159208000    266.58245    317.39932    254.73517   -16.258002    16.560677    62.664151    40.053804 
159212000    264.59004    322.38579    246.17849    -16.31563     18.00223    76.207295    40.053826 
159216000    276.17393    317.99584    283.85622    -14.64494    14.890913    34.139619    40.053226 
159220000    275.39176    315.97811    274.01792   -16.403854    16.137813     41.96019     40.05184 
159224000    283.94557    347.74278    280.56722   -18.287412    15.740558    67.175557    40.052379 
159228000    277.00923    307.62197    289.10038   -16.239687     14.25154    18.521596    40.052272 
159232000    280.58212    331.90079    280.21584    -16.81086    15.386782    51.684944    40.052218 
159236000    277.93118    335.91676     272.4739   -16.491137    15.040143     63.44286     40.05359 
159240000    267.67205    302.28549    279.05194   -14.326484    14.939752    23.233552    40.052747 
159244000    278.73299    315.71733    283.81963   -16.068411    15.009214    31.897693    40.051523 
159248000     272.7953      318.207    287.31113   -16.115139    15.256718    30.895867    40.053093 
159252000    268.10118    304.47185    273.71128   -15.507567    16.191312     30.76056    40.052068 
159256000    279.36693      341.439    268.28118   -16.946768    15.272679    73.157815    40.052509 
159260000    276.35275    315.90125     278.6291   -15.981466    16.265155    37.272153    40.050413 
159264000    280.24269    330.77356    295.13496   -17.720814    15.829042    35.638598    40.049741 
159268000    270.97427    316.82356    277.35716   -16.181678    15.961077    39.466406    40.050445 
159272000    283.51771    324.55095    292.95319   -15.965837    15.416593    31.597759    40.050966 
159276000    275.92746    336.46744    289.18625   -17.025079     16.03105    47.281185    40.048702 
159280000    274.11207    332.70767    276.40063   -15.628138     17.19374     56.30704    40.048783 
159284000    271.48832    323.78266    284.50869   -15.146993      16.4171    39.273969    40.051505 
159288000    277.82467    302.00194    316.46741   -14.733328    14.578152    -14.46547    40.052723 
159292000    267.42891    302.98796    290.95887   -15.489615    15.760373    12.029087    40.051026 
159296000    268.62399    315.24089    283.78811   -14.896095     16.36305    31.452774    40.052336 
159300000    267.17276    320.36914    272.37356   -14.776763    17.108667    47.995587    40.051652 
159304000    280.96419    342.47367    300.13041   -16.343628    15.397679    42.343262    40.051242 
159308000    272.78887    341.19637    274.79045   -16.982132    17.190948    66.405929    40.051194 
159312000     274.3389    321.60771     274.7645   -15.291763    16.797978     46.84321    40.048217 
159316000    271.02682    322.98025    278.91462   -16.369002    16.809147    44.065625    40.048719 
159320000    265.39923    322.43199    264.29242   -15.290328    16.763862    58.139574    40.051265 
159324000     270.7538     339.5584     258.8688   -15.863691    18.140516      80.6896    40.054028 
159328000    265.94776    306.23896    271.10316   -15.048613    16.502499    35.135794    40.057457 
159332000    268.24117    307.00546    275.91828    -14.53075    15.960467    31.087183    40.056331 
159336000    272.69813     317.2365     278.3638   -15.588699    15.252301    38.872699     40.05632 
159340000    273.63653    292.21265    288.43726    -14.24622    16.027488    3.7753872    40.054059 
159344000    276.52878    322.90919    276.07287   -17.538353    14.900729     46.83632    40.056031 
159348000     267.8366     302.5711    276.40029   -16.117082    15.080655    26.170815    40.056266 
159352000    279.88158    331.57047    291.27918   -16.802776    13.785338    40.291292    40.054967 
159356000    283.68585    327.11096    299.36871   -16.150138    13.749171    27.742246    40.055087 
159360000    279.70176    313.28537    297.84915   -14.704652    14.800982    15.436224     40.05531 
159364000    264.68695    305.72096    267.32717   -13.685885    16.689728    38.393787    40.054798 
159368000     274.6124    317.43106    275.38319   -15.520722    15.686147    42.047871    40.055841 
159372000    266.56156    313.46782    266.17196   -15.893228    16.143873    47.295858    40.057504 
159376000    275.86203    323.30543    282.27526   -15.287095    16.748104     41.03017    40.055829 
159380000    274.00573    318.44693    288.97222   -15.003503    16.261319    29.474713    40.055245 
159384000    278.89641    331.55392    289.32475   -16.803452    15.483833    42.229167    40.057043 
159388000    265.75185    303.13672    268.09105   -15.220251    16.892516    35.045663    40.057721 
159392000    280.48808    328.63501    297.24958   -16.389942    14.506522    31.385432     40.05686 
159396000     282.1247    325.50224    286.34524   -16.825055    16.807392    39.157003    40.056612 
159400000    263.19355    313.78338      260.151   -15.683433    17.289333    53.632378    40.058012 
159404000    273.98237    323.03867    273.60014   -16.308156    17.545616    49.438531    40.059356 
159408000    269.96987    313.99691    289.74041   -16.181803    15.778818    24.256496    40.061393 
159412000    279.91391    335.61079    276.32329   -16.517208    18.485477    59.287493    40.061097 
159416000    274.85651    325.06252    286.10501   -15.480162    17.206534    38.957513    40.060313 
159420000    283.63349    352.23859    298.42109   -18.024201    16.358572    53.817499    40.060621 
159424000    264.26087    284.66041    276.39944   -14.677262    18.231774    8.2609685    40.058279 
159428000    275.06181     341.5307    276.50775   -18.056242    18.303623     65.02295    40.062283 
159432000    271.89994    306.46714    284.64273   -16.080856    18.215705    21.824411    40.063693 
159436000    273.53843    352.18081    264.06693   -19.246765     17.06666    88.113884    40.063641 
159440000    270.82398    326.35331    261.80011    -17.80713    17.505233    64.553206    40.065197 
159444000    277.10388    321.50291    276.06808   -18.645035    17.010341     45.43483    40.064285 
159448000    268.70512    305.99088    268.66588   -16.976903    17.251079    37.325003    40.064265 
159452000    272.62558    315.78757    275.57935   -16.440524    17.925562    40.208221    40.065639 
159456000    279.19582    321.76667    280.90974   -17.888333    17.307973    40.856931    40.064713 
159460000    281.50819    325.36394     288.3287   -17.353712    17.129891    37.035236    40.066379 
159464000    273.48536     300.6674    297.42385   -16.351336    16.547109    3.2435421    40.068226 
159468000    275.99452    323.47366    282.05823    -18.27206    17.432629    41.415429    40.068636 
159472000    275.84216    329.31871    266.11731   -17.387359    17.806886    63.201401    40.068782 
159476000    271.55166    310.22051    280.38682   -17.869026    16.974141     29.83369    40.067437 
159480000    277.60235    341.65039    275.27641   -18.317128    17.372941    66.373973    40.068305 
159484000    281.30868    324.58131    294.54887   -18.663146       16.323    30.032442    40.069278 
159488000     280.0768    351.89869    276.08199   -20.108336    19.040986    75.816698    40.067283 
159492000    271.27628     310.2758    278.56557   -16.850673    17.900424    31.710229    40.068531 
159496000    271.31884    313.53621    285.76593   -16.251336    17.699031    27.770282     40.07043 
159500000     273.8083    339.53342    252.04657    -18.59668    18.845629    87.486854    40.071378 
159504000    277.85239    321.27377    272.81152    -17.81313     18.04834     48.46225    40.072099 
159508000    272.74141    300.56177    274.96528   -16.803248    17.718175    25.596495    40.072085 
159512000    273.68596     323.4538    272.77245   -17.552494    17.597047    50.681352    40.071014 
159516000    278.14007    321.37908    284.85594   -17.094705    16.361401    36.523135    40.069663 
159520000    276.31549    308.86963     285.5004   -15.978752     16.99585    23.369226    40.071716 
159524000    268.15184    314.07018    251.19945   -16.856802    18.842517    62.870734    40.075411 
159528000     274.4597    333.08578    268.63929   -16.500839     18.07353    64.446486    40.077775 
159532000    272.59687    296.19917    276.55468   -15.364632    18.411297    19.644493    40.075651 
159536000    280.19784    331.15406     283.1734   -18.418905    18.152095    47.980659    40.074887 
159540000    265.72906    321.66618    258.50323   -17.681673    19.175804    63.162952    40.077465 
159544000    267.98352    314.65904     283.6234   -17.030629     18.33644    31.035636     40.07768 
159548000    271.37811    314.40543    280.02731   -15.487792    17.290467    34.378124    40.078828 
159552000     266.0121    303.72527    271.76768   -16.400381    17.943502    31.957589    40.078519 
159556000    278.49882    309.67717    295.41663   -16.403788    17.127108    14.260538    40.077272 
159560000    269.06008    313.88099    288.19377   -16.998152    17.281302    25.687221    40.075299 
159564000    268.33535     317.1328    274.91358   -17.178503     18.77572    42.219221    40.076246 
159568000    268.32426    316.67855    279.53737    -16.44836     19.64564     37.14118    40.075377 
159572000    269.12971    333.77731    270.02417   -17.393958     17.90468    63.753145    40.072742 
159576000    269.97751     314.1094    287.49787   -16.882532     17.51912    26.611532    40.072421 
159580000    282.01411    318.72444    285.15966   -17.501913    16.853375    33.564789    40.068936 
159584000    280.82848     319.4191    287.94823   -17.229482    16.884269    31.470873    40.067075 
159588000    277.62794    314.29293    278.74437    -16.90605    15.500683    35.548562    40.067993 
159592000    278.72377     324.9365    301.27085   -17.171582    15.794812    23.665649    40.067632 
159596000    278.82566    319.65647    282.22408   -18.419444    16.625835    37.432394    40.067715 
159600000    270.23993    284.98569    260.98003   -16.311907    18.620949    24.005662    40.067887 
159604000    268.05851    309.66401    266.70946   -16.966865    18.161931    42.954543    40.065625 
159608000    267.08271    301.80913     274.4687   -15.689462    17.406076    27.340425    40.066195 
159612000    267.43936    321.67994    265.55163   -16.252717    18.605422    56.128308    40.065571 
159616000    276.49781    312.40622    278.90027   -16.741941    16.922396    33.505948    40.064197 
159620000    271.79483    313.47013    288.09847   -15.147248    17.208799    25.371664    40.063718 
159624000    279.28156    314.53006     289.2075   -16.929436    17.393129    25.322559    40.065542 
159628000    268.65004    309.15325    280.06201   -14.975188    16.402901    29.091242    40.067652 
159632000    274.31737    317.74952    308.42451   -16.308295    15.392214    9.3250125    40.065867 
159636000     274.9466    344.50118    269.40607   -16.863546    17.360274    75.095107    40.067073 
159640000    279.44006     336.2461    285.43216   -17.636665    17.027666    50.813936    40.068276 
159644000    280.24691    342.85001    284.56151   -16.880282    17.221336    58.288504    40.069525 
159648000    259.90378    314.59521    267.52317   -16.186953    18.297098    47.072034    40.070322 
159652000    276.17796    317.79025    284.06868   -16.520127    17.611358    33.721567     40.06719 
159656000    269.64467     322.6489     267.3777   -16.496648    18.564716    55.271195    40.068143 
159660000    270.26414    300.07895    273.02665   -17.612391    17.662411    27.052303    40.066166 
159664000    277.83573    332.14609    264.62297   -19.492491    17.485529    67.523116     40.06687 
159668000    278.43628    332.70674    257.52719   -17.906443    17.389333    75.179548    40.067667 
159672000    282.96662     328.3086    299.08408   -18.040033    16.250896     29.22452    40.064485 
159676000    281.15578     322.1625    299.02121   -17.486765    14.898195    23.141289    40.062356 
159680000    272.63596    298.54103    270.17664   -17.789731    16.972474    28.364392     40.06378 
159684000    284.44195    309.83596    317.50309   -16.955814    14.608224   -7.6671312    40.060733 
159688000    282.21391    324.87281    275.42869   -18.666444    16.500912    49.444119    40.060576 
159692000    282.29315    321.64117    287.32126   -17.814377    16.301661    34.319906    40.059957 
159696000    281.69202    314.70784    301.67548   -17.718707    15.058451    13.032356    40.059053 
159700000    279.04515    332.86285    280.00921   -18.871134    15.627356    52.853638    40.058308 
159704000    283.38739    329.57816    280.78471   -19.391591    16.790101    48.793447    40.060401 
159708000    278.98019    324.37347     283.5031   -18.780958    17.505352    40.870369    40.061409 
159712000    280.92411     315.5812    275.56132   -17.685906    16.958421    40.019878    40.063162 
159716000    277.96835    316.90516    281.12429   -18.781783    16.294208    35.780866    40.063542 
159720000    282.79664    320.99023    293.83772   -17.957933    15.016759    27.152502    40.062945 
159724000    272.63488     315.6033    291.75371   -17.873859    15.347607    23.849591    40.061534 
159728000    279.45982    314.57562    288.00663   -17.352487    15.565686    26.568992     40.05834 
159732000    276.55791    322.68486    282.39921   -17.137315    15.849974    40.285645    40.057152 
159736000    279.06032    325.06831    289.60279     -16.8573     16.49608    35.465517    40.057436 
159740000    277.03307    325.03178    291.85241   -17.313875    15.290039    33.179372    40.059148 
159744000    270.01958    294.26857     277.0992   -16.270034    15.934276    17.169379    40.058171 
159748000    274.95242    330.04291    285.39591   -16.729308    15.799609    44.647001     40.06008 
159752000    276.90344    321.64959    283.39159   -17.152523    16.487735    38.258003    40.060646 
159756000    278.45828    336.70739    270.90771   -18.164324    17.658927    65.799678    40.061189 
159760000    281.18459    320.09816    279.03309   -17.700101    17.049772    41.065067    40.060964 
159764000    273.86473    308.49585     286.6829    -16.21408    15.691659    21.812946     40.06263 
159768000    281.16592    313.65093    289.92594   -17.070323    15.812178    23.724987    40.062051 
159772000    278.48941    315.30005    296.65589   -18.300528    16.480112     18.64416    40.064009 
159776000    273.21345    311.38813    285.33166   -17.577201    17.292841    26.056473    40.065285 
159780000    273.95134    316.26814    290.49832   -17.738173    17.188788    25.769814    40.064442 
159784000    282.45309    311.65976    306.00277   -18.101028    15.489934    5.6569933    40.060347 
159788000    283.25991    330.45729    277.66224   -18.828752    17.652807    52.795052    40.060994 
159792000    282.44006    337.76814     283.6114   -19.204433    17.185503    54.156736    40.059727 
159796000    270.57951      295.261    276.08654   -16.066634     16.54373    19.174467    40.058913 
159800000    286.71811    334.28819    308.34756   -17.020986    16.103229    25.940634    40.059074 
159804000    274.91466    322.94236    285.96116   -17.215165    17.242253    36.981201    40.059285 
159808000    281.51364    323.45551    291.40728   -17.702677    16.689761    32.048233    40.059859 
159812000    279.89555    321.23103    271.06923   -17.363941    17.337467    50.161796    40.060431 
159816000    279.62366    324.67082    273.80019   -16.784403    16.771279    50.870631    40.059479 
159820000    275.01111    324.86156    280.84745   -16.644235    16.101751    44.014106    40.060462 
159824000    279.16408    322.06894    284.63305   -16.674226    17.131048    37.435884    40.057693 
159828000    287.86275    337.23542    306.68801   -18.395206    15.632463    30.547409    40.058339 
159832000    282.58802    326.45037    305.66276   -16.253302    15.599432    20.787612    40.058631 
159836000    270.40551      311.475    277.74795   -16.899653    17.138759    33.727055    40.056085 
159840000     274.4222    322.50531    269.77739   -17.200828    17.604645    52.727921    40.054369 
159844000    277.85148    322.80478    272.58889   -16.796776    16.333384    50.215889     40.05604 
159848000     274.7432    305.28268    298.45115    -16.55243    16.308819    6.8315353    40.054237 
159852000    269.04637     311.6742    284.38971   -17.087258    16.871218    27.284494    40.057103 
159856000    268.91918    311.64033    287.63469   -15.768394    16.405171     24.00564    40.057346 
159860000    272.17708    328.55418    276.27076   -16.482323    17.089497    52.283419    40.056648 
159864000    274.67633    326.75183    290.75668   -16.949581    17.259055    35.995146    40.056962 
159868000      264.367    319.68997    282.31298   -16.061482    17.035349    37.376985    40.054784 
159872000    276.04992    339.73675    288.21979     -17.1621    18.333518    51.516966    40.053317 
159876000    269.83043    323.29571    265.34018    -16.02588    19.736091    57.955524    40.051607 
159880000    269.95101    304.89729    292.20239    -14.76362    18.010693    12.694904    40.049226 
159884000    272.67463    316.21647    278.93046   -17.006336     19.06797    37.286011    40.051242 
159888000    267.82267    321.01332    270.61826   -15.382868     19.86337    50.395062    40.051754 
159892000      283.264     331.5814    284.61787   -17.823462      18.7425    46.963535    40.052604 
159896000    271.07896    323.15639    276.69287   -16.871648     19.03103    46.463523    40.056221 
159900000    267.97175    308.23473    279.80617   -15.882586    18.064404     28.42856    40.054323 
159904000    270.28398    315.62889    275.01083   -17.053596    17.594073     40.61806    40.054966 
159908000    275.70361    339.83177    270.54493   -18.455631    17.992342    69.286848    40.055479 
159912000    275.99586    345.74747    277.96389    -17.72482    17.969946    67.783574    40.057103 
159916000    274.54098    334.85739    276.50819   -17.056054     18.06747    58.349207     40.05731 
159920000    285.96082     345.0296    302.33466   -17.744799     17.38549    42.694945    40.059642 
159924000    265.01904    303.62765    277.86902   -15.862808    18.853616     25.75863    40.055239 
159928000    271.73945    316.45533    295.85361   -16.241096    17.318156    20.601717    40.053872 
159932000    270.37636    328.05689    270.71022   -16.902159    18.276491    57.346674    40.052642 
159936000    280.09502    330.36833    284.89743   -16.756012    17.391461    45.470896    40.052374 
159940000    266.86867    338.65212    264.03862   -17.207943    18.934676    74.613501    40.052215 
159944000    265.51462    299.58433    274.09023   -14.949412    18.670258    25.494101    40.052123 
159948000    278.79945    329.28105    304.47186   -16.945291    17.542242    24.809192     40.05499 
159952000    270.27358    317.15232    303.60968   -16.493018    16.449215    13.542641    40.053958 
159956000    262.30352    309.03174    261.21028   -15.594096    19.049266    47.821457    40.055197 
159960000    262.98951    315.56956     269.5493   -16.198287    18.025755    46.020259      40.0554 
159964000    266.57126    309.94776    287.60091   -15.563149    18.496172     22.34685    40.053962 
159968000    282.17421    345.58102    297.34245   -17.839892    18.041332    48.238575    40.053516 
159972000    272.74306    327.90989     289.8037   -17.427758    17.434282    38.106194    40.054132 
159976000    273.82393    335.12915    267.44061   -18.868404    18.700242    67.688544    40.054654 
159980000    276.06381     316.5278    297.93508   -18.694946    16.866637    18.592726    40.053459 
159984000     264.0424    310.40948    262.57887   -16.168838    19.182024    47.830609    40.055051 
159988000    269.60394    310.97002    283.46622    -16.67407    18.077855    27.503791    40.056381 
159992000    268.11165    320.80738    279.78532   -16.082244    18.119195    41.022056    40.055885 
159996000    270.94335    303.47282     293.7743   -16.077372     17.95209    9.6985187    40.055452 
160000000    276.20822    344.89506    282.42058   -17.932365    18.167373    62.474483    40.059065 
160004000    265.27836    318.03886    292.17826   -15.929007    17.712626    25.860601    40.055733 
160008000    273.44602    318.07344    275.56913   -15.741249     18.58526    42.504301    40.056927 
160012000    276.01814    318.94676    277.58996   -15.911986    19.103749      41.3568    40.054942 
160016000    257.04382    296.03905    263.05783    -15.45104    18.406786    32.981216    40.053941 
160020000    263.05593     281.5091    289.89006   -14.247662    17.886663   -8.3809606    40.050949 
160024000    273.42098    312.01615    289.80265    -15.54795    18.674849    22.213505    40.047565 
160028000    266.77941    307.39293    284.50421   -14.981899    18.005062    22.888723    40.047985 
160032000    264.51899    326.87773    263.28088   -16.406523    19.967258    63.596844    40.048448 
160036000     267.6911    320.48568    282.19414   -17.843476    19.590134     38.29154    40.047197 
160040000    273.00966    319.05669    272.74335    -16.40901    20.294777    46.313334    40.046415 
160044000    268.06677    329.36854    276.62084   -16.749841    18.614859    52.747706    40.047206 
160048000    271.73228    313.85478     294.9934   -15.261339      18.0822    18.861378     40.04507 
160052000    274.33497    317.09611     291.7976    -16.55962    18.712772    25.298511    40.046438 
160056000     270.8434    334.46031     267.0807   -16.383734     20.50419     67.37961    40.045118 
160060000    268.54468    321.18715    274.64211   -15.021088    19.542655    46.545048    40.045376 
160064000    269.62248    315.36666    273.00246   -15.611363    19.470373    42.364202    40.045785 
160068000    268.44042    313.16726    282.93915   -14.336963    19.859312    30.228104    40.044878 
160072000    266.42939    308.32624    267.32504   -14.928636    18.429129      41.0012    40.045155 
160076000    277.63606    323.93614    279.50742   -16.846393     18.90821    44.428713    40.044678 
160080000    275.35876    313.97178    305.61539   -16.828143     18.63853    8.3563974    40.044362 
160084000    278.05041    336.16202    293.16159   -17.726959    17.963333    43.000424    40.045748 
160088000    263.63195    330.14389    260.83677   -17.663719    19.024264    69.307122    40.045039 
160092000    273.11088    329.94006    280.65525   -18.090097    18.399692    49.284815    40.045577 
160096000    270.45247    320.64041    276.40775    -16.72541    18.073135    44.232659    40.047243 
160100000     277.0367    329.31411    306.72467    -18.31831    17.629515    22.589438    40.048232 
160104000    271.21364    334.45207    279.27485   -16.878005    18.530811     55.17722    40.048552 
160108000     275.1086     360.1691    268.46759   -19.393922    18.984038    91.701501    40.046837 
160112000    266.18848    312.68915     275.1764   -17.292329    19.185844    37.512746    40.047974 
160116000      275.411     338.2087    286.98161   -17.660938    18.826785    51.227081    40.048438 
160120000    269.82043    317.56693    279.83435   -18.925758    19.867968    37.732575    40.048408 
160124000    272.06632    326.89024    271.81921   -17.944783    20.175389    55.071031    40.048351 
160128000    256.85507    294.05315    271.66886   -17.772884    18.765864    22.384287    40.047337 
160132000    263.17374    298.64426    267.55671   -17.163696    19.234843    31.087548    40.049084 
160136000     273.4862    316.35081    278.53256   -17.856145     18.82668    37.818249    40.048869 
160140000    273.44258    316.19747     305.6971   -17.312953    17.476055     10.50037    40.048959 
160144000    271.50724    326.73017    278.28917   -18.215212    18.527263    48.440998    40.049321 
160148000    279.15768    334.36435    282.59814   -18.682255    19.023189    51.766216    40.049489 
160152000    271.10223    316.97388    265.81645    -17.31398    19.175617    51.157434    40.050843 
160156000    275.29794    333.11047    276.56853   -17.098592    18.789937    56.541939    40.048882 
160160000    275.67394    331.26121    269.13203   -18.055175    19.595581     62.12918     40.04955 
160164000    270.03321    329.28651    283.83288   -16.907541    19.309487    45.453631    40.048878 
160168000    276.71208    331.03841    279.65972   -18.035004    18.751175    51.378691    40.045254 
160172000    272.73799    321.89372    292.26958   -17.880753    18.505627    29.624144    40.045642 
160176000    275.50443    332.19003    275.38488   -17.013581    18.027637    56.805149    40.045656 
160180000    272.78273    306.02512    290.78114   -16.947728    15.951383    15.243979    40.045809 
160184000    277.93749    335.47145    279.50395     -17.5062    17.965446    55.967495    40.046413 
160188000    278.74772    327.60901     282.4038   -17.390393    17.439419    45.205209     40.04831 
160192000    281.00883    370.17748    287.17782   -19.241532    16.940191    82.999665    40.048235 
160196000    264.23661    308.65948    258.44487   -16.777369    18.782446    50.214611    40.046824 
160200000     277.1558    324.57413    290.57731   -17.665053    18.516711    33.996822    40.045901 
160204000    264.11646    307.10966    277.35015   -15.901268    19.055608    29.759508    40.046911 
160208000    266.67386    317.15684      268.407   -17.198495    19.589039    48.749841    40.045107 
160212000     271.4602    312.12761    295.76631   -17.923341    17.798172    16.361294    40.045821 
160216000    271.08214    326.29544    283.87038   -18.016606     18.07884    42.425055    40.044067 
160220000    272.78475    306.85428     292.1783   -17.560208    17.453775    14.675974    40.045022 
160224000    276.35812    325.63705    276.16745   -19.228272    18.828761    49.469596    40.046296 
160228000     280.1803     320.8802    284.07788   -17.920488    17.934644    36.802321    40.047048 
160232000    274.58247    326.19614     261.4166   -18.420351    19.362123    64.779539    40.048302 
160236000    277.96911    311.31707    307.22436   -17.555463    16.515134    4.0927078    40.046318 
160240000     280.2738    322.14495    279.03396    -17.85929    18.770955    43.110985    40.045786 
160244000    290.07578    334.20078    292.67962   -18.821001    18.700539    41.521156    40.048339 
160248000    280.52902    320.49838    300.00865   -17.949968    18.053276    20.489737    40.048067 
160252000    294.19207    352.53132    311.17904   -19.347802     17.76009    41.352278    40.047163 
160256000    271.38553    315.42061    275.48958   -18.253694    18.259533    39.931038    40.047523 
160260000    271.14247    306.03311    288.70812   -18.325453    18.660817    17.324989    40.048207 
160264000    277.78145    309.65518    276.57386   -17.597941     17.97957    33.081322    40.046143 
160268000    281.65717    319.26687    289.06318   -18.825631    18.560757    30.203686    40.045902 
160272000    274.79793    326.22773    289.73844   -18.450435    18.488537    36.489285    40.045279 
160276000    279.21205    337.48563    270.27231   -17.893551    19.416156    67.213317    40.044852 
160280000    278.51293    328.29926    293.62029   -18.712073    17.981421    34.678979    40.045517 
160284000    271.93938    315.98253    273.96379   -17.820096    18.771313    42.018745    40.043824 
160288000    267.64711    294.93674    266.59683   -17.246634     19.06149    28.339903    40.044686 
160292000    277.31792    320.46818    296.60556   -18.171973    18.178487    23.862621    40.043213 
160296000    281.54365     320.7253    285.49905   -19.198058    18.484638     35.22625    40.044541 
160300000     269.3192    294.98993    292.17084   -17.823523    17.356007    2.8190955    40.046713 
160304000    277.96976    318.24649    280.21322   -18.802653    18.435844    38.033278    40.048323 
160308000    274.53663    323.33926    263.18151   -19.213066    19.289354    60.157755    40.048814 
160312000    270.83775    312.73759    265.53862    -18.68157    17.757797    47.198963    40.049161 
160316000    281.34273    322.60682    281.17782   -19.231993    19.328488    41.429006     40.04964 
160320000    274.54146    317.69108     283.3683   -18.783712    18.136369    34.322778    40.051081 
160324000    278.66739    318.90669    309.40629   -19.928851    16.588817    9.5003925    40.048947 
160328000    281.68551    331.79809    281.25041   -19.684232    17.416342    50.547682    40.050713 
160332000    276.19085    336.36255    277.85258   -20.259863    17.949504    58.509969    40.052247 
160336000    282.77059    325.78712    293.02379   -20.080242    16.656854    32.763325    40.050109 
160340000     271.4597    320.89271    263.53348   -19.800151    18.522708    57.359236    40.051662 
160344000      275.321     302.0868    282.29143   -19.027178    17.983329    19.795373    40.048863 
160348000    284.46625    313.35101    289.02744   -20.027184     17.18827    24.323574     40.04649 
160352000    282.85626    323.34999    279.44958   -20.207221    18.125498    43.900415     40.04981 
160356000    270.83064    292.62068    257.42168   -18.096817    19.881215    35.198996    40.050435 
160360000     282.7557    336.67093    278.53497   -21.105197    18.049694     58.13596    40.050935 
160364000    269.37577    324.63063    261.95166   -21.253274    18.883138    62.678966    40.049766 
160368000    279.27999    327.85126    270.06111   -21.622589    18.330128    57.790154    40.051235 
160372000     282.8143    308.51688    287.26989   -20.882087    17.843957    21.246994    40.052119 
160376000    275.44695    339.71153     273.3839   -20.356522    18.597149    66.327628    40.053331 
160380000    281.28573    314.41883    285.57168   -19.577565    16.806243    28.847152     40.05618 
160384000    284.32923    319.86939    292.34182   -19.532643    17.281283    27.527574    40.056689 
160388000     282.0141    323.12886     288.3194   -19.630662    17.408154    34.809459    40.057521 
160392000    276.19646      296.714    280.39626   -18.151459    17.791417     16.31774    40.054821 
160396000    292.00406    323.33544    303.71216   -20.421829    17.071647    19.623279    40.054218 
160400000     284.2259     328.7562    279.42529   -20.451983    18.722908    49.330906     40.05511 
160404000    290.84345    325.82654    297.28559    -20.36766    17.184442    28.540945     40.05324 
160408000     277.9559    301.65974    295.55267   -19.828296    17.025493    6.1070628    40.051754 
160412000    292.27376    317.06746    300.11807   -20.358011    17.659781    16.949389    40.050965 
160416000    281.24975     313.2614    289.29196   -19.977262    18.749863     23.96944    40.049926 
160420000    292.44127    342.90943    292.83894   -22.883856    17.108241      50.0705    40.048978 
160424000    277.97554    310.15662    289.82904   -20.742345    18.414157    20.327578    40.050605 
160428000     282.2291    336.26396    279.20364   -20.718785    17.960367    57.060314    40.051334 
160432000    285.60014    319.55703    298.35864   -20.200613    17.565079    21.198392     40.05416 
160436000    275.80488    317.13479    268.19508   -20.266066    18.994221     48.93971    40.055636 
160440000    284.45123    319.27008     300.1047   -20.504383    16.414674    19.165381    40.056601 
160444000    270.52512    299.15728    265.41961   -18.206837    19.332254    33.737677    40.055871 
160448000    282.32453    316.37941    280.63361   -20.629424    18.973969    35.745799    40.056242 
160452000    278.83483    318.69056    284.71561   -19.726452    19.059716    33.974951    40.053232 
160456000    273.73339    310.96524    272.59069   -19.422001    19.228293    38.374551    40.052902 
160460000     267.5701    301.32212     274.8622   -18.898495    18.499389    26.459918    40.052723 
160464000    266.02265    316.66305    266.88748   -19.632559    20.192045    49.775569    40.050931 
160468000    279.47113    304.78247    291.73182   -18.196296     17.44246    13.050644    40.051638 
160472000    279.43576    321.06399    273.25278   -18.815762    19.328634     47.81121    40.050702 
160476000    268.94566    303.80396     269.4573   -19.635703    19.425315    34.346656    40.052139 
160480000    280.63599    320.11978    301.88813   -19.595451    18.253398    18.231651    40.051837 
160484000    272.64451    310.43481    286.62643   -18.631252    18.695322    23.808383    40.052047 
160488000    276.30178    344.59757    278.33303   -20.313502    18.536315    66.264545    40.050217 
160492000    278.73375    328.73905     287.3434   -18.887164    18.532517    41.395645    40.049638 
160496000    277.40618    311.81379    292.38532   -19.413724    18.926013    19.428478    40.048998 
160500000    267.20849    318.90757    271.88407   -18.865761    19.980634    47.023503    40.049413 
160504000    275.89616    345.06588    272.96779   -19.015585    20.555446    72.098089    40.050176 
160508000    270.06984    310.18594    290.41426    -18.84732    19.559152    19.771685    40.050573 
160512000    277.00336    321.29615    277.06663   -19.825262    19.804213    44.229518    40.050586 
160516000    280.30907    311.16007    289.77531   -19.311304    18.536684    21.384754    40.051593 
160520000    274.72497    319.57892    271.79291   -18.627783    20.263166    47.786008    40.051604 
160524000    276.00668    312.43831     277.4738    -19.19549     18.29379    34.964502    40.048412 
160528000    275.09625     319.7917    288.67429   -19.040022    17.649429    31.117403    40.047257 
160532000    276.21913     327.1305    276.66102   -19.177737    19.303118     50.46948    40.048025 
160536000    268.64779    286.04827    283.66169   -17.537283    18.297624    2.3865799    40.048297 
160540000    272.62438    321.87582    266.25862    -19.96112    17.029267    55.617196    40.049253 
160544000    279.66248    327.62793    272.32008   -18.867504    18.124146    55.307851    40.048151 
160548000    276.17435    316.69149     279.2239   -18.390726    18.831284    37.467588    40.049256 
160552000    291.55461    335.17969    299.98704   -19.082362    18.378933    35.192655    40.052074 
160556000    269.01917    303.61631    273.24264   -19.344512    18.397816    30.373673    40.050937 
160560000    282.38942    335.19858     283.4833   -20.709108    18.311571    51.715278    40.052118 
160564000    286.19697    325.36546    291.75903   -19.879672    17.914725    33.606433    40.052247 
160568000    276.36467    329.03348    281.81398   -21.102047    18.864447    47.219505    40.053522 
160572000    283.41083    330.82964    279.51219   -19.445056    17.990882    51.317445    40.052886 
160576000     272.9387    308.71702    277.33688   -18.139954    19.359912    31.380138    40.052052 
160580000    275.90702    306.99768    284.85984   -18.663511    18.280587    22.137844    40.051108 
160584000    281.33074    321.34847    295.46274    -19.20335    17.691106    25.885732    40.051096 
160588000    274.31961    326.82839    273.19643   -19.511249    18.127751    53.631961    40.051131 
160592000     281.0059    334.12623    264.70814   -19.350735    18.495759    69.418097     40.04826 
160596000    271.14704    329.50231    266.78093   -19.692016    17.767362    62.721387    40.047794 
160600000    278.12059    326.73255    272.85955   -19.407214    18.273004    53.873005    40.048182 
160604000    273.54813    334.02375    266.24226   -18.716993    18.610569    67.781493    40.049251 
160608000    271.58923    306.13934    265.56901   -18.612461    18.047861    40.570326    40.050623 
160612000    282.92295    350.80533    279.37488   -19.750689    17.799841     71.43045    40.052534 
160616000    274.62958    323.10986    271.57454   -19.113075    18.449837    51.535319     40.05381 
160620000     281.3395    340.36479    272.90129   -20.157926    18.437686    67.463505    40.054153 
160624000    276.64763    304.67149    272.31853   -18.657611    19.007064    32.352968     40.05491 
160628000    276.53804    317.18095    285.37922   -19.459526    18.282544    31.801736    40.056857 
160632000    274.59764    329.26738    281.67261   -19.910149    17.455106    47.594773    40.056829 
160636000    275.98238    327.18581    271.23855   -19.975984    18.413683    55.947262    40.057263 
160640000    288.12525    347.48358    274.85933   -20.940292     18.39117     72.62425    40.055685 
160644000    276.25993    326.11891    274.68495   -20.846466    17.712893    51.433951    40.055293 
160648000     283.5403     348.8954    277.45098   -21.452694    17.698565    71.444419    40.055129 
160652000    288.41582    355.07106     282.2243   -20.682617    18.120135    72.846757    40.055419 
160656000    276.49058    319.35861    268.89442   -19.872425     19.23594    50.464193    40.053809 
160660000    280.51019     326.1383    286.20268   -19.418823    18.395392    39.935618    40.055168 
160664000    280.71449    314.34986    287.94049    -18.28481    18.120633    26.409368    40.057891 
160668000    274.28672    320.92959     281.3719   -19.779729    18.128819    39.557696    40.059284 
160672000    286.36148    336.11982    294.65162   -19.864535    17.415338      41.4682    40.059711 
160676000    276.97387    332.68494    277.46032   -19.786547    18.032141    55.224616    40.057804 
160680000    277.53535    321.11332     286.9072   -19.059711    17.904507    34.206117    40.056976 
160684000    277.50612    334.76031    266.32573   -20.009692    19.270266     68.43458    40.056538 
160688000    281.53398    327.66012    299.47802   -19.172454    18.327853      28.1821    40.057276 
160692000    281.91583     331.0466    282.65383   -19.044136    18.524849    48.392767    40.056261 
160696000    268.95892    297.60024    266.74687   -18.460274    18.775615    30.853369    40.055275 
160700000     273.9174    300.57939     272.6796   -19.211798    17.868215    27.899788    40.057816 
160704000    283.97395    314.23148    273.59408   -20.703458    18.303972    40.637395    40.057878 
160708000    283.52381    331.16126    271.81862   -20.552943    19.073538    59.342638    40.058177 
160712000    277.47131    335.26778    278.64534    -20.67794    18.775999    56.622434    40.056358 
160716000    275.51657    321.86049    285.79318   -19.683995    18.717436     36.06731    40.056453 
160720000    288.45748    348.63855    277.05524   -21.920392    18.982192    71.583304    40.056968 
160724000    278.40927    324.86618    295.63684   -20.254178    18.763453    29.229344    40.056603 
160728000    281.48461    334.88025    280.15225   -20.442142    19.528239    54.727994    40.057279 
160732000    275.28809    316.53467    275.58683   -19.310387    19.183611    40.947845    40.054673 
160736000    268.07868    308.24859    274.69972    -18.93948    18.738324    33.548876    40.054452 
160740000    282.24452    311.91605    283.85563   -17.973227    17.434662    28.060418    40.055146 
160744000    275.75672    330.70222    288.66205   -19.271641     18.46432    42.040172    40.055379 
160748000    277.17127    311.62872    265.47353   -16.845434    20.194965     46.15518    40.058057 
160752000    278.54666    325.54419    296.12326   -19.190776    17.545629    29.420931    40.059403 
160756000    284.75861    342.18916    280.62791   -20.034526    19.175422    61.561253    40.055827 
160760000    275.19839    316.46198    274.59941   -19.386383    19.730304    41.862576    40.057828 
160764000    288.81922    351.34686    289.71142   -20.862885    19.191328    61.635441    40.058296 
160768000    279.38207    333.88908    267.35801   -19.434935    20.517442    66.531076    40.057646 
160772000    276.27951    313.00059    289.40515   -19.272965     18.27846    23.595443    40.056397 
160776000      274.131    304.74328    285.21809   -19.253717    19.422148    19.525189    40.056861 
160780000    272.22191    315.78151    276.31227    -19.86175    19.371058    39.469242     40.05852 
160784000    275.90856    322.44627     292.6128   -21.233616    19.567868    29.833466    40.060848 
160788000    280.11085     318.6028    301.62416   -19.542117    18.941584    16.978646     40.06026 
160792000    272.00284    290.28152    275.40442   -17.987397     20.66611    14.877102    40.059083 
160796000    275.87511    329.29471    284.14336   -19.895291    19.208958     45.15135    40.058882 
160800000    262.73211    306.14623    255.37237   -19.241181    20.823252    50.773858    40.060726 
160804000    273.65543    332.06718    267.39718   -20.145042    20.093909    64.669999    40.060445 
160808000     264.2227    285.57446    269.81476   -18.378231    20.717399    15.759701    40.059603 
160812000    266.67052    307.05609    269.19833   -20.042734    19.912943    37.857759    40.059314 
160816000    271.08049    288.46633    278.80039   -19.511323    18.965093    9.6659432    40.058815 
160820000    276.67907    326.47868    290.28569   -20.056146    17.947613    36.192992    40.060575 
160824000    269.62395    304.99338    272.87369   -18.533526    19.979552    32.119693    40.061017 
160828000    280.72904    337.46446    287.13617   -20.945986    19.424164    50.328289    40.061446 
160832000    276.55554    324.68121    285.71366   -18.946115    18.815609    38.967549    40.060681 
160836000    283.45297      340.484    286.52164   -20.821903    19.266045    53.962362    40.060371 
160840000    269.15503    312.74496    276.83702   -20.123708    20.801315    35.907933    40.060119 
160844000    274.61659    300.99786    289.64602   -19.629841    19.705533    11.351845    40.059971 
160848000    275.55556    319.56673    288.68352   -19.199046    20.117881    30.883214    40.057243 
160852000    266.67409    312.29593    280.43111   -19.353849    21.143804    31.864818    40.056664 
160856000    275.52971    311.89122    304.24714   -20.021637    19.831045    7.6440796    40.056805 
160860000    269.50311    301.30839     290.9757   -19.677421    20.178431     10.33269    40.057346 
160864000    264.35633     326.2813    265.29505     -19.7373    21.920434    60.986242    40.058762 
160868000    274.10328    312.49431    275.27271   -19.556225    20.893767    37.221599    40.059149 
160872000    269.30601    295.90602     282.5758   -18.268417    20.436644    13.330222    40.060989 
160876000    280.57678     326.1624    281.62489   -18.629299      20.3072    44.537512    40.062015 
160880000    281.11036    351.52786    292.90226   -19.994212     20.04966    58.625595    40.062756 
160884000    273.99403    315.28157    276.76378   -19.056162    21.257233    38.517786    40.063884 
160888000    271.35682    311.57177    285.59204   -18.358087     20.68863    25.979726    40.062961 
160892000     269.5471    297.14624    299.23699   -18.986762    20.316199   -2.0907481    40.061945 
160896000    275.22541    337.71538    284.04106   -20.379013    20.854209    53.674319    40.064516 
160900000    269.20061    310.99102    283.72807   -19.208566    20.415418    27.262945    40.064836 
160904000    270.65252    318.95727    294.12491   -20.348885    20.331719    24.832363    40.066123 
160908000    276.10218    322.41774    269.09392   -20.304417    21.539684    53.323818     40.06258 
160912000    281.67552    347.25121    296.15471   -20.527846    19.943109    51.096501    40.062522 
160916000    273.81697    331.37877    267.77617   -18.765381    21.053684      63.6026    40.062297 
160920000    269.56278    319.77012     283.0776     -20.8361    20.013176    36.692524    40.061574 
160924000    276.46826    310.17966    289.45574   -18.867794    21.131677    20.723922    40.063781 
160928000    269.42298    315.50433    273.73821   -18.511281    21.654616    41.766122    40.064739 
160932000    271.72223    321.51993    286.58503   -19.321401    21.457238    34.934898    40.064601 
160936000    282.07286    351.49503     283.9039   -21.132444    20.892362    67.591131    40.065011 
160940000    270.86398    323.89402    280.09234   -19.887535    20.901312    43.801688    40.064347 
160944000    275.12565    310.56526    295.77471   -20.275205    19.320823    14.790549    40.063798 
160948000    289.43181    344.63614    290.80857   -21.154721    19.836236    53.827574    40.063257 
160952000    272.38687    291.04361     293.2184   -18.759434    19.434439   -2.1747903    40.062008 
160956000    271.74909     308.6734    261.41732    -19.84567    20.890158    47.256083    40.061431 
160960000    275.58793    322.86475    294.61878   -20.597258    19.887798    28.245973    40.060638 
160964000    276.80057    327.54395    271.03107   -18.728504    21.246066    56.512872    40.062202 
160968000    275.65221    314.52924    287.02105   -18.651253    19.671127    27.508188    40.060209 
160972000    281.22445    315.90105    302.84179   -20.311045    18.877932    13.059264     40.05981 
160976000    278.15722    329.83561    269.31057   -20.650282    21.027281    60.525037    40.060239 
160980000    276.79442    330.35133    300.40724   -19.635167    18.468628    29.944089    40.061284 
160984000      285.616    337.04421    288.52048   -21.742268    19.852319    48.523735    40.059809 
160988000     267.4903    313.34295    277.31092   -20.178569    19.946839    36.032038    40.059594 
160992000     264.3224    327.57085    273.07208   -19.130102    20.783497    54.498778    40.062508 
160996000    274.62168     342.9804    261.65966    -19.64985    21.274035    81.320742    40.064523 
161000000    280.70519    341.88604    293.66558   -19.743591    19.619895    48.220464    40.061332 
161004000    270.48606    319.18812    288.16851   -19.007036    19.749011    31.019608    40.060534 
161008000    271.56066    331.68478    265.74289   -19.040232    20.035225     65.94189    40.061365 
161012000    277.91823    309.62377    292.98367    -18.02303    18.735167    16.640097    40.060528 
161016000    270.89557    307.14508    274.25813   -17.928871    19.687846    32.886959     40.05898 
161020000    270.57112    321.49488    256.86797   -18.714171    21.309675    64.626915    40.060974 
161024000    275.10846    335.22207    281.37071   -19.866134     19.51977     53.85136    40.061815 
161028000    271.33605    311.58873    284.51967   -19.174368    19.048254     27.06906    40.060691 
161032000    279.30325     331.4806    272.42121   -19.151921     20.83725    59.059389    40.061747 
161036000    277.95136    337.81595    286.15903    -20.53594    19.563865     51.65692    40.064143 
161040000    278.76471    335.71383    279.44994   -19.461085    20.290598    56.263895    40.061486 
161044000    268.45313    330.85978     263.8022   -19.493431    20.250436    67.057579    40.059057 
161048000    267.61462    297.34337    268.50239   -18.472348    19.995062    28.840977     40.05727 
161052000    270.29301    308.35821    271.56876   -19.182767    20.287979    36.789445    40.057608 
161056000     276.1588    331.93336    276.79088   -20.501149    19.573129    55.142486     40.05803 
161060000    278.01995    333.33066    277.37526   -20.250763    19.778856    55.955398      40.0574 
161064000    277.17168    323.55326    300.30552   -20.046003    18.757972    23.247743    40.058701 
161068000    279.72544    317.75131    302.12899   -20.253223    18.873867    15.622316    40.060207 
161072000    271.59441    292.93827    287.95254   -19.344235    21.421324    4.9857383      40.0599 
161076000    271.70086    317.41189    285.87521   -18.989924    20.235138    31.536682     40.05956 
161080000    268.08879    316.22907    264.22055   -21.638154    20.792073    52.008525    40.060487 
161084000    277.28676    316.50174    293.36036   -20.400168    19.802652    23.141377    40.061378 
161088000    281.27782    337.93796    296.77917   -20.882753    19.742736    41.158789    40.060734 
161092000     271.5354    325.78249    281.57748   -19.530958    20.551535    44.205008     40.05967 
161096000    269.53869    323.97258    264.26257   -20.045573    20.825775    59.710006    40.061072 
161100000     283.6573    337.92262    283.01064   -20.208596     19.75182    54.911979     40.06437 
161104000    272.39039    320.89038    261.45352   -19.598516    21.355607    59.436857    40.065084 
161108000    273.87811    307.14971    290.07536   -20.383731    19.457947    17.074351    40.066262 
161112000    281.94108    337.53054     275.7561    -21.23115    21.359758    61.774447    40.065139 
161116000    281.92685     338.0577    270.28365   -21.065458    20.688114    67.774059     40.06489 
161120000    273.73576    325.37519    276.06407    -19.80232    20.162173    49.311119    40.064283 
161124000    272.39986    295.78434     293.1867   -19.326847    19.004728    2.5976395    40.063912 
161128000    274.35106    323.30781    275.45576   -21.284454    20.944968    47.852054    40.066381 
161132000    272.58504    308.16593    295.84112   -21.656148    19.073171    12.324811    40.067048 
161136000    276.92257    323.83033    274.77408   -20.658672     20.32749     49.05625    40.065432 
161140000    283.21476    338.86769    282.28897   -21.704183    20.373706    56.578723    40.065701 
161144000    275.22387    327.44698    264.37596   -20.532825    20.328457    63.071025    40.066316 
161148000    276.86797    320.50616    262.53736    -21.30045    20.868032    57.968806    40.064096 
161152000    281.32435    347.44481    279.34942   -21.560976    20.247062    68.095382    40.066949 
161156000    274.57574    312.14226    287.65816   -19.884884    20.239819    24.484098    40.066123 
161160000    272.11766    325.89209    272.50198   -20.948479     20.10499    53.390112    40.066228 
161164000    273.46811    316.44195    286.68568   -20.752273    20.456232    29.756276    40.064594 
161168000     273.0395    310.36195    272.45909    -20.29893    21.321882    37.902859    40.066808 
161172000    274.99833    291.65076    296.40524   -19.664565    18.829751   -4.7544808    40.065023 
161176000     284.9682     321.6354    288.58411   -20.633059    19.637016    33.051285     40.06612 
161180000    277.70121    309.16097    293.81935   -19.845201    18.888053    15.341623    40.065814 
161184000    281.97878    330.68858    291.26165   -19.964985    20.585294    39.426923     40.06766 
161188000    276.80068    332.88707    280.08425   -20.603887    21.107635    52.802822    40.067372 
161192000    273.07739      322.504    288.86387   -20.188347    20.869729     33.64013    40.069134 
161196000    268.66811    303.05622    280.35128   -19.902085    20.960621    22.704947    40.070667 
161200000    282.59011    344.18062    290.65603   -22.564033    20.254608    53.524588    40.070774 
161204000    279.49644    330.24548    269.66504   -19.802973    21.255057    60.580443      40.0731 
161208000    279.26041    323.94539    292.80344   -19.627452    20.465028    31.141949    40.073293 
161212000    270.26503    329.47788    269.15161   -18.943055    21.384235    60.326271    40.073049 
161216000    276.18868    333.73238    288.12126   -20.001927    20.761589    45.611124    40.071921 
161220000    264.61824    315.60998    278.31689   -19.026569    21.485539    37.293094    40.073918 
161224000    284.50252    351.74942     286.0027   -20.349147    20.350919    65.746722    40.074334 
161228000    275.32975    333.82365    279.13498   -20.996069    20.532477    54.688675    40.074821 
161232000    273.09245    325.18565    271.13439   -21.080888    21.689003    54.051261    40.074465 
161236000    271.76781    308.40252    285.01504   -19.344994    20.557251    23.387482    40.073986 
161240000    272.47822    322.94931     271.8751   -19.919431    21.628222    51.074205    40.074769 
161244000    269.86873    323.30796    272.40859   -19.594225     21.00203    50.899379    40.075158 
161248000    272.22123    318.12882    288.26839   -19.720422    20.991414    29.860424    40.074851 
161252000    265.90588    284.50183    294.29348   -17.971135    21.623058   -9.7916508     40.07523 
161256000    261.48627    285.28384    269.88238   -19.888694    22.213036    15.401466    40.072286 
161260000    269.72067    296.28549    293.48249   -19.085105    20.705176    2.8030008    40.071245 
161264000     274.2933    313.19116    288.30613   -20.342596    21.018566    24.885029    40.069584 
161268000    272.44072    327.47832     280.2649   -20.020572    20.703616    47.213413    40.071003 
161272000    275.29671    323.59807    265.45479   -21.082334    22.371558    58.143279    40.069682 
161276000    275.36973    346.15248    269.93513   -21.471126    21.473644    76.217346    40.070668 
161280000    268.98314    300.94303    278.13545   -19.608864    20.571155    22.807581    40.070454 
161284000    271.63325    335.63852    272.32911   -20.443338    22.108988    63.309411    40.070353 
161288000    268.05576    306.45802    283.78845    -18.68027    20.356036    22.669577    40.068543 
161292000    271.91055    323.56199     279.0891   -18.712167     21.23803    44.472887     40.07004 
161296000    268.19434    320.37089    246.94557   -19.316958    21.651661    73.425315    40.070342 
161300000    285.87828    330.28603    327.08014   -19.935711    19.290621    3.2058931    40.069838 
161304000      269.235    321.65786    271.91606   -19.767846    21.924399    49.741797    40.068805 
161308000    277.76367    323.91846    291.99719   -20.153555    21.771768    31.921278    40.068563 
161312000    273.64246    329.31871    281.82018   -20.292366    21.694417    47.498524    40.068524 
161316000    273.55743    322.00936    261.78328    -20.19638    22.039763    60.226084    40.069621 
161320000    277.72393    337.75118    302.64561   -20.314025    20.147843    35.105568     40.06971 
161324000    277.52737     330.3254    290.28942   -20.361264    20.914338    40.035986    40.070654 
161328000    268.91556    324.58558    266.16068   -19.538476    21.560988    58.424898    40.070364 
161332000    276.60903    300.46767    291.53033   -20.110252    20.733088     8.937343    40.070475 
161336000    276.49919    331.04767    279.80165   -21.773036      20.9017    51.246021    40.070335 
161340000    270.65129    318.11989    271.30979   -21.256441    22.240651    46.810097    40.070574 
161344000    271.73121    304.76289    278.95866    -19.63585    22.310446    25.804239    40.069176 
161348000    271.64258    333.55969    283.06502   -20.920107    20.936257    50.494666    40.068256 
161352000    285.57536    328.59732    307.51164   -21.720601    20.027889    21.085674    40.066871 
161356000    271.19725    338.19818    255.25317   -22.951919    22.067488    82.945007    40.065112 
161360000    272.78816     300.5368    300.58354   -20.084247    20.817531 -0.046739676    40.065481 
161364000    256.41741     297.5805    255.24694   -20.029322    23.782044    42.333563    40.065626 
161368000    272.76446    323.48396    283.97814   -21.370271    22.721383    39.505817    40.064791 
161372000    280.50009    330.53536    294.97657   -21.040599    21.847645    35.558787    40.065105 
161376000    273.23052    344.23302     267.8376   -21.064278    22.870005    76.395425     40.06611 
161380000    270.26959    308.59483    279.88496   -20.496312     21.74539    28.709872    40.065248 
161384000      278.427    333.15524    293.60665   -20.342307    21.927754    39.548584    40.066876 
161388000     270.7923    316.09051     274.8075   -19.794223    22.148539    41.283011    40.067992 
161392000    266.47687    318.30705    270.87555   -21.025461    21.964207    47.431502    40.068835 
161396000    275.86063    334.50492    281.39389   -21.254496    21.767065    53.111037    40.068827 
161400000    270.82643    315.03609    268.21169   -20.383628    22.347013    46.824396    40.069137 
161404000    274.86359    336.04802    283.41547   -21.107143    21.346603    52.632554    40.067009 
161408000    281.06946    333.00011    279.20245   -19.679542    22.417951    53.797659    40.067216 
161412000    271.91937    304.92056    282.57304   -19.272509    21.266081    22.347521    40.068858 
161416000    268.50091     322.7542    276.39489   -20.359303    22.309774    46.359303    40.067664 
161420000    272.45506    306.53268    278.68339   -20.026623    21.428789    27.849291    40.065926 
161424000    267.09852    295.73899    274.54143   -20.459231    21.376904     21.19756    40.067127 
161428000    280.84934    326.74737    288.95423   -20.724121     20.87959    37.793145    40.066687 
161432000    268.35712    309.87277    282.37521   -20.399698    21.708814    27.497554    40.067298 
161436000     274.6184    317.07207    285.24591   -19.978085     21.32354    31.826166    40.065915 
161440000    279.61513    343.84633    290.03805   -21.417372     20.45884    53.808283    40.066039 
161444000    282.21497    326.30187     283.4979   -21.660601    20.969673     42.80397    40.065449 
161448000     282.3872    333.11155    289.16633   -22.042253    20.502576    43.945219    40.067096 
161452000    271.64658    319.53015    273.76404   -21.886015    21.123276    45.766116       40.068 
161456000     274.3599    310.76569    289.10538   -20.433597    21.080609    21.660306      40.0704 
161460000    277.48567    297.39168    292.43149   -20.541161    20.554038    4.9601905    40.069303 
161464000    283.09827    319.73972    309.49442   -21.338519    19.512442    10.245299    40.068732 
161468000    278.42636    333.49146    276.09552   -21.925141    19.390783    57.395935    40.066774 
161472000    280.93636    338.19996     276.1661   -21.990954    20.716908    62.033863    40.065497 
161476000    275.91814    305.76733    282.34703   -21.485513      20.0351    23.420292     40.06434 
161480000    270.21358    307.11192    264.78443    -22.01955    21.862915    42.327485    40.065763 
161484000    277.36884     316.5181    282.25338   -21.294921    20.600997    34.264718     40.06619 
161488000    269.94206    322.91891    270.42555   -21.537807    21.699466    52.493353    40.067089 
161492000    289.65132    342.01407    309.99005   -21.531273    18.665356    32.024018    40.068152 
161496000    278.82982      338.665    274.16654   -21.639686    21.156352    64.498459    40.066775 
161500000    273.81079    326.67822    273.04272   -21.916474    21.113133    53.635502    40.066413 
161504000    276.68527    326.06445    279.68773   -21.594904    20.694292    46.376716    40.067693 
161508000    278.04812    325.63582    283.76665   -22.600533    21.032861    41.869171     40.06713 
161512000    278.82401    328.91354    271.98478   -22.252673    21.285924    56.928755    40.065912 
161516000    272.45682    315.46633    261.79442   -22.306097    20.397268    53.671912    40.065392 
161520000    290.77823    333.00352    300.85986   -22.294401    18.398382    32.143653    40.065463 
161524000    271.33563    316.31048    275.15341   -22.552327    20.809641    41.157067    40.066159 
161528000    282.38514    307.95638    300.34664   -21.653069    20.114008    7.6097388    40.066924 
161532000    278.91674    324.23899    297.35965   -22.202018    20.892399    26.879335     40.06763 
161536000    280.17392    338.20006    293.93703   -21.737312    21.490103    44.263029    40.066588 
161540000    271.26479    331.91773    264.44481    -21.76204    22.647618    67.472914     40.06744 
161544000    284.63016    326.67577    290.00866   -21.151521    20.994487    36.667116     40.06793 
161548000     277.2556    315.47912    284.35889   -20.817167    21.116134    31.120228    40.067396 
161552000     268.7039    300.73808    282.49616   -20.252375     21.86336    18.241918    40.065951 
161556000    276.69201    333.58411    267.20933   -22.013868    22.182088    66.374778    40.067295 
161560000     269.6101     290.6113    277.80363   -19.691079    21.452977    12.807672    40.066698 
161564000    264.19083    308.39698    262.52517   -20.868981    23.571556    45.871816    40.068101 
161568000    277.16386    304.83968    294.42971   -21.115932    20.905955    10.409962    40.068405 
161572000    280.65266    320.31621     313.8664   -21.702164    20.714482    6.4498104    40.068506 
161576000    277.19987    311.51984    289.22316    -20.86588    21.178387    22.296687    40.068723 
161580000    278.52823    315.65493    276.45189   -21.977896     22.62112     39.20304    40.069222 
161584000     275.6451    309.46874    271.79542   -23.222821    22.832652    37.673324    40.070894 
161588000    282.46202    347.38586    278.54371   -23.109287    21.876231    68.842149    40.070628 
161592000    281.86686    316.97706    283.64767    -22.18655    21.254452    33.329398    40.070194 
161596000    272.96437    296.97048    299.28807   -20.242536    21.029592   -2.3175898     40.06674 
161600000    273.14539    299.16397     296.3042   -19.936061     22.10967    2.8597717    40.065937 
161604000    274.55552    336.96485     256.9131   -22.850052    23.338338    80.051749    40.068229 
161608000     278.2959    332.70753    268.72715   -23.496954    23.754664    63.980371    40.067904 
161612000    277.48875     327.3389    283.22793   -22.321286    21.483331    44.110972    40.067912 
161616000    277.85595    312.44547      280.977   -21.060995    22.719848    31.468464    40.069037 
161620000    278.00042    335.85376    282.85058   -22.457159    21.482822    53.003188    40.068759 
161624000    275.35435    314.71184    294.42152   -21.749071    20.303644    20.290316    40.067199 
161628000    271.75436    298.44897    281.35126   -21.271679    19.145498    17.097706    40.067208 
161632000    272.09961    296.16549    296.76611   -20.105375    20.639663  -0.60062821    40.066197 
161636000    283.31058    338.46618    287.26765   -23.549035    21.234359    51.198537    40.066244 
161640000    276.47109    328.74305    273.08431   -22.767294    21.565333    55.658737    40.067108 
161644000    287.33114    339.35484    289.17859   -23.111249    20.890242    50.176246    40.067827 
161648000    282.21719    309.75939    291.45442   -23.489497    20.372036    18.304962    40.065944 
161652000    277.49407    309.33959    264.45179   -22.998749    22.286685    44.887794    40.068772 
161656000    282.82017    329.23718    277.93475   -22.277584    20.900852    51.302433     40.07079 
161660000    288.64487    343.49403    282.91061   -23.436196    20.402464    60.583419    40.070481 
161664000    283.38807    331.16923    270.06916    -22.52078    22.131954    61.100075    40.071643 
161668000     275.7696    308.18224    276.15295   -22.434441    22.554419    32.029286    40.072474 
161672000    270.85291    313.32768    278.25108   -20.499299    21.576402    35.076606    40.071429 
161676000     277.3125    325.42808    282.77933   -22.143635    21.374961    42.648747    40.068984 
161680000    280.84102    336.05019    278.33751     -23.8899     22.58149    57.712677    40.068963 
161684000    263.90013    325.74805    259.48064    -21.75473    23.674517    66.267403     40.07098 
161688000    277.27631    312.99798    285.81944   -22.418371    22.234295    27.178539     40.07012 
161692000    283.74744    318.69503    306.97112   -21.615215    21.216563    11.723907    40.070201 
161696000    260.86963    296.44415    266.94615   -20.075439    22.588086       29.498     40.06904 
161700000    279.10185    336.93144    289.30794   -22.496299    21.936847    47.623498    40.067467 
161704000    267.30159    304.91828    259.17506   -20.539009    23.556603    45.743212    40.068026 
161708000    277.03993     325.3878    283.33078   -23.119647    22.949885    42.057023      40.0683 
161712000    274.88709    293.03636    293.81882   -21.743058    21.510566  -0.78246262    40.068423 
161716000    288.55126    332.92066     289.9632   -22.997997    21.139424    42.957458    40.067778 
161720000    277.82562    329.68536    262.75319   -23.314649    22.796652    66.932164    40.069831 
161724000    268.88658    331.87087    254.90919   -21.926849    23.182489    76.961683    40.070553 
161728000    285.85169    356.54081    267.99479   -22.809805    21.872179    88.546014    40.070981 
161732000     278.2203    326.87967    275.05995   -22.208004    22.135679    51.819716    40.069975 
161736000    281.89062    323.51332    287.69181   -21.441878    21.613302    35.821504      40.0703 
161740000    282.55503    333.70906    289.43039   -22.753091    21.058763    44.278667    40.070251 
161744000    274.12159      304.514    286.08073   -21.247074    21.121899    18.433273    40.069993 
161748000    268.37601    306.41507    275.59988   -20.118738     21.19378    30.815195    40.069202 
161752000    281.53053    323.12286    278.23035   -20.653014    20.804302    44.892507    40.069537 
161756000    281.04808    327.51243    259.74244   -20.759139     21.61066    67.769982    40.068879 
161760000    271.96871    307.24416    287.03061   -22.079415    20.669554     20.21355    40.068417 
161764000    277.40666    341.89001    279.46263    -22.62832     23.05022    62.427373    40.069939 
161768000    275.92443    313.49361    267.35209   -22.270786    22.208745    46.141524    40.066697 
161772000      270.608    286.85884    293.31939   -21.083128    20.650048   -6.4605534    40.064386 
161776000    279.40531    311.04685    298.21941   -21.950291    20.477439    12.827444    40.064021 
161780000    276.22434    323.35685    291.63901   -21.049457    22.680286    31.717837    40.065159 
161784000    272.60169    312.75629    276.88889   -21.236096    21.908148      35.8674    40.066101 
161788000    276.63291    308.28037    285.43756   -21.521355     22.43174    22.842815    40.066528 
161792000    268.78896    325.66985    266.72924   -21.799531    22.107952     58.94061    40.065333 
161796000    271.61457    308.68371     286.3659   -21.611213     22.23256     22.31781    40.065291 
161800000    276.17393    309.40299    292.79112   -20.450473    21.623428    16.611873    40.065699 
161804000    281.51942     327.4763    298.90116     -23.4023    21.589297    28.575136    40.064228 
161808000     276.0386    322.96219     279.7166   -22.592808    21.951442    43.245592    40.064493 
161812000    281.13389    336.29377    278.18758   -21.726659    21.407873    58.106183    40.064068 
161816000    274.59114    309.44871    281.99567   -21.159729    21.214653    27.453037    40.063331 
161820000    279.02407    310.11249    288.49666   -20.619588    20.451017    21.615822    40.065023 
161824000    277.98985    328.32795    285.68478   -22.400555    21.059398    42.643177    40.065301 
161828000    276.84648    322.54691    276.87503   -20.887775    21.388661    45.671876    40.066453 
161832000    283.52064    333.78839    303.11224   -21.824445     20.95402    30.676149     40.06565 
161836000     269.5235    311.49206    267.67477   -21.299514    21.565063     43.81729    40.066254 
161840000    278.32607    331.39018    300.24133   -23.514515    19.294949    31.148852    40.066433 
161844000    272.55544    295.23063    286.36867    -20.06387    20.211253    8.8619606    40.066619 
161848000    267.31876    308.08092    270.92615   -20.708283    22.401487    37.154766    40.066906 
161852000    269.34298    314.84824    282.79329   -21.663645    21.744746    32.054949    40.068361 
161856000    270.61876    338.36551    257.44445     -21.5061    23.066586    80.921068    40.068599 
161860000      271.319    293.92462    277.41731   -21.121084    22.338868    16.507312     40.06661 
161864000    274.63185    311.18322    283.57353   -22.312618    21.111363    27.609693    40.067097 
161868000    283.83374    337.77232    279.28242    -23.74199    21.848951    58.489897    40.066903 
161872000     280.8705    331.68265    270.62682   -23.044157    21.178014    61.055833     40.06626 
161876000    286.87547    332.88785    294.50351   -22.695627    20.839761    38.384341    40.065341 
161880000    275.68668    302.71686    286.62266   -21.046827    21.052956    16.094199    40.065342 
161884000    274.69773    298.77365    300.79076   -21.304776    20.870861   -2.0171069    40.063165 
161888000    281.08385    361.20532    262.12451   -24.494917    23.457998    99.080803    40.065834 
161892000     272.7853    302.96665    276.94593   -21.443741    22.525961    26.020727    40.065699 
161896000    275.97921    318.68744    247.29334   -24.552894    23.106248    71.394099    40.065347 
161900000    282.21981    321.21165     290.1094   -23.619691    22.004984    31.102258    40.067277 
161904000    271.75838    315.73809    271.29948   -22.830364     22.76883    44.438607    40.065648 
161908000    270.03705    313.04376    277.89102   -22.289083    22.425923     35.15274    40.063598 
161912000    282.56129    327.06135    274.36229   -23.749483    23.313934    52.699066    40.061922 
161916000    269.61883    302.11287    274.35688   -22.200399    24.110086    27.755996     40.06258 
161920000     277.7737    313.49569    281.31288     -22.6279    23.941518    32.182805     40.06369 
161924000    255.08708    290.69037    256.64472    -21.73172    24.391218    34.045645    40.064636 
161928000     282.0926    339.58344    287.46583   -24.490148    23.813571    52.117609    40.067178 
161932000     276.3316     321.5271    284.02695   -22.944098    23.772841    37.500146    40.067006 
161936000    269.40547    320.20581    259.28873   -23.194086    24.754028    60.917082    40.066677 
161940000    270.63497    324.60942    278.91752   -23.715576    22.843694    45.691906    40.066493 
161944000    276.48238    329.34556     274.6502   -24.275989    23.097446    54.695362    40.066857 
161948000    265.92117    305.43563    269.87202    -22.15205    22.548992    35.563611    40.068181 
161952000    273.16686    330.94672     261.8751   -22.658901    24.054942     69.07162    40.067665 
161956000    274.00585    330.17209    283.31782   -22.754565    22.319678    46.854271    40.070388 
161960000    279.65318    325.19067    287.38244   -21.377674    22.693226    37.808235    40.070869 
161964000    275.37568    316.67765    289.70034   -21.821938    22.767831    26.977309    40.069216 
161968000    269.94781     313.4438    268.45701   -22.169127    23.130334    44.986788    40.069645 
161972000    282.70062    324.19229    288.89414   -24.181799      21.9171    35.298148    40.069752 
161976000    274.31119    314.87746    283.19569   -21.813716    23.471924     31.68177    40.068232 
161980000    278.48189     306.6509    287.45841   -21.939167    21.920606    19.192493    40.069437 
161984000    278.74644    320.41428    293.20573   -21.749073    20.934283    27.208555    40.070103 
161988000    281.12509    333.60833    292.04256   -22.730444    21.084356    41.565773    40.071153 
161992000     272.9667    312.83869    277.11495   -22.520349    22.955667    35.723748    40.071474 
161996000    271.34625     319.1788     276.9627   -23.573288    22.787984      42.2161    40.073323 
162000000    276.01653    325.25571     297.4499    -22.53007    19.912074    27.805818    40.073614 
162004000    269.68398    295.13768    271.71021     -22.0342    21.415274    23.427477    40.073718 
162008000    276.63972    333.76834    273.78503   -22.738749     21.55908     59.98331    40.074191 
162012000    276.41019    321.27916    273.83422   -22.925807    21.708844    47.444943    40.073282 
162016000    274.72519    327.45238    253.54031   -22.416757     23.74629    73.912069    40.074447 
162020000    280.01675    323.91768    295.82037   -21.450154    21.877407    28.097309    40.074688 
162024000    268.35934    312.32873    274.63765   -22.183409    21.274604    37.691074    40.073817 
162028000    277.15943    322.38481    303.46018   -21.329013    20.219624    18.924629    40.075394 
162032000    278.93108    327.64889     275.0302   -21.602092    22.313804    52.618682    40.076306 
162036000    280.70863    331.38289    287.36843    -21.50391    20.593629     44.01446    40.077575 
162040000    280.92479    321.83128    275.93201   -22.078069    22.444808    45.899266    40.077885 
162044000    273.02506    321.59154    274.10833   -22.266972    22.111072    47.483203    40.077046 
162048000    282.86747    329.58865    283.06998   -22.135514    21.902591    46.518674    40.076086 
162052000    276.40227    306.06806    286.57356   -21.048712    20.995978    19.494503    40.076162 
162056000    278.12995    338.04704    274.09446   -22.510446    22.347882    63.952579    40.077172 
162060000     276.6626     320.8566    266.88673   -22.346089    22.416552    53.969862    40.077752 
162064000    272.77712    301.18479    285.25145   -21.876734    21.161281    15.933332    40.078195 
162068000    272.33781    323.95407    262.62789   -22.414342    22.108953     61.32618    40.076782 
162072000    277.37709    324.49715    286.29159   -23.728067    21.500321    38.205559    40.077166 
162076000    269.93249    294.03208    296.49042   -21.424931    21.184899   -2.4583389    40.078423 
162080000    274.72655    323.64448    271.26962   -22.684856    22.468407    52.374864    40.080157 
162084000    270.29303    325.29588    260.64769   -22.677324    24.119512    64.648187    40.080124 
162088000    279.72727    330.88376    285.76215   -22.765424    22.617633    45.121607    40.079932 
162092000    271.61381    306.79562    305.46106    -21.60315    20.588175    1.3345652    40.082089 
162096000    264.71785    290.16279    277.38194   -21.175938    22.347266    12.780851    40.080295 
162100000    274.06382    325.86149    281.55617   -23.119419    21.971541    44.305323    40.079044 
162104000    287.56122    338.68531    295.10746    -23.29855    21.684054    43.577855    40.078977 
162108000    276.13546    307.78605    265.37886   -22.331307    22.625945    42.407196    40.080949 
162112000    279.45007    324.26342    292.16563   -22.974336    21.267463    32.097797    40.081012 
162116000    280.98826    325.19426    280.18925   -23.685112    21.892844    45.005018    40.080526 
162120000    259.71507    276.67629    288.06251   -21.222537    22.288775   -11.386219    40.079674 
162124000    274.58479    315.91074    273.15406   -21.677706    23.112051    42.756674    40.080224 
162128000    276.45042    330.46359    265.60583   -22.914642    24.399293    64.857764    40.082248 
162132000    270.90414    327.13535    262.73188   -21.890261    23.500966    64.403469    40.081031 
162136000    265.63844    298.68287    263.04269   -21.507319    24.608588    35.640181    40.080112 
162140000    269.74862    297.57971    280.45946   -22.010879    22.667718    17.120248    40.077692 
162144000    278.06222    319.52571    289.37512   -22.115855    22.227185    30.150593    40.076671 
162148000    279.28165    346.84022    282.45769   -24.279691    22.884046    64.382528    40.076528 
162152000    269.35375    315.96228    292.65272   -23.141288    23.064585    23.309559    40.076408 
162156000    263.27799      307.726    279.87581   -22.924072    23.896325    27.850191    40.078285 
162160000    277.84338    328.24432    281.08994   -23.867758    23.207795    47.154389    40.078569 
162164000    277.07014    344.93283    275.20956   -24.423571    23.617596    69.723271    40.078214 
162168000    275.50783    330.91643    281.60701   -23.654983    22.277003     49.30942    40.080615 
162172000    280.05775    307.97102    281.18278   -23.379747     22.70114    26.788241    40.080348 
162176000    277.84504     324.3473     277.2169   -23.345448    23.811985    47.130409    40.081036 
162180000    276.65398    337.55207    295.74366   -24.439031    23.555312    41.808414    40.081611 
162184000    277.74674    339.36338    266.96701   -23.241465    23.274963    72.396377    40.082076 
162188000    269.73753    310.72641    254.57361   -23.565756     24.17336    56.152793    40.081124 
162192000    281.31887    323.89279    284.19745   -23.915244    22.748123    39.695339    40.081153 
162196000    281.94035    338.11639    265.49754   -25.342152    23.963699    72.618851    40.076908 
162200000    281.88864    307.08421      285.602   -23.463299    23.291465    21.482216    40.075805 
162204000    282.44363    316.71364     283.1133    -23.81101    23.462385     33.60034    40.076466 
162208000    277.52136    332.28185    273.18582   -24.792872    23.555588    59.096034    40.076377 
162212000    271.80974    320.53952    266.14485   -23.066974    23.328957    54.394673    40.078327 
162216000    279.12587     327.5537    274.33081   -23.083243    22.895622    53.222898    40.081196 
162220000    272.44155    330.52494    260.23596   -24.171509    23.067426    70.288975    40.082715 
162224000    281.88734    312.86147    284.45182   -22.188662    22.366142    28.409649    40.082117 
162228000    276.26847    308.99376    282.05541   -23.693896    22.590395    26.938354    40.080445 
162232000    271.33534    317.65139    266.76164   -22.725237    22.613943     50.88975    40.081785 
162236000    272.47646    315.24979     272.0917   -23.719165    22.100445    43.158092    40.083149 
162240000    277.22682    308.90223    284.28132   -22.518246    22.305082    24.620907    40.081865 
162244000     277.0848    313.57577     272.5097   -21.858208    23.669023    41.066069    40.082515 
162248000    272.90283    321.45457    260.27726   -23.237205    23.531218    61.177311    40.083317 
162252000    267.45623     319.6556    256.60898   -22.804665    22.684476    63.046616     40.08395 
162256000    278.32645    316.63105    297.27998   -23.293173    22.002198    19.351073    40.084964 
162260000    279.03526     307.7768    289.97121   -22.422213     22.17198    17.805588     40.08263 
162264000    270.00683    320.70633    266.30664   -23.124754    23.404272    54.399692    40.081939 
162268000    278.83082    320.21366    294.48507   -24.647441    21.543917    25.728585    40.082756 
162272000     280.5536    329.77582    274.58784   -24.263651     23.48832    55.187981    40.080393 
162276000    274.22889    317.38067    272.31225   -23.796161    23.335832    45.068421    40.080616 
162280000    271.49628    309.69516    277.26521    -23.76281    23.711622    32.429957    40.080607 
162284000    273.40208    321.31169    283.61728   -23.628852    23.310189    37.694405    40.078499 
162288000    278.81355    332.60281    285.53235   -24.844115    23.223662    47.070461    40.079252 
162292000    280.06625    321.95129     295.2723   -23.553035    24.245364    26.678985    40.078621 
162296000      270.037    300.62431    284.05466   -23.448883    24.705417    16.569652    40.078205 
162300000    271.34454    310.86686     275.1988    -23.58682    23.783696    35.668062    40.080117 
162304000    275.44618    332.89405    264.29492   -23.732408    24.423679    68.599129    40.080487 
162308000    277.91558    339.96332    275.24644    -24.08295    24.606589    64.716879    40.079448 
162312000    269.31857      289.849    269.57338   -21.715433    24.499584    20.275621    40.079486 
162316000    273.38969    308.46714    288.67946   -22.209517    22.913411    19.787687    40.079333 
162320000    287.74262     346.7641    312.23723   -24.062855     22.58451    34.526865     40.08184 
162324000    267.62857    301.67928    280.08266   -23.034252    24.300943    21.596619    40.081447 
162328000     269.7451    312.65446    271.26476   -23.076544    24.145651    41.389697    40.079524 
162332000    279.39033    297.32644    298.23747   -22.369352    23.401988  -0.91102745    40.079328 
162336000    271.23066    315.04012    269.98784   -22.830108    24.268083    45.052284    40.080249 
162340000    281.42888    323.06963    291.06602   -24.111504    23.995889    32.003614    40.079187 
162344000    278.84578    342.53258    281.10957    -24.12362    25.689168    61.423008    40.079402 
162348000    271.94248    314.07186    260.34492   -22.988669    26.466169    53.726936    40.080095 
162352000    273.06848    308.10892    291.93166   -22.128358    25.689563    16.177263    40.080596 
162356000    277.51997    305.87503    291.46416   -22.486243    24.059679    14.410865     40.07828 
162360000    274.30628    321.67425    290.78419   -23.570194    25.364883    30.890061    40.077588 
162364000    272.50019    321.93427    288.11727   -24.158517    23.756305    33.817002    40.077544 
162368000    269.71507    298.91913    270.27378   -22.280595    24.650224     28.64535    40.078113 
162372000    266.54563    324.73923    275.80308   -23.357452    24.479372    48.936144    40.079421 
162376000    279.28425    315.58377    298.47178   -24.459259    23.295005     17.11199    40.076666 
162380000    278.45209    312.26639    276.43092   -23.577471    24.242892     35.83547    40.075299 
162384000    278.76499    338.20493    270.83923   -25.000516    25.663219    67.365697    40.076113 
162388000    269.45133    304.09724    264.11381   -23.764504    24.459022    39.983426    40.075256 
162392000    285.07695    345.71863    281.36129   -26.121514     23.79455    64.357332    40.075286 
162396000     271.6161     307.9812    279.83231   -23.725042    24.332261    28.148887     40.07775 
162400000    271.28466    318.63961    270.27563   -24.044783    25.022611    48.363978    40.077801 
162404000    286.86812    343.58597    286.07146    -25.51422     24.39927    57.514515    40.077204 
162408000    271.67059    307.40357    281.26276   -24.401765    24.485798    26.140815    40.077041 
162412000    279.48785    327.36582    290.25726   -24.412228    25.523681    37.108558    40.075899 
162416000    276.72083    318.60603    276.55866   -23.920702    25.039002    42.047373    40.075586 
162420000    269.90296    319.03431     267.8761   -24.253208    25.476231    51.158209    40.074599 
162424000    271.24763    293.80343    287.44456    -23.76925    24.046648    6.3588664    40.073511 
162428000     287.1986       346.64    311.57237     -26.1698    22.896473    35.067627    40.072417 
162432000    273.56911    330.02431    279.04072   -24.406018    24.859364     50.98359    40.072535 
162436000    275.54514    328.33992    276.76703   -24.411291    24.823637    51.572891    40.074387 
162440000    276.92029    324.18694     286.3747   -24.787505    24.488866    37.812242    40.074301 
162444000    274.65217    302.33773    317.52782   -23.288359    23.432002   -15.190091    40.073464 
162448000    271.19162    322.36293    287.01622    -24.71807    24.464281     35.34671    40.073259 
162452000     273.0456    312.71298    278.80092   -24.219917    24.928897    33.912058    40.073492 
162456000    266.48539    330.34099    264.99354   -24.201575    25.222062    65.347451    40.073791 
162460000    280.95747    328.29664    295.97946   -23.855916    23.433245    32.317181    40.075029 
162464000    272.12242    324.79811    285.08015   -22.703628     24.25573    39.717954    40.075305 
162468000    274.25033    327.04868    277.85373     -23.2956    24.703054    49.194951    40.077292 
162472000    269.66789    313.89449    271.07929   -23.107028     24.63809    42.815203    40.077888 
162476000     279.6568    331.86172     280.1818   -24.198655    25.471904    51.679919    40.078291 
162480000    277.65686    308.98915    301.48415   -22.434975    24.175208    7.5049948      40.0787 
162484000    265.78006    306.15501    259.53142   -23.431013     25.29856     46.62359    40.078746 
162488000    270.65568    321.29922    276.41599   -23.415343    26.085172    44.883233    40.079528 
162492000    271.28037    319.41968    279.62184   -23.184437    24.907459    39.797846    40.079692 
162496000    271.59244    319.28512    288.68368   -24.222509    25.085671    30.601439    40.078728 
162500000    271.94677    310.98753    299.22124   -23.972862    25.874523    11.766292    40.078364 
162504000    272.68909    304.63981    310.16537   -23.461222    23.899076   -5.5255561     40.07699 
162508000    271.05527     330.9368     268.8048   -23.748938      25.3888    62.131998     40.07531 
162512000    273.61551    319.95161    282.72582   -24.672461    25.074615    37.225783    40.075552 
162516000    271.18791    319.39781    277.94434   -23.536263    24.711739    41.453474    40.073814 
162520000    276.89418    316.00757    310.78535   -24.357192    23.212066    5.2222204    40.073599 
162524000    259.31783    311.43593    255.48451   -24.606129     26.04637     55.95142    40.074047 
162528000    278.16258    331.27429    281.44839   -23.991064    24.885739    49.825904    40.073231 
162532000    272.78881    337.74562    289.27725    -25.09327    24.710468    48.468373    40.072829 
162536000    271.62535    322.52058    265.55068   -23.659253     26.64779    56.969898    40.071426 
162540000    268.67404    307.36464    289.98607   -22.686068     24.14991    17.378573    40.070114 
162544000    264.79216    310.44767    276.79223   -23.020881    25.114235    33.655441     40.06946 
162548000    265.28478    308.39699    263.83354   -23.471742    25.364468    44.563442    40.068341 
162552000    276.75873    332.85408    293.06929   -24.364781    25.900833     39.78479    40.066311 
162556000    281.84032    331.75966    282.16961   -23.751491     24.74569    49.590046    40.065559 
162560000    272.03341    349.11516    272.05211   -24.668732    26.091818    77.063052    40.064794 
162564000    269.15783    311.78171    288.48262   -23.408486    24.368337    23.299091    40.064766 
162568000    271.27048    321.51449    267.25444   -23.403849    26.171575    54.260056    40.064928 
162572000    274.97935    312.02948    291.43053   -23.582551    24.213701    20.598946    40.065216 
162576000    273.41754    322.25777    275.67084   -23.907687    26.299152    46.586925    40.066496 
162580000    274.43029    320.96026    286.44242   -24.020446    25.132746    34.517838    40.066075 
162584000    277.37746    334.68479    272.79589   -25.449448    26.564489    61.888895    40.064505 
162588000    270.91001    317.78045    297.11837   -23.331116    25.818485    20.662078    40.064698 
162592000    269.27605    321.81808    276.39928   -23.807601    25.000477    45.418798      40.0649 
162596000    281.69767    331.35956    304.89907   -24.762462    24.015193    26.460497    40.065346 
162600000    285.16509    354.58025    283.60596    -27.79799    25.967833    70.974295    40.066512 
162604000    276.22264    315.96946    284.40081   -24.299256    25.834857    31.568647    40.066272 
162608000    271.86649    312.41748    271.06633   -24.624931    25.911265    41.351146    40.066014 
162612000    266.46639    314.27061    274.77663   -24.882916    25.473518    39.493982    40.064759 
162616000    264.12861    320.66896    259.95191   -24.118018    26.517283    60.717047    40.066245 
162620000    274.40003    321.23006    266.93816   -24.433215    25.791351    54.291896      40.0667 
162624000    277.94918    313.55344    281.84535   -25.026615    24.745807    31.708086    40.065603 
162628000    269.84105    296.34638    297.66111   -23.009472     23.95332   -1.3147345    40.066072 
162632000    268.82003    320.26433    250.96757   -25.041869    26.908398    69.296761    40.066854 
162636000    272.15126    305.61704    280.57535   -24.881535    25.702388    25.041688     40.06501 
162640000    276.40417    314.68979    301.53356   -24.825508     24.11742    13.156223    40.066179 
162644000    269.99942    295.62924    288.91209   -24.202782    25.171544    6.7171523    40.064612 
162648000    272.61203    314.32017    268.84615   -25.518899    25.547948     45.47402    40.064078 
162652000    275.92202    333.83015    273.37203   -25.961017    25.026078    60.458118    40.063058 
162656000    278.84719     327.0475     272.6225   -26.008439    25.974604    54.424999    40.062613 
162660000    273.14031    324.24001    275.36556   -27.629393    25.370952    48.874452    40.064301 
162664000    283.72044    333.68426    289.42038   -26.974574    25.292382    44.263876    40.065662 
162668000    285.01498    328.85556    287.02868   -26.117586    24.561069    41.826877    40.065371 
162672000    277.80737    319.24299    277.30416   -26.043751    25.366075    41.938828    40.064853 
162676000    274.38006    322.52259    279.55086   -26.905664    26.073567    42.971729    40.065771 
162680000    282.65077    329.18608    300.58822   -26.493506    24.603318    28.597863    40.066751 
162684000    272.01474    330.23376    252.99041   -26.645188    26.399949    77.243351    40.066852 
162688000    268.39845    306.09092    274.25662   -25.527406    25.766642    31.834302    40.066577 
162692000    262.56412    289.55479    265.79582   -25.350844     25.70505    23.758972    40.066299 
162696000    271.38251    304.71922    272.71083   -25.304865    26.491273    32.008388    40.068469 
162700000     269.0789    304.35877    274.37498   -24.358433    26.484384    29.983792    40.067157 
162704000    278.07633    328.08312    269.64721   -25.854289    24.917156    58.435917    40.067945 
162708000    277.27662    327.34141    292.45823   -26.536112    24.703295    34.883183    40.067794 
162712000    274.27818    332.81463    281.30151   -26.324425    26.426444    51.513114    40.065728 
162716000    276.88161    320.68786    282.06896   -26.205127    26.153145    38.618898    40.067531 
162720000    280.33245    339.33268    273.21014   -27.144304    26.284332    66.122537    40.069966 
162724000    268.29783     290.5137    298.37808   -24.130144     24.76616   -7.8643749    40.068312 
162728000    273.15309    303.99789    272.37788   -25.661018    26.479891    31.620012    40.068465 
162732000    270.21854    308.45138    290.59173   -25.980846    24.591807    17.859648    40.067925 
162736000    273.89251    295.85367     272.9597   -24.565572    25.986402    22.893968    40.067112 
162740000    272.34482    330.41486    270.24602    -26.10329    25.240197     60.16884    40.065909 
162744000    276.20834    313.51565      275.266   -26.042632    25.302801    38.249651    40.066055 
162748000    288.67097    359.68906     274.1855   -28.385885    26.168323    85.503552    40.065922 
162752000    279.60742    341.37161    270.87212   -27.743192    26.065465    70.499493    40.064739 
162756000    284.54257    313.91637    284.64591   -25.397485    25.089367    29.270465    40.064273 
162760000    279.56458    324.52465    277.23312   -26.514871    25.472291    47.291523    40.063511 
162764000    270.17582    314.83921    275.74979   -24.953789     26.05095    39.089426    40.063674 
162768000    272.45341    322.44042    258.64071   -25.371056    27.259381    63.799708    40.064153 
162772000     259.5841    281.39598    281.71447   -23.163245    25.362787  -0.31849421    40.064638 
162776000    274.52463     334.7141    267.39196   -26.445727    25.710608    67.322134     40.06488 
162780000    273.15871    312.03646      273.968   -25.919147    26.538524    38.068464    40.065961 
162784000    276.56945    333.45896      281.166   -25.448361     25.10784    52.292962    40.066576 
162788000    269.28043    317.37832    261.95382   -25.796404    26.754686    55.424503    40.068405 
162792000    282.84868    328.06142    287.13727   -27.163549    23.973709    40.924144    40.069282 
162796000    275.21917    313.07403    280.74072   -25.999881    25.516215    32.333303    40.070428 
162800000    277.21507     330.5975     274.6931   -26.216739    25.714873    55.904401    40.070739 
162804000    281.09689    336.57545     297.0199   -24.677916    24.974949    39.555555    40.069984 
162808000    269.41415    312.73902    282.54529   -24.766482    26.259625    30.193726    40.071852 
162812000    263.77362    315.95763    254.23297    -25.41278    27.621199     61.72466    40.073208 
162816000    273.33042    300.82997    278.08938    -25.05666    27.028315    22.740586    40.072387 
162820000    276.88538    321.84443    273.12137   -25.351208    25.927548    48.723064    40.073259 
162824000    287.36363    361.83457    293.85046   -27.119827    24.534412    67.984111    40.073898 
162828000    281.05945    338.13746    291.39213   -26.164449    26.172222    46.745326    40.073924 
162832000    270.95149    320.91753    280.96017   -26.113175     25.75411     39.95736     40.07426 
162836000    286.42133    332.98721    293.12903   -25.532895    25.387609    39.858181    40.074773 
162840000    276.31575    321.31823    276.09915   -25.286578    26.716394    45.219086    40.076657 
162844000    268.96063    312.88254    277.66162   -25.072268    26.593525    35.220923    40.076573 
162848000    283.05299    322.04947    297.25146   -26.862785    25.226169    24.798012    40.078112 
162852000    277.12411    301.78437    296.97078   -24.429065    25.156662    4.8135915    40.078203 
162856000    271.28572    318.47497    278.60369   -24.726972    26.566631    39.871287    40.079264 
162860000    276.44775    314.95434     272.0309   -25.606825    26.419809    42.923434    40.078398 
162864000    292.31843    341.97165    302.77241   -27.580783    24.910267    39.199243    40.078446 
162868000    269.66739    304.12114    274.28205   -25.145703    26.375981    29.839088    40.078839 
162872000    278.64409    294.39654    312.99263   -26.144973     23.93312   -18.596093    40.077528 
162876000    274.04414    336.90059     269.8426   -27.782864    25.078138    67.057985    40.076447 
162880000    283.05807    309.83515    303.67932   -24.625709    24.332574    6.1558284     40.07657 
162884000    275.96724    311.15081    285.10678   -24.335762    24.286986    26.044029    40.074041 
162888000    272.00346    301.99225    270.83912   -24.113617    25.875724    31.153129     40.07606 
162892000    284.33006    336.46822    295.44507   -26.862171    24.718683    41.023141    40.076148 
162896000    290.01618    348.38472    285.64482   -27.194687     24.72253    62.739905      40.0783 
162900000    274.03011    310.19569    288.92075   -25.423181    24.277128    21.274943    40.079858 
162904000    286.73258    330.74942     275.6844   -26.767227    25.900081    55.065027    40.078239 
162908000    272.15924    314.46913    293.21914   -26.086127    25.236515    21.249994    40.077488 
162912000    280.68071    329.49301    271.49827   -27.472846    25.367829    57.994744    40.078494 
162916000    281.42422    335.45637    306.53496   -27.756732    24.274484    28.921419     40.07882 
162920000    284.67891    336.29419    301.94454    -27.56883    24.714808     34.34965    40.079606 
162924000    279.83325    335.33725    263.23742   -27.372574    27.053762     72.09983    40.079995 
162928000    271.74595    302.69454    269.47546   -26.039175    26.076052    33.219074    40.079624 
162932000    275.52625    304.04739    287.81451      -25.565    24.792772    16.232873    40.081375 
162936000    271.43733    299.24191    277.75067   -25.491895    25.350607    21.491236    40.080207 
162940000    277.08568    314.02005    278.21682   -26.808562    25.538496    35.803239    40.080153 
162944000    275.96313    310.35563    269.17019    -25.40191    24.951807    41.185433    40.080081 
162948000    283.96728    346.65761    279.02873   -28.092358    25.269324    67.628885    40.080243 
162952000    265.00185    316.14542    262.25045   -25.500437    26.698841    53.894974    40.080013 
162956000      278.448    334.65729     271.8236   -26.573529    25.750256    62.833686    40.079789 
162960000    274.65908    311.33345    299.91805   -25.466803    24.282301    11.415403    40.079713 
162964000    263.43298    306.39162     283.3303   -25.940641    26.172323    23.061315     40.07817 
162968000    282.51173    347.44123    290.90458   -26.293815    26.557399    56.536647    40.077665 
162972000     285.6606     349.1527    297.88637   -25.999214    25.976152    51.266336    40.076192 
162976000    262.80637    299.72897    257.28937   -24.537133    26.777534    42.439604    40.076831 
162980000    267.75194    302.75511    275.31235   -24.177474    27.519894    27.442765    40.077223 
162984000    272.59988     332.0484     275.9901   -26.232042    27.642702    56.058298     40.07705 
162988000    276.70034    331.25686    275.40765   -25.864066    26.295745    55.849203     40.07625 
162992000     274.1254    323.23877    290.31592   -24.993019    24.402182    32.922844    40.076568 
162996000    277.87343    346.25809    291.01628   -25.920467    25.309751    55.241811    40.077443 
163000000    273.70057    305.96653    301.93853   -25.070493    25.013513    4.0280027    40.079626 
163004000    273.24538    327.96357    287.07793   -25.342779    25.880946    40.885637    40.079936 
163008000    263.54085    314.54451    272.60226   -24.836988    28.104225    41.942252    40.081505 
163012000    270.89933    329.63163    272.82607   -25.725616    27.252994     56.80556    40.082138 
163016000    273.37273    333.45783    280.25824   -25.591806    26.623399    53.199585    40.082188 
163020000     267.7108    308.97726    282.32805   -23.931633    26.231953    26.649214     40.08162 
163024000    258.13786    300.22166    275.27415   -24.236433    28.023586    24.947506    40.081284 
163028000    267.12998    316.04197    265.52651   -24.082281    27.891886     50.51546    40.082455 
163032000    273.51462    324.52661     272.3663   -25.345863    28.205053    52.160314    40.082178 
163036000    270.22186    307.51863    272.14371   -24.053843    28.647435    35.374924    40.081127 
163040000     267.7185      321.315    268.35245   -25.910618    28.400477     52.96255    40.080535 
163044000    277.69229    340.80364    289.68785   -24.670908     26.96815    51.115792    40.080578 
163048000    277.57022    335.23782    314.97372   -25.357853    25.816094    20.264104    40.079371 
163052000    267.27718    311.96386    278.51057   -24.709331     27.82357    33.453288    40.079629 
163056000    276.95229    324.04318    269.81763   -24.443763    27.946155    54.225555    40.079062 
163060000    278.02397    323.80049    295.45585   -25.075805    25.711627     28.34464    40.077356 
163064000    275.73148    344.23993    284.72047   -26.344711    26.372017    59.519458    40.077481 
163068000    270.58476    329.05564    276.88827   -25.320337    27.160406    52.167379    40.078464 
163072000    273.57928    297.10177    286.57921   -24.571611    26.638759     10.52256    40.077501 
163076000    267.21996    298.68101    267.54551   -24.193595    26.813219    31.135495    40.077424 
163080000    263.51262    300.53494    269.56974    -24.08891    27.786404    30.965198    40.076775 
163084000    270.35246    319.46354    284.08802    -24.44991    27.153943    35.375526     40.07598 
163088000     267.2643    300.98766    293.60105     -23.6977    26.972636    7.3866054    40.074797 
163092000    276.85631    355.15505    279.14363   -26.907046    28.430193    76.011418    40.074405 
163096000    276.70579     319.6452    302.24654   -25.698609    26.858937    17.398654    40.074788 
163100000    265.20529    315.92736    280.18764   -25.577239    27.861554    35.739727    40.074794 
163104000    275.69625    328.76424    285.89977   -26.539753    27.345785    42.864469    40.076215 
163108000    265.54455    319.22035    272.87195   -25.266847    28.211696    46.348402    40.076711 
163112000    271.70109    299.17599    281.13644   -24.724361    27.332809    18.039544    40.074599 
163116000     275.1663     329.6105    285.95002   -25.948794    25.798873    43.660482    40.075268 
163120000    275.53598    314.47819    292.94978   -24.337121    26.357103     21.52841    40.072015 
163124000    278.84255    331.03348    280.63548   -24.883903    26.406077    50.398007    40.071643 
163128000     266.9251    298.58578    294.71043   -24.298913    26.114638    3.8753459    40.071864 
163132000     263.4229    317.11306    278.15481   -25.247555    26.389332    38.958248    40.071595 
163136000    278.20006    332.23782    275.43966   -26.765405    26.299169    56.798163    40.071105 
163140000    273.08649    320.96188     286.4621   -25.095586    26.489835    34.499781    40.070006 
163144000    268.70742    311.50465     272.9046   -24.832249    27.365732    38.600045    40.071035 
163148000    273.47317    317.18014     290.3366   -25.301524    26.946247    26.843536    40.070445 
163152000    271.46329    333.56951    278.64607   -26.498773    27.194244    54.923445    40.069022 
163156000    281.57661      340.382    293.38282   -26.013395    27.361675    46.999183    40.069075 
163160000    269.65215    308.29443    310.70448   -23.952054    25.699802   -2.4100476    40.067781 
163164000    262.34448      291.648    278.69145   -24.239237    26.123277    12.956554    40.068516 
163168000     265.9093     303.6641    277.45191   -25.204976    26.850924    26.212188    40.069739 
163172000    266.85583    309.03086    278.92812   -24.723925     27.26298    30.102741    40.068287 
163176000    275.84904    314.71568    283.18262   -24.718878    25.986791    31.533059    40.066853 
163180000    270.91847     304.4096    279.71061   -24.656384     26.37028    24.698989    40.067082 
163184000    278.58284    336.24156     267.4456   -26.107452    26.296853    68.795961    40.068642 
163188000    270.25359    302.62571    290.73465   -24.642637    24.749909    11.891055    40.067665 
163192000    270.68156    308.35327    275.09591   -25.442291    26.310021    33.257355    40.067303 
163196000     260.5316    301.15861    268.38807   -24.741232    27.082122    32.770544    40.067162 
163200000    269.04458    341.00546    272.36866   -26.218699     26.88981    68.636796    40.068251 
163204000    271.49804    328.41201    267.77681   -25.736482    26.755768    60.635197    40.068961 
163208000    260.88077      299.983    278.29664    -23.70555    25.453216    21.686353    40.068076 
163212000    281.93668    309.57692    298.14062   -25.256684    24.918065    11.436303    40.068178 
163216000    275.13098    321.63609    282.63758   -25.007004    25.044999    38.998509    40.069349 
163220000    272.36415    351.95937    270.00252   -25.522138    26.531338    81.956847    40.070055 
163224000     271.6963    308.19773    284.53086   -24.139215     25.82007    23.666879    40.068809 
163228000    269.67417    320.41344    288.55613   -24.645083    25.062128    31.857304    40.070326 
163232000    263.43197    306.64391    272.41674   -24.240964    26.433508    34.227167    40.071117 
163236000    276.35227    322.34931    290.42512   -24.996945    26.167658    31.924192    40.069407 
163240000    264.11926    308.09364    258.60967   -25.410715    26.993333    49.483972    40.068298 
163244000    278.01975    342.00675    276.36403   -25.770189     25.21824    65.642725    40.068629 
163248000    280.99605    331.42405    295.17451   -25.068517    25.007271    36.249535    40.067878 
163252000    273.95231    342.72418    271.10684    -26.96251    26.851664    71.617337    40.066039 
163256000    268.47392    319.56944    260.73478   -24.406054    27.154633    58.834658    40.066792 
163260000    264.46308    317.14124    262.27128   -24.889191    27.067149    54.869952    40.066846 
163264000    268.85171     320.0407    276.43233   -25.333535    25.568637    43.608375    40.066291 
163268000    280.42735    344.81833    291.06443   -27.084575    25.151391      53.7539    40.066264 
163272000    268.40222    332.13163    263.45078   -27.273447    26.470809    68.680851     40.06579 
163276000     281.3719    339.67759    297.62433     -27.2521    25.922397     42.05326    40.066166 
163280000    280.71061    336.98535    285.88179   -26.206661    24.794741    51.103569    40.065887 
163284000    272.61299    320.64494    284.64778   -25.696372    26.369215    35.997155    40.064521 
163288000    272.53687    317.79427    293.91259   -25.839249     26.52265    23.881687    40.065879 
163292000    274.64882    322.11098    285.69132   -25.826681    26.299135    36.419666     40.06514 
163296000    267.26002    300.72697    282.03083   -25.389653    27.693693    18.696144    40.066271 
163300000    277.67959    343.28397    280.16129    -26.32372    27.900836    63.122679    40.064953 
163304000    273.94064    340.69008    267.20931   -26.163897    27.829033    73.480771    40.064175 
163308000    278.52047    345.17021    270.32085   -26.698862    28.360305    74.849366    40.064815 
163312000    273.48536    313.23283    277.67607   -24.921341    28.397398    35.556761    40.064827 
163316000    266.27595    315.86288     268.8413   -24.998418    28.863336    47.021581    40.062824 
163320000    277.14864    321.49454    289.17615    -25.95665    27.276563    32.318395    40.061446 
163324000    276.11879    313.61422    283.74161   -24.869729    26.917255    29.872611    40.062007 
163328000    276.95618    324.41749    281.25453   -26.619357    26.537278    43.162955    40.063806 
163332000     267.0661    300.46711    266.71721   -25.321681    27.483643    33.749902    40.064437 
163336000    275.75355    324.60028    301.08494   -26.456662     26.65677    23.515336    40.064074 
163340000    275.11024    329.08632    272.66537   -25.665851    28.104566    56.420943    40.063894 
163344000    276.20572    318.41877    296.23488   -26.058336     27.10709    22.183886    40.064496 
163348000    277.41439    327.58537    289.67149   -24.988057    26.596326    37.913878    40.065121 
163352000    270.94671    313.60362    275.61025   -26.258613    27.806155    37.993365    40.065122 
163356000    272.54502    300.05237    319.54517    -25.18372    26.572731   -19.492797    40.063368 
163360000    278.05182    349.81557    266.89165   -27.778798    29.077711    82.923929    40.062678 
163364000    271.94721    316.07188    288.01369   -24.694683    27.130216     28.05819    40.062934 
163368000    273.88648    319.97296    285.66718   -25.788412    27.051323    34.305778    40.063147 
163372000    269.63541    331.56425    262.90426   -25.770949     27.97516    68.659992    40.062958 
163376000    274.55401    348.35856    285.75444   -27.715589    28.401163     62.60412    40.064803 
163380000    258.38387    302.53524    253.93362   -25.631762    29.136691    48.601619    40.063067 
163384000     263.5999    311.89976    271.63217   -26.255743    27.554247    40.267584    40.064177 
163388000    271.21177    323.51978    292.54003   -26.157001    27.686304    30.979748    40.062852 
163392000    274.61895    330.24372    273.81884   -26.132296    27.339747    56.424878    40.060172 
163396000    270.45657    305.31337    309.44468   -25.343794    25.908875   -4.1313031    40.060769 
163400000    263.29571     308.7802    269.03509   -25.304361    28.343315    39.745116    40.061697 
163404000    272.09071    316.13227    277.81102   -25.137794    29.214421    38.321254    40.061067 
163408000    276.01262    335.10813    273.65389   -27.036263    28.066173    61.454241    40.061929 
163412000    271.64858    331.54932    289.05952   -25.861118    28.151123    42.489802    40.061841 
163416000    267.35159    311.60052    277.79061   -25.657413    27.812995    33.809914      40.0586 
163420000     272.9107    314.29702    287.97861   -25.727334     26.13252    26.318408    40.058563 
163424000    270.39593    307.47817    277.24639   -24.899327    26.767251    30.231779    40.058949 
163428000    275.69508     333.1995    283.69699   -27.228861    27.759938    49.502506    40.059593 
163432000    260.14976    291.97317    269.13412   -25.744543    27.716845    22.839042    40.058889 
163436000    274.11262    315.87377    261.39452    -25.42512    27.596218    54.479244    40.059428 
163440000    276.27157    309.56527    288.77707   -25.968364    26.663664      20.7882     40.05928 
163444000    269.83332    302.21471    278.18359   -27.168351     27.20881     24.03112    40.058928 
163448000    269.84592    311.73281    285.54678   -26.517507    28.133236    26.186033    40.059598 
163452000    279.03022    328.51856    282.87021   -26.667895    27.991609    45.648349    40.060088 
163456000    275.28724    325.89205    271.95086   -28.044157    29.440066     53.94119    40.058527 
163460000    276.35814    325.11168    276.37527   -26.730174    27.907154    48.736404    40.058523 
163464000    266.76333    290.76834    293.64409   -25.044009    26.646907    -2.875747    40.058431 
163468000    269.89068    296.42125    297.07322   -26.434424    26.344987  -0.65196691    40.056759 
163472000    278.84954    319.02211    296.45722   -27.041071    27.678417    22.564898    40.055918 
163476000    270.67289    300.73468    287.41531   -25.901246    26.783315    13.319376    40.055153 
163480000    266.80431    284.61368    295.14253   -26.032919     26.62524   -10.528845    40.053838 
163484000    283.38812    339.18274    282.77568   -28.567091    28.901101    56.407063    40.055117 
163488000    273.13397    328.72336    273.47134   -27.197802    28.409996    55.252024    40.055069 
163492000    266.49918    306.63109    274.88932   -26.355833     26.68349    31.741766    40.054872 
163496000    273.89742    321.55705     289.3904   -26.736853    26.515695    32.166653    40.054199 
163500000    279.86365    325.96946    278.92043   -27.529338      26.9767    47.049034    40.055424 
163504000    266.33794    314.70159    262.23387   -26.651092     28.53647     52.46772    40.057561 
163508000    279.03234    336.41962    277.53183   -27.836683    27.911543    58.887787    40.057574 
163512000    269.10409    324.00781     265.6397    -27.20717    28.085379    58.368113    40.056169 
163516000    282.14292    329.67991    299.17938   -27.774801    27.761476    30.500526    40.056397 
163520000    270.11195    335.05254    275.13536   -27.629908    28.978727    59.917176    40.056824 
163524000    266.85737    334.67211    279.14006    -27.18243    27.712673     55.53205    40.058899 
163528000    276.62171    339.92394     277.6726    -28.13238    28.519371    62.251343    40.057879 
163532000    270.54444    311.90452    287.70503   -26.386895    26.815349    24.199491    40.058272 
163536000     272.8873    320.96845     280.7552   -26.273637    26.627289    40.213243     40.05975 
163540000    267.95898    319.80472    286.17049    -25.74031    27.142994    33.634229    40.058572 
163544000     272.3774    323.33227    267.41614   -26.009394      28.3977    55.916133    40.058209 
163548000     268.0559    318.39078    269.25408   -25.775017    28.332263    49.136692    40.058546 
163552000    273.26925    315.71112    294.84753   -26.361744    27.313443    20.863591     40.05979 
163556000      277.792     319.4279     291.6518   -25.946658    27.549289    27.776107    40.061112 
163560000     284.2365    348.21348    289.73993   -28.148068    28.041927    58.473544    40.061515 
163564000    281.49968    338.03942    283.08613   -27.105603    27.960223    54.953291    40.060479 
163568000    275.08131    323.73892    275.35144   -26.655093    28.619005    48.387487     40.06143 
163572000    270.31907    321.58564    275.61915   -25.491312    26.998073    45.966493    40.061235 
163576000    269.14421    310.42574     275.3767   -25.829063    26.983626    35.049033    40.060036 
163580000    273.97402    314.71978    278.33031   -25.354552    26.796921    36.389464    40.058694 
163584000    269.39766    335.32014    255.63865   -26.531264    29.002891    79.681495     40.05925 
163588000    259.19609    306.72219    279.80053    -24.77012    27.520388    26.921658    40.059438 
163592000    274.88222    324.60476    285.61621   -26.316876    27.661661    38.988551    40.059434 
163596000    276.35538     317.4876    296.81767   -26.286428    26.165369    20.669933    40.059596 
163600000    270.65746    313.67033     295.5837   -25.915796    26.196988    18.086634    40.060761 
163604000    273.43474    317.76967    287.61235   -27.402201    26.807495    30.157317    40.060105 
163608000    276.13518    349.30444    276.47375   -27.496355    27.833501    72.830684    40.061151 
163612000    267.05365    304.91597    279.41394    -25.29111    27.911523    25.502027    40.061479 
163616000    268.55816    310.18205    281.96546   -27.141743    27.488734    28.216596     40.06009 
163620000    268.08727    303.97659    292.32643   -25.131229    26.562499    11.650162    40.060555 
163624000    269.06236    311.33593    283.80675   -26.273227    28.055763     27.52919    40.060372 
163628000    267.36833    312.77271    267.81983   -26.594092    29.852005    44.952877     40.06171 
163632000    272.90313    319.63743    279.19737    -27.61584    28.967078    40.440068    40.061378 
163636000    265.60024    310.59589    267.67304   -28.163967     29.73171    42.922848    40.060088 
163640000    269.00477    316.73968    274.34894    -27.96698    28.842489    42.390738    40.059268 
163644000    272.71025    317.32547    273.17947   -27.162795    28.093141    44.145995    40.059831 
163648000    264.06417    309.06145    286.48161   -27.628781    27.825406    22.579844    40.062237 
163652000    268.80465    325.05105    268.18973   -27.780828    29.296228    56.861323    40.061945 
163656000    279.35814    316.86028    291.05683   -27.126162    27.363637    25.803456    40.060109 
163660000    273.74666    314.70323    272.69664   -27.427785    28.414327    42.006588     40.06181 
163664000    263.54117    317.72853    273.12505   -27.241629    27.952052    44.603477    40.061889 
163668000    269.17311    321.72507    265.75365   -27.848177    27.431209     55.97142    40.061632 
163672000    278.19185    340.61676    294.93089   -29.122096    26.999559    45.685874     40.06065 
163676000    269.74406    319.30645    275.26539   -26.410244     28.87589    44.041057    40.060153 
163680000    273.41332     301.6807    293.17211    -25.36266    26.933622    8.5085872    40.059346 
163684000    266.32629    301.72062    284.37833   -25.984304    26.692603    17.342288    40.060619 
163688000    273.74096    310.06881    281.20127   -27.273217    27.889865    28.867537    40.061412 
163692000    281.85742    332.11519    288.64467   -27.293073    27.470154    43.470522    40.061087 
163696000    269.72348    330.70152    256.17192   -28.474689    28.716803      74.5296    40.062424 
163700000    267.21096     300.2217    277.27658    -26.62785    27.470249    22.945113    40.061124 
163704000    274.47975    320.05053    285.09844   -26.800265    26.994739    34.952087    40.060417 
163708000    274.65743    328.41768     278.1385   -27.774028    27.684002    50.279175     40.06398 
163712000    279.68693    341.53278    275.14487   -28.465621     27.43672     66.38791    40.062801 
163716000    275.00827    317.20983    287.86928   -27.224696     27.19676    29.340549    40.064072 
163720000    281.55412    347.01124    267.80442   -27.489235    28.293098    79.206822    40.063592 
163724000    273.97553    335.70565     270.4426   -27.971396    28.488627     65.26305     40.06377 
163728000     263.9141     289.8367     264.0199   -26.050646    28.036102    25.816795    40.062125 
163732000    285.70493    350.40905    288.49288   -28.328248     27.65028    61.916169    40.062325 
163736000    270.84558    302.00612     294.1156   -25.737513    27.372998    7.8905227     40.06245 
163740000    274.54688     309.2978    290.73003   -26.605384    27.073471    18.567771    40.062469 
163744000    278.12513    323.05492    282.71684   -26.890007    28.723645    40.338076    40.063828 
163748000    268.65802    329.51331    271.55563   -27.744848    27.679426    57.957684    40.063739 
163752000    271.01157    313.13263    266.45245   -26.728448    27.553428    46.680178    40.064738 
163756000    275.96165    320.49685    296.39372   -27.124967    27.101945    24.103129    40.063974 
163760000    265.71003     326.4143    270.31004   -25.784509    28.318848    56.104253    40.063167 
163764000    267.07845     292.6999    264.22623    -26.28263    28.875327    28.473667    40.061934 
163768000    272.47129    303.05316     281.7115   -25.875546    27.627274    21.341668    40.062942 
163772000    268.33891    304.24949    285.36102   -25.403813    27.593886     18.88847    40.062708 
163776000    279.29936    338.75728    285.48165   -26.492451    28.185867    53.275634    40.062083 
163780000    270.14637    313.51589    290.19222   -26.391348    26.349086    23.323666    40.061009 
163784000    276.66207    320.42392    291.33519   -28.610705    26.825875    29.088727    40.061742 
163788000    273.02133    331.50337     276.4868   -27.654697    28.608859    55.016573    40.061063 
163792000    271.35767    300.00537    297.89984   -25.733687     26.96616    2.1055281    40.062541 
163796000     267.5237    331.72632    252.89172   -27.066742    28.979701    78.834606    40.063213 
163800000    268.18981    325.40847    268.24529   -27.184493     28.62276    57.163178     40.06288 
163804000    271.20007    318.32014    282.77081   -24.529198    27.872243    35.549332    40.061948 
163808000    275.99347    312.00771    292.24123   -27.653015     26.69386     19.76648    40.062204 
163812000    278.83102    342.33238    281.80006   -27.755279    26.808137    60.532317    40.063065 
163816000    278.40967    320.95931    292.43569    -27.07596     25.58578    28.523626    40.060081 
163820000    270.93784    316.02977    274.21922   -25.552372    27.027046     41.81055    40.059694 
163824000    273.99144    323.35541    267.69279   -26.511179    27.599228     55.66262     40.05913 
163828000    282.90518    354.12449    288.18663   -29.348174    27.269628    65.937862    40.058922 
163832000    272.84805    288.41138    287.47404   -25.288189    27.585784   0.93734266     40.05894 
163836000    275.62315    321.54595    288.01756   -27.290869    27.718791    33.528387    40.060123 
163840000    268.53123    326.43816     289.2641   -27.314773    27.973273    37.174058    40.061208 
163844000    271.53826    322.40025    278.79996   -26.527443    27.656138    43.600299    40.061036 
163848000    276.18564    313.16431    285.39859   -26.830077    27.141636    27.765722    40.059965 
163852000    274.63971    324.66026    269.74757   -26.294989    28.082517    54.912698    40.060289 
163856000    272.82311    297.45317    294.45736   -24.420477    27.432601    2.9958088    40.060689 
163860000    281.75364     326.4021    279.69259   -26.557698    27.203687    46.709513    40.060014 
163864000    275.08546    325.69925    265.80157   -27.691348     27.30938    59.897681    40.058745 
163868000    281.34909     346.2802    283.38504    -27.90211    27.507595    62.895162    40.060145 
163872000    272.59074    312.07761    285.65732   -26.509826    27.703991    26.420286    40.060581 
163876000     274.8411    332.46532    272.24457   -27.546858    28.151427    60.220744    40.060313 
163880000    274.95165    306.10613    282.44035   -27.092075    26.678353     23.66578    40.059726 
163884000    287.48697    349.34702     292.6303    -28.23353    26.359321    56.716714    40.059221 
163888000     280.7316    330.64972    287.34924    -27.93877    26.942502    43.300484    40.058078 
163892000     277.4912    320.06823    278.98244   -27.580691    28.116803    41.085798    40.058972 
163896000    278.65217    323.34939    268.36117   -27.428781    28.029629    54.988225    40.059055 
163900000    281.69713    323.06486    275.10683   -28.671208    27.278841    47.958033    40.058615 
163904000    270.60797    307.93539    271.14402    -26.95965    27.111688    36.791366    40.058959 
163908000    292.45624    344.88409    298.33555   -28.649393    26.661026    46.548547    40.059976 
163912000    277.46416    311.96038    278.46448   -27.479738    27.210378    33.495901    40.058736 
163916000    282.64412    320.28557    302.47107   -26.746762    25.747929    17.814502    40.058778 
163920000    276.50688    331.32158    274.54785   -27.100091    27.285319    56.773734    40.059717 
163924000    268.21985    305.35846     265.5303   -27.657695    27.553107    39.828154    40.060114 
163928000    280.82761    328.41957    277.89889   -27.844637     26.82511    50.520675    40.058932 
163932000    275.18403    317.92167    302.18145   -27.369187    25.462049    15.740221    40.060253 
163936000    283.87109    337.77806    272.57234   -28.333757    26.789072    65.205719    40.060171 
163940000    282.53409     320.8518     277.6512   -28.791567    27.418163    43.200591    40.059047 
163944000    283.79143    335.79904      279.067   -29.236594    27.250292    56.732036    40.060175 
163948000    263.83652    290.91782    257.19466   -27.275556    27.703099    33.723155    40.060505 
163952000    271.33879    310.05741    267.37397   -26.972697    26.964676    42.683437    40.060359 
163956000    280.72112    325.48374    286.14295   -28.220875    26.688925    39.340789    40.061678 
163960000    267.65475    285.74217    283.58551    -26.76094    25.834343    2.1566537    40.062287 
163964000    269.74926    299.04526    265.56675   -27.600327    27.249558    33.478506    40.062628 
163968000    279.47195    316.88272    280.72394   -27.502032    27.161761    36.158786    40.063128 
163972000    268.47851    314.53621     269.2548   -26.880322    27.125165     45.28141    40.064372 
163976000    280.82151    342.13617    280.88892   -27.351533    26.841849    61.247253    40.064101 
163980000    278.80036    338.35388    275.18402   -27.450436    27.450135    63.169857    40.063644 
163984000    274.16052    308.52517    284.41891   -26.553193    25.613907    24.106256    40.064525 
163988000     281.6603    325.90893    290.08305   -26.874499    26.309767    35.825874    40.064788 
163992000    276.39509    320.87248    277.37461   -27.508565    26.455543    43.497867    40.066133 
163996000    267.60312     323.9515    258.85079   -27.984875    26.510744    65.100715    40.067066 
164000000    272.79444    317.35346    277.98087   -28.227471    27.404568    39.372589    40.066145 
164004000    283.72155    309.58224    296.03055   -26.459828    25.755486    13.551688    40.067504 
164008000    263.16571    323.22174    260.73484   -28.075639    27.825092    62.486904     40.06802 
164012000    275.97201    329.75829    266.98829    -27.73326    27.116244    62.769991    40.068168 
164016000    276.89549    319.62963    291.07386   -27.717384     27.04249    28.555769    40.067933 
164020000    272.79219    310.02512    287.49899   -28.311218    26.895839    22.526131    40.066909 
164024000    280.88229    334.59093    290.33499   -28.696627    26.859865    44.255937    40.067185 
164028000    286.65225    342.53203    282.29302   -29.428425    27.951342    60.239014    40.067251 
164032000    277.04146    308.80479    286.11065   -26.558746    28.228521    22.694145    40.065059 
164036000    272.90594    314.75217    278.48855   -27.684244    27.959907    36.263619    40.063168 
164040000    281.90021    343.40844    289.88446   -28.312487    27.046752    53.523984    40.063638 
164044000    270.17092    323.73618    264.82815   -28.557585    27.558598    58.908031    40.063507 
164048000    277.78733    322.77376    266.15035   -28.464802    26.826132    56.623408    40.063619 
164052000    296.13497    349.67003     306.8972    -29.21559     25.56839    42.772822    40.064992 
164056000    275.14443    316.67984     264.8943   -28.097782    27.859523    51.785532    40.066355 
164060000    280.59769    334.61867    267.22428   -29.497457    27.627649    67.394392    40.067116 
164064000    281.14338    355.18208    273.72666   -28.840335    27.024735    81.455423     40.06823 
164068000    280.83979    333.23885    281.87328    -28.96865    26.818773    51.365565    40.067114 
164072000    271.36528    327.53691    249.60224   -27.901675    28.850852    77.934677    40.065974 
164076000    275.90149    307.70114    284.78386   -27.092466    26.573253    22.917277    40.065044 
164080000    280.25891    313.51482    284.81331   -26.779541    27.083239    28.701516    40.063953 
164084000    273.88298    313.53458    286.60383   -27.506789    26.704753     26.93075     40.06579 
164088000    283.90707    317.16157    288.65642   -27.739911    28.222152    28.505151    40.064286 
164092000    280.49906    336.09041    297.11767   -27.849539    26.937173    38.972743    40.063812 
164096000    273.01857    326.30817    273.16431   -26.463641    27.902833    53.143863    40.066131 
164100000    269.80185    328.93755    268.78973   -27.070452    28.227038     60.14782    40.067754 
164104000    272.02843    289.59716    280.37711   -26.360471    27.461148    9.2200565     40.06746 
164108000    276.95216    329.82515     274.5556   -27.216789     28.47426    55.269552    40.066884 
164112000    267.34081    307.83906     272.8187   -26.878714    27.500734    35.020352    40.066003 
164116000    277.05912    318.67516    284.49033   -26.901954    27.345284    34.184826    40.064882 
164120000    282.62823    338.77022    294.53697   -28.599944    27.289635    44.233253    40.064692 
164124000    268.52878    314.80371    287.38129   -26.377398    27.658127    27.422424    40.064091 
164128000    275.50937    300.92603    296.97038   -25.226658    27.069091    3.9556505    40.063114 
164132000     272.8753    297.40227    297.69951   -26.150593    26.591385  -0.29723751    40.061852 
164136000    276.41889    317.52937    290.27262   -27.327205    26.754047    27.256753    40.062799 
164140000    274.21645    321.61906    283.80127   -26.459352    28.021243    37.817786    40.063736 
164144000    268.61519    320.60812    255.28125   -25.738437    29.285543    65.326871    40.065251 
164148000    272.04639    306.44402    281.44011   -25.971572    29.103727    25.003908    40.065913 
164152000    269.11191    314.16003    281.51135   -26.000247    28.124937    32.648682     40.06588 
164156000    271.44148    339.94022     265.1268   -25.735131    29.696302    74.813418    40.066029 
164160000     273.0783     339.0291    286.81837   -26.708751    28.180484    52.210734    40.065422 
164164000    276.43587    332.92649    293.77032   -26.815705     29.10144    39.156169    40.065899 
164168000    265.52639    306.47103     273.0536   -24.309744    28.105876    33.417434    40.065158 
164172000    267.72604    336.61388    260.34264   -26.428477    29.260803    76.271234    40.065702 
164176000    263.78814     299.3091    277.71736   -25.392492    29.161014    21.591746    40.066295 
164180000    262.53275     322.5227    267.47779   -25.900909    28.915612    55.044903    40.067127 
164184000    272.51575    328.74166    280.89756   -26.356245    28.628539    47.844094    40.066081 
164188000    274.50851    342.63486    273.25986   -26.470123    28.317351    69.375006     40.06701 
164192000    265.09743    313.13099    263.97405   -27.203772    28.448429    49.156944    40.067763 
164196000    277.48469     334.2812    297.67256   -26.737375    26.588524    36.608634    40.066876 
164200000    272.32308    333.47641    270.01016   -26.815817    28.807002    63.466245    40.068485 
164204000    268.12077    314.66914    276.17934   -26.505125     28.23024    38.489802    40.070378 
164208000    270.39555    310.24405    278.13926   -25.470145    28.432288     32.10479    40.070076 
164212000    269.06905    316.16742    268.85547   -26.129767    28.392095    47.311949     40.07091 
164216000    260.61253     297.5786    266.18189   -25.676656    29.263339     31.39671    40.070881 
164220000     279.7736    334.86159    280.85499   -26.716093    28.316604    54.006603    40.072529 
164224000    272.22071    309.92897     292.2741   -25.392845    27.533888    17.654875    40.071737 
164228000    265.81445    317.64554    288.81932   -25.317607    27.344077    28.826225    40.072672 
164232000    268.73139    319.57828    275.31848   -27.446483    28.040429    44.259797    40.073989 
164236000     271.2855    333.84026    261.34465   -26.091576    29.158699    72.495614    40.074395 
164240000    265.66567    301.27148    284.73965   -25.453189    28.282702    16.531832    40.073579 
164244000    267.40152    314.44515    275.13709   -25.979721    29.214632    39.308065     40.07169 
164248000    261.45734     315.6377     252.7376   -26.494696    29.263487    62.900102    40.072228 
164252000    267.77773    311.08943    271.68013   -24.991418    28.330169      39.4093    40.072729 
164256000     269.3285    310.21951    270.42241    -26.43138    28.601313    39.797102    40.072736 
164260000    275.16103    317.98103     293.9263   -25.919051    27.510019    24.054733    40.073662 
164264000    268.76116    331.15779    283.14585   -26.296496    28.327767    48.011941    40.074253 
164268000    275.10178    349.55626    271.83796   -26.816066    27.505486      77.7183    40.076171 
164272000    260.04523     318.9451     260.2437   -25.735146    29.082298    58.701398    40.077909 
164276000    276.57535    324.42981    297.13038   -25.787413    27.061542    27.299425    40.076815 
164280000    271.33927    317.20692    269.74307   -26.000949    27.443278    47.463851    40.078289 
164284000    271.48928    339.36467    285.86061   -26.886058    26.918422    53.504062    40.076703 
164288000    266.90707    314.38514    273.19129     -26.3233    28.679834    41.193847    40.076146 
164292000     275.4405    336.01394    265.03949   -26.570847    28.716123    70.974455     40.07679 
164296000    271.47068    312.78817    281.96679   -25.091618    27.817357     30.82138    40.075998 
164300000    275.72498    313.63892     293.2913   -25.918139    27.692413    20.347617    40.075654 
164304000    271.20469     327.5699    265.64949   -25.647797    29.518996    61.920412    40.075396 
164308000    267.61146    330.68066    277.80785   -24.957114     27.48418      52.8728    40.074904 
164312000    280.36313    332.52794    295.48021   -25.497165    27.323956    37.047729     40.07477 
164316000     273.7836    315.75499    281.27437   -25.688152    27.187707    34.480618    40.075964 
164320000    284.29315    329.75655    321.87648    -25.14145    26.850346    7.8800617    40.074877 
164324000    259.66857    305.62861    256.36973   -25.376586    28.403141    49.258878    40.074127 
164328000    270.29213    319.12115    268.28349   -26.542049    28.632421    50.837664    40.074161 
164332000    262.35039    310.62863    267.87032   -24.493687    28.046317    42.758308    40.075202 
164336000    259.94619    306.41436    280.46132    -25.60101    27.248234     25.95304    40.074433 
164340000    261.80152    284.11276    291.01712   -25.032017    26.607997   -6.9043607    40.075788 
164344000    266.87124    305.84444    280.00966   -26.270578     28.75745    25.834774    40.074824 
164348000    268.44553    318.94468    270.68346    -26.63759    29.296106    48.261218    40.075055 
164352000     272.2542    335.89077    271.22667   -26.465303    29.035702    64.664104    40.074809 
164356000    264.42498    314.92785    275.51355   -25.447857    28.713497    39.414302    40.074498 
164360000    269.20613    304.86601    286.43069   -26.249628    27.399937    18.435321    40.075507 
164364000    270.68714    306.53521    279.98772   -25.554557    28.838725    26.547486    40.077077 
164368000    271.45189    319.76892    272.35512   -25.313695    28.356286    47.413809    40.077602 
164372000    274.09997    339.60345    276.63635    -28.53547    28.629779    62.967102     40.07612 
164376000    272.72771    323.24038    273.65948   -27.200228    28.432185    49.580901    40.078034 
164380000    278.03892    322.73798    293.63949   -26.491162    26.935905    29.098481    40.079611 
164384000    276.08518    333.26833     281.7598   -26.815833    27.736442    51.508529     40.08053 
164388000    272.97396    316.88104    289.93669   -25.892545    28.334526    26.944353    40.079776 
164392000    262.92741    281.92655    275.63777   -24.394872    28.443306    6.2887767     40.07953 
164396000    269.36556    303.08469    279.62189   -25.989412    28.286107      23.4628    40.078829 
164400000    266.69837    306.49161    273.98103   -26.495862    28.260039    32.510579    40.078781 
164404000    271.08532    323.56986    269.85952   -25.866866    27.949815    53.710339    40.079653 
164408000    278.08841    368.98374     270.8119   -29.151898    29.130693    98.171837    40.079602 
164412000    270.84881    304.42922    285.55917   -25.920341    27.527414    18.870054    40.078868 
164416000     277.3385    334.23484    277.38786   -26.019531    27.664422    56.846984    40.078697 
164420000    280.49807     330.7557     285.9429   -27.342396    28.158648    44.812797    40.077488 
164424000    277.31225    341.26294    265.59145   -28.693181    28.091201    75.671487    40.077536 
164428000     276.5347    317.56675     284.7307    -27.19953    27.467276     32.83605    40.076509 
164432000    266.38954     306.8652    270.39124   -26.936633    28.675959    36.473958    40.076314 
164436000    272.48073    322.41399    269.62182   -27.950319    28.485203    52.792175    40.075446 
164440000    274.17313    310.91497    286.26627   -27.662008    27.364603    24.648698    40.074226 
164444000    272.96957     334.8116    269.18732   -27.689044    28.915357    65.624281    40.074749 
164448000     274.5648    327.58283     278.4882   -26.414578    28.487993    49.094628    40.074983 
164452000    273.45304    316.43699    279.51659   -27.511906    28.819607    36.920399    40.073955 
164456000    272.97087    321.67712    284.89557   -26.909184    27.987047    36.781555    40.073042 
164460000    272.45984    311.31636     285.8341   -26.137986    27.657109    25.482257    40.072542 
164464000    265.97722     296.5659    287.75028   -25.689319    28.227043    8.8156199    40.071373 
164468000    272.75771    312.70414    275.82427   -25.738745    28.762507    36.879874    40.072104 
164472000    277.89527    350.35765    285.17098   -26.895428     27.23116    65.186665     40.07303 
164476000    275.41091    333.16908    293.08779   -27.584638     27.33708    40.081285    40.073079 
164480000    275.19805    310.88545    284.86411   -26.485529    27.341458    26.021346    40.072374 
164484000    271.84962    321.83698    266.44875   -26.927242    27.500448    55.388223    40.074055 
164488000    276.32557    321.02195    280.79678   -26.498596    27.671434    40.225168    40.074756 
164492000    269.84819    316.87469     261.2493   -26.491246     28.49957    55.625384     40.07356 
164496000     276.3791    344.66947     262.6503   -28.179432    28.871573    82.019175    40.075067 
164500000    271.58672    316.34028     290.4123   -26.973068    27.654663     25.92798    40.074178 
164504000      271.542     324.7226    267.98946   -27.442984    28.219991    56.733141    40.074822 
164508000    273.34285    311.47964    288.57128   -26.555602      28.5767    22.908363    40.075238 
164512000    271.42929     326.3304    272.31724   -26.288116    28.013254    54.013162    40.074826 
164516000    272.52906    316.72295     262.8276   -26.383603    28.767621    53.895351    40.074214 
164520000    276.16702    326.64396    279.67533   -27.132391    27.383505    46.968631    40.074583 
164524000    271.57727    316.08864    282.97054   -26.637789    27.952151    33.118098    40.075744 
164528000    281.96086      343.703    282.09899   -27.240901     27.06182    61.604014    40.075507 
164532000    278.30604    333.15695    285.54502   -26.918106    26.994083    47.611935    40.076518 
164536000    272.12608    296.98109    274.87193   -25.974142    27.594216    22.109156    40.075233 
164540000    266.17616    304.45623    293.84034   -25.318036    27.589323     10.61589    40.073841 
164544000    269.49627    302.01869    282.10089   -23.791074    28.341196    19.917805    40.073735 
164548000    272.80604    317.61693    282.90154    -26.91233    27.946087    34.715388    40.072622 
164552000    271.80076    307.36105     279.4842   -25.858541    26.953112    27.876845    40.071776 
164556000    281.25093    336.33954    286.57097   -28.264585     27.51351    49.768564    40.070962 
164560000    274.70988    325.08764    272.40751   -28.512668    26.846639    52.680122    40.071326 
164564000      277.628    324.69464    277.01399   -26.371812    27.321461    47.680652    40.070856 
164568000    282.33551     331.6975     296.1447   -27.245582    26.888811    35.552797    40.070925 
164572000    284.78482     339.3486    296.31646   -28.792586    26.724187     43.03214    40.070421 
164576000    284.91697    336.87772    270.06899   -28.074549    27.072269     66.80873     40.06992 
164580000    273.42177    318.77611    278.07287   -27.312393    28.197019    40.703242    40.070067 
164584000    280.96313    323.13241    294.30443     -27.6404    25.568944    28.827986    40.069262 
164588000    274.95597    336.96472    273.55597    -29.02494    28.252621    63.408753    40.070264 
164592000    272.57364    298.85583    294.73969   -26.055891    26.438496     4.116149    40.069234 
164596000    280.59665    324.56978    273.76675   -27.658985    27.526699    50.803033    40.069716 
164600000     281.8793    342.55181    275.87151    -28.45552     26.63154    66.680301    40.071843 
164604000    283.48656     342.0764    269.96445   -29.654944    28.261789    72.111951    40.071694 
164608000    270.54626     316.6027    276.80935   -26.682712    27.928354     39.79335    40.073172 
164612000      275.864    320.41012    296.76706   -25.870264    25.552436    23.643065     40.07253 
164616000    280.74666    337.35793    296.44759    -28.06235    26.920331    40.910343    40.071539 
164620000     277.5407    326.66814    265.33655   -27.674896    27.615919    61.331586    40.072075 
164624000    280.66012    334.57008    279.47932   -28.192285    27.325346    55.090757    40.072221 
164628000    272.06685    317.77246    274.04419   -27.390016    27.912738    43.728267    40.070186 
164632000    277.02056    314.39012    275.58372   -27.067354    27.562543    38.806401    40.071311 
164636000    274.82987    313.28079      284.304     -25.9854    27.448158    28.976786    40.072387 
164640000    271.24016    298.16542    273.46304   -26.545622    28.945252    24.702377    40.072063 
164644000    276.66711    315.16248    276.89914   -27.950813    28.468446    38.263337    40.072616 
164648000    276.06044    321.61023    282.65852   -27.434702    27.235819    38.951715    40.073949 
164652000    272.60835    313.98866    273.58998   -26.899856    27.528542    40.398679    40.072461 
164656000    289.34433     330.8999    309.83204   -27.893638    25.979688    21.067856    40.070937 
164660000    280.01761    333.74513    287.82172   -27.709532     25.69561     45.92342    40.071274 
164664000    268.37535    301.02056    276.00782   -27.420864    27.887749    25.012741    40.070832 
164668000    272.95448    315.32756    279.87564   -27.169771    27.768054    35.451923    40.070133 
164672000    275.70482    310.57168    298.95551   -28.606015    28.013091    11.616166    40.070001 
164676000    279.79175    329.87361    279.51205   -28.255544    27.669151    50.361566    40.069581 
164680000    272.13176     318.6187     270.4061   -27.501469    29.343641    48.212605    40.070852 
164684000    276.69025    314.76753    296.72937   -28.004938    28.210151    18.038168    40.069847 
164688000    268.16646    311.35943    264.88653   -28.694074    28.527505    46.472898    40.069117 
164692000    282.49036    335.77229    289.82546   -28.306527    28.270671    45.946834    40.069848 
164696000    279.83094      320.862    301.56642   -27.888694    26.799298    19.295577    40.070419 
164700000    276.05204    335.23512    271.85476   -27.541592    27.973963    63.380357    40.070952 
164704000    275.76923    308.73409    290.95248   -26.722987     26.91425    17.781609    40.071625 
164708000    281.34321    344.54114     264.2481    -28.76314    28.322003    80.293045    40.074079 
164712000    276.31094    314.90222    312.69453   -26.420055    26.360237    2.2076911     40.07414 
164716000    271.83046    300.57569    283.53533   -26.289933    28.630555    17.040358    40.074992 
164720000    279.88459    348.77126    295.60745   -26.661269    26.481446    53.163802    40.075157 
164724000    268.85335    310.92786    271.43203   -25.977393    27.198963    39.495834    40.075201 
164728000    269.35948     335.4333    270.11923    -26.32655    28.223976    65.314066    40.074631 
164732000     274.9115    319.31233    275.29225   -24.932617    27.955349    44.020085      40.0754 
164736000    267.38081    317.03772    267.23459   -25.103519    28.751488    49.803137    40.075906 
164740000    267.63754     349.7427    252.35468   -25.170169    29.421672    97.388021    40.076354 
164744000    265.77999    282.43551    298.12291   -23.464369    27.411255   -15.687398    40.075356 
164748000    276.19765    336.15805    279.60985   -26.114772    28.280452      56.5482    40.076389 
164752000    268.27301     323.8439    273.77437   -26.244421    28.572277    50.069538    40.077501 
164756000     269.4604    332.00858    280.15227    -25.90894    28.812196     51.85631    40.076505 
164760000    265.18439    310.30688     275.7439   -25.855069     28.28898    34.562979    40.076067 
164764000    266.17389    306.20188    277.03051   -25.787834    27.175445    29.171366    40.076177 
164768000    270.91034    341.73307     282.0467   -26.871141    27.726086    59.686367    40.077621 
164772000    271.96268    332.54923     274.4293   -26.147056     28.54387    58.119931     40.07823 
164776000    268.14954    292.90943    289.96608    -24.40596    27.895422    2.9433565    40.078163 
164780000    259.19999    311.84275     263.3367   -25.814356    28.460229    48.506054    40.077969 
164784000    272.57344    323.74062    270.85177   -26.117608    28.079174    52.888847    40.078616 
164788000    270.24097    329.77781    291.59196   -27.466729    27.892455    38.185849    40.079197 
164792000    257.18333    298.87555    259.30638   -25.065099    28.202438    39.569172    40.078497 
164796000    271.88216    321.81314    272.78685   -25.084452    27.621269    49.026294     40.08003 
164800000    268.70596    304.20494     279.0451   -25.341519    27.155446    25.159844    40.079821 
164804000    274.10156    326.18361    276.04679   -26.693619     26.86904    50.136825    40.080401 
164808000    269.56302    319.60315    278.26398   -26.714575    27.198162    41.339179    40.081765 
164812000    267.10319    311.66335    299.64894   -26.154497    25.084708    12.014409    40.082354 
164816000    268.54501    302.87184    273.27619    -26.37432    28.002101    29.595653    40.082839 
164820000      274.238    321.41972     289.2165   -26.730675    27.163269    32.203221    40.083688 
164824000    267.96462    305.10472    274.57623   -25.683935    27.883848     30.52849    40.083498 
164828000    279.21535    339.37571    293.41808    -26.99224     26.52955    45.957636    40.082714 
164832000    266.26795    322.46364    252.70684   -26.488572    28.806459    69.756804    40.082937 
164836000    271.57242    322.33604    271.48507   -26.600012    27.694561    50.850961     40.08373 
164840000     265.3482    305.12026    285.80058   -26.546078    26.946687     19.31969    40.084364 
164844000    278.01803    321.18724    293.31948   -25.466675    26.938788    27.867761    40.085446 
164848000    272.83526    285.13581    298.32408   -25.705552    28.017193   -13.188268    40.085902 
164852000    266.58489     317.3182    261.24166   -27.421788     30.44961    56.076541    40.084933 
164856000    284.34458     344.4469    282.72527   -28.242483    28.331336    61.721634    40.085679 
164860000    284.62083    345.83185    305.51523   -28.451816     27.82902    40.316621    40.085178 
164864000    277.11534    319.24234    283.10845   -28.776957    28.179572    36.133883     40.08485 
164868000    278.89547    342.68599     269.2425   -29.311654    28.247186    73.443493    40.084457 
164872000    274.51004    320.35972    286.99141   -27.097871    27.289352    33.368315    40.084774 
164876000    270.85116     306.9606    263.24147   -26.675429     28.78435    43.719132    40.085813 
164880000    275.37166    322.56283    287.09884   -27.688267    27.614996    35.463996    40.084755 
164884000    270.77247     305.1451    297.48033   -25.887843    26.281554    7.6647738    40.085405 
164888000    274.74827    321.14479    264.76959   -27.050011    28.088024    56.375198    40.086459 
164892000     278.3302    326.16109    284.38746   -28.153936    27.513159    41.773626    40.085842 
164896000    276.69967    315.19133    291.10505    -27.13916    27.759883    24.086282    40.086516 
164900000    276.61942    334.89147     281.2016   -27.065162    27.883867    53.689872     40.08715 
164904000     271.4983    296.51917    299.82051   -25.960289    26.560871   -3.3013352    40.086376 
164908000    267.60191    335.66263    256.06254   -27.525289    28.398771    79.600098    40.085278 
164912000    265.54127    315.06575    270.83429   -25.562414    27.029086    44.231459    40.083841 
164916000    279.33765    315.56155    298.38761   -26.675694    25.750972    17.173944    40.082053 
164920000    274.36744     330.5188    275.05193   -26.939355    27.208501    55.466865    40.080914 
164924000    278.22244    329.49334    295.48506   -26.059845    27.044716    34.008282    40.080951 
164928000    276.18441     319.9611    276.40179   -27.292791    27.844402    43.559314     40.08046 
164932000    279.43729    322.70583    292.47906   -26.933398    27.459506    30.226777    40.080275 
164936000      267.656    303.13606    275.81768    -26.78814    28.215259    27.318384    40.079927 
164940000    282.13421    330.79492    280.74052   -27.205604    28.275547    50.054399    40.079526 
164944000    273.90127    338.97494    259.37425   -28.501673    27.912227    79.600695    40.079005 
164948000    272.33493    321.49542    270.16636   -27.003269    27.826075    51.329058    40.080393 
164952000    284.94253    314.60831    294.80467   -26.005483    27.115569    19.803637    40.081122 
164956000    274.90773    297.71155    303.00824    -25.47124    26.602983   -5.2966953    40.081383 
164960000    267.89735    305.37478      264.658   -26.565289     27.79919    40.716783    40.080261 
164964000      281.601    321.08237    296.64339   -26.712665    26.076816    24.438988    40.080075 
164968000    278.01881     317.6095    299.38915   -26.682711    26.125795    18.220349      40.0803 
164972000    274.29349    304.22989    292.66304   -25.693166    28.035909    11.566857    40.079481 
164976000    269.54886    310.72669     279.8642   -27.630953    27.095985    30.862492    40.078147 
164980000    276.35806    338.75028    274.85126   -28.059519    27.820858    63.899028    40.077064 
164984000    279.20865    317.04626    288.71073   -26.478828    27.136123    28.335529    40.076166 
164988000    282.93286    335.43974     276.0722   -27.835659    28.512409    59.367534    40.075766 
164992000    280.64814    335.98994    291.49169   -27.816167    27.692222    44.498248    40.075303 
164996000    269.63795    305.69298     277.0345   -26.601517    27.507055    28.658477     40.07572 
165000000    270.44104     279.8536    283.81681   -26.159494    26.392929   -3.9632106    40.074807 
165004000    279.68523    317.02626    292.40835   -26.988157    25.553317    24.617917    40.073243 
165008000    268.81864     321.7067    286.54228   -27.177613    26.125797     35.16442    40.074618 
165012000    270.78501    297.73534    278.67699    -26.72074      27.1886    19.058356    40.073439 
165016000    267.70023    327.82657    262.84624   -26.718803    28.212027    64.980327    40.074498 
165020000    275.41129    308.31121     283.4101   -25.264989    26.254261    24.901117    40.073734 
165024000    272.40138     322.8088    280.69246   -27.518911    27.258314     42.11634    40.074264 
165028000    275.47836    320.09922    275.20755   -25.987777    27.166929    44.891664    40.075268 
165032000    272.24993    321.14542    273.92911    -25.73724    27.124497    47.216313    40.075317 
165036000    264.71898    307.29074    275.84135   -24.828505    26.870156    31.449395    40.075708 
165040000    274.86727    329.87708    286.08105   -25.451214    26.768194    43.796025    40.077024 
165044000    278.01019    317.57992    293.57862   -24.936152    26.554115    24.001291    40.076594 
165048000    266.04141      289.106     279.1664    -24.99979    27.178551    9.9396028    40.076185 
165052000    268.72592    324.99649    260.93166   -25.399748    29.187081    64.064838    40.076534 
165056000    266.59782    283.49748    299.12089    -23.60316    26.400901   -15.623413    40.076588 
165060000     266.6623    336.78876    253.25375     -26.0725    28.332453    83.535015    40.076326 
165064000    268.36922    296.38095    287.30618   -23.628417    26.802457    9.0747658    40.074595 
165068000    268.73268    312.22797    304.66062   -25.412637    25.073612    7.5673533    40.075671 
165072000    275.25858     329.2698    281.30491   -26.182318    26.699515    47.964887    40.077814 
165076000    275.07242    331.08026    286.46454   -27.635614    26.554052    44.615717    40.078341 
165080000     276.1979    333.10329    280.12442   -25.825715    27.768207    52.978871    40.076687 
165084000    272.23218      304.365    253.17131    -24.88681    28.773307    51.193696    40.077492 
165088000    270.19117    328.57489    269.94077   -26.308658    27.488346    58.634116    40.077783 
165092000    278.12519    340.46344    272.64282   -27.671969    26.651486     67.82062     40.07989 
165096000    272.71966    320.75233     267.2755   -26.702426    27.770335    53.476834    40.080379 
165100000    277.41601    333.71061    284.76356   -27.025678    26.395548    48.947047    40.081735 
165104000     285.8069    355.20086    288.08668   -29.414866    27.781062    67.114174    40.080716 
165108000     266.4573     297.4989    266.39643   -26.218267    28.534048    31.102474    40.081348 
165112000    269.45275    320.29845    264.02999   -26.040524    27.855398    56.268453    40.082192 
165116000     277.8461    327.33927    285.97209   -26.865898    26.293082     41.36718    40.083361 
165120000    266.06073    296.78795    285.00411   -25.082708    26.181527    11.783833    40.083346 
165124000    267.09627    318.98131    259.04833   -26.912648    28.576988     59.93298    40.082338 
165128000    271.51351    310.87993    282.81316   -27.485442    27.478587    28.066772    40.082001 
165132000    269.80213    308.54882    267.88589   -26.873596    27.044668    40.662933    40.081915 
165136000    278.92011    328.41671    294.57991   -29.299194     26.32131      33.8368    40.081472 
165140000     275.7874    306.19258    296.86861   -27.154475    26.988429    9.3239699    40.081425 
165144000    275.83891    309.56905    291.86114     -26.4204    27.051197     17.70791    40.082038 
165148000    275.29691    331.57081    262.17483    -26.64307    27.613542    69.395988    40.083558 
165152000    274.86329    315.43115    295.83148   -25.818717    26.762301    19.599665    40.085291 
165156000     277.6297    324.12451    289.01666   -26.675813    27.357898    35.107858    40.085355 
165160000    262.43739    307.51233    257.49629   -26.874928    28.314814    50.016036    40.085041 
165164000    276.69749    323.24581    303.37205   -28.314863    26.589203    19.873759    40.084992 
165168000     271.6177    315.49119    283.21223   -28.384584    25.504241     32.27896    40.084502 
165172000    275.08869     335.7329    267.90812   -28.568473     27.53295    67.824779    40.085183 
165176000     271.8885    307.11659    278.91421   -26.901035    26.221092    28.202384    40.085818 
165180000    278.13426    326.35185    274.64689   -27.805848    28.095219    51.704959    40.086798 
165184000    275.31271    321.50535    288.26562   -26.259475     26.97987    33.239734    40.085138 
165188000    274.93012    318.71194     297.0739   -26.314598    26.986715     21.63804    40.084578 
165192000    270.31886     336.8587    256.82221   -28.975232    29.130663    80.036489    40.085226 
165196000    267.94297    308.73969    267.09975   -26.884255     27.19207    41.639941    40.085546 
165200000    281.03825    298.14157    314.78393   -27.501835    24.827352   -16.642362    40.082582 
165204000    278.04767    314.19047      291.274   -27.935103    27.113063    22.916469    40.083592 
165208000    273.21482     319.6782    281.08764   -26.793915    27.487433    38.590565    40.083509 
165212000    283.87439    346.07749    287.04134   -28.561099    27.141019    59.036152    40.084471 
165216000    265.70702    321.53056    258.41727   -27.294707    28.645785    63.113295    40.083739 
165220000    279.54631    330.65226    279.92895   -27.555556     27.87611    50.723307    40.083878 
165224000    282.04633    333.34583     291.6002   -27.575665    28.112491    41.745631    40.083859 
165228000    276.80024    323.06209    286.88301   -28.011625    28.236858    36.179078    40.085508 
165232000    264.30914    295.88262    269.71353   -26.049179    28.544236    26.169088    40.085499 
165236000     275.2528    316.60129    278.51621   -28.465289    27.693141    38.085087    40.085152 
165240000    290.72225    346.04541    279.59485   -29.402306    27.782648    66.450561    40.086302 
165244000    279.11132    332.38047    302.45383   -29.544692    27.083255    29.926643    40.085492 
165248000    278.19994    328.24528    278.68542   -27.993984    27.628286    49.559864    40.086324 
165252000     274.8892     332.0341    279.23227   -28.260289    27.978194    52.801838    40.086988 
165256000    278.29592    331.87039    286.23026   -28.347227    27.155242    45.640124    40.087585 
165260000    272.52183    307.67253    277.66923    -27.03194    28.646347    30.003307     40.08582 
165264000    273.90255    326.21929    282.01599   -27.399808    27.255519    44.203302    40.086236 
165268000    273.12602    322.57275    271.65157   -28.775275    28.833798    50.921184    40.086535 
165272000    278.11841    324.97864    276.30656   -29.281857    27.977211    48.672073    40.088487 
165276000    287.80802    368.07192    288.72253   -30.922607    27.615586    79.349386    40.089032 
165280000    270.14246    310.54636    273.69885   -27.831252    27.896012    36.847511    40.090095 
165284000    268.26023    303.71925    274.98098   -27.037383    27.347863     28.73827    40.089666 
165288000    277.09026    319.27692    266.84226    -27.64067    28.209772    52.434651    40.088642 
165292000    272.32192    311.41867    263.97965   -28.172919    28.254047    47.439015    40.088778 
165296000    274.80566    325.66067    281.89973   -28.523365    27.182195    43.760941    40.088842 
165300000    279.40699    331.46794    278.87395   -28.506662    26.866959     52.59399    40.089519 
165304000    278.75312     319.3321    269.41344   -29.251477    27.898693    49.918663    40.091492 
165308000    277.12876    304.40162    290.60392    -28.89962    26.495449    13.797705    40.091517 
165312000     279.7274    313.05875    296.34261    -29.05198    25.483099    16.716138    40.090505 
165316000    277.58265    311.64591    279.24543   -28.260427    26.945692    32.400485    40.088832 
165320000    276.88897    329.40801    271.92475   -29.396614    26.735451    57.483262    40.089239 
165324000    275.75675    291.05893    277.51402   -28.459785    27.775642    13.544918    40.088965 
165328000    288.06023    324.84382    308.46496   -29.851138    25.967171    16.378858    40.089132 
165332000    277.63417    324.91443    280.64832   -30.588873    27.683906    44.266111    40.089047 
165336000    284.97954    318.06639     285.7473   -29.826943     26.92922    32.319092    40.089393 
165340000     269.6448    297.23376    257.29325   -29.005329    29.181948    39.940511    40.090984 
165344000     282.5837    323.98343    299.19195   -29.805821    27.417347    24.791476    40.090216 
165348000    268.34512    296.29876     268.6384   -27.988378    28.879819    27.660355     40.09044 
165352000    279.42647    324.63832     277.5918   -29.642928    29.054982    47.046515    40.089442 
165356000    276.33302    312.10722    286.96602   -28.514714    28.728638    25.141207    40.089984 
165360000    277.67709     325.8024    258.88234   -29.439873    29.085117    66.920052     40.08916 
165364000    274.84147    322.50399    292.48803   -28.858787    28.418886    30.015955    40.089317 
165368000    280.66307    328.84499    277.88205   -28.389573    29.091809    50.962935    40.090378 
165372000    273.59437     322.0828    277.25765   -29.187129    27.831202    44.825148    40.090083 
165376000     273.6532    317.73355    278.45494   -29.081365    28.551879    39.278611    40.091161 
165380000    279.83502    337.17948    258.92107   -29.562762    28.476288    78.258405     40.09326 
165384000    276.78888    325.02477    283.98845    -28.61035    28.070201    41.036323    40.092526 
165388000    283.06884    313.50496    298.74128   -28.731291    27.833511    14.763677    40.093193 
165392000    276.63119    329.11843    265.01679   -30.134036    28.817598     64.10164    40.091818 
165396000    268.30618    303.08724    263.88117   -28.408202    28.924244    39.206076    40.090473 
165400000    272.11365    316.70942    273.59038   -29.344968    28.153711    43.119044     40.08984 
165404000     282.0721     336.4574    290.39533   -30.248491    27.904924    46.062069     40.08948 
165408000    278.43887    329.87786    270.24752   -29.547866     29.06422    59.630342    40.088617 
165412000    284.86965    334.50913    298.96219   -29.333354    28.119182    35.546937    40.088819 
165416000     273.5657    313.41183    268.00511    -28.06713    28.477536    45.406721    40.088831 
165420000    277.54259    325.28525    286.29426   -28.403296    29.006968    38.990996    40.088764 
165424000    267.09385    309.43408    267.51908   -29.388845    29.558013    41.914993     40.08998 
165428000    278.41356    324.89799    268.62892   -30.042798    30.080227    56.269074    40.088944 
165432000     286.6419    344.92845    291.06614    -31.02447    29.214945    53.862307    40.089365 
165436000    271.82423    322.00059    268.07724   -29.173246    29.331321    53.923352    40.091457 
165440000    285.18357    336.16924    288.32212   -29.492042    28.618887    47.847117    40.091195 
165444000    274.70666    323.19501    270.30692   -28.815268     29.99794    52.888095    40.092518 
165448000    280.03843    353.67829    260.86961    -30.80156     29.88538    92.808677    40.092633 
165452000    267.02606    294.29735    281.26025   -26.886113    29.519627    13.037096    40.092512 
165456000    274.69013    307.86915    284.75291   -28.373964    28.820042    23.116237    40.091743 
165460000    278.14593     329.5913    282.37495    -29.99494    29.620347    47.216357    40.093089 
165464000    278.37838    337.60212    276.66943   -30.828142    30.323855    60.932686    40.091722 
165468000    288.18035    336.26354    297.14681   -30.704955    28.892241    39.116728     40.09073 
165472000    270.95835    309.07679    260.76778   -27.344788    30.135607    48.309013    40.089707 
165476000    276.03347    316.69513    284.52477    -27.56637    28.588696    32.170357     40.08872 
165480000     273.8745    321.96704    280.10252   -27.489389    28.890916    41.864519    40.089013 
165484000    274.98767    323.77585    286.58607   -29.226046    28.209685    37.189774    40.088698 
165488000    272.75735    310.23511    258.04121   -29.391198    29.549015    52.193902    40.089282 
165492000    278.19337    302.78467    275.33698   -28.197287    29.249573    27.447691    40.089284 
165496000    292.63427    351.04792    297.26873   -30.268999    28.684831    53.779191    40.090194 
165500000    274.22757    310.34933    271.71705   -28.939716    29.757441    38.632279    40.091016 
165504000    281.09532     319.0139    280.91044   -30.937474    28.777156    38.103456     40.09147 
165508000    279.03768    310.70174    292.84469   -29.775318    29.148797    17.857058    40.090316 
165512000    277.02246    316.60194    292.10238   -27.843701     27.40672     24.49956    40.090126 
165516000    276.16462    317.58931    266.14125   -28.775903    29.701304    51.448056    40.089917 
165520000     284.7585    341.19673    284.92946   -30.777568    28.543503    56.267266    40.089889 
165524000    276.75337     317.1968     272.2369   -29.770319    28.473205    44.959903    40.090786 
165528000     277.2393    313.06634    280.99229   -29.723851    28.161332    32.074048    40.090218 
165532000    276.86573    314.16012     290.3463   -29.581951    28.561533    23.813823     40.09097 
165536000    277.67455    318.77481     294.3109   -29.443069    27.503951    24.463915    40.090944 
165540000    284.58024    355.44116    281.40401   -30.251859    28.457718    74.037143    40.090652 
165544000     277.8728    314.39252    293.69794   -29.406719    27.239437    20.694585    40.090693 
165548000    291.09096    347.17253    294.50094   -29.415414    26.400399    52.671591    40.089759 
165552000    268.37177    300.48658    262.12052   -27.251308     28.55346    38.366063    40.090903 
165556000    277.54919    306.66602    285.56319   -27.153141    27.898985     21.10283    40.090232 
165560000    270.45605    317.00899    278.30714   -27.250484     27.20217     38.70185    40.088691 
165564000    274.91252     326.1953    274.14068    -27.74178    26.865493    52.054623    40.088949 
165568000    272.90543     338.0682    245.20306    -28.39847    28.263138    92.865149    40.089873 
165572000    276.33299    317.00001    280.87392   -28.055518     26.95113    36.126095    40.089488 
165576000    279.91332    345.09971    279.69615   -29.290851    27.368438    65.403559    40.089972 
165580000    275.53144    294.77557    307.67416   -26.978431    25.547523    -12.89859    40.090021 
165584000    280.53963    329.21659    278.81248   -28.904765    28.764162    50.404114    40.089257 
165588000    273.11662    325.30238    279.85201   -28.503829    28.212165    45.450375    40.088571 
165592000    284.09903    336.54898    290.23664   -28.059642      26.9253     46.31234    40.088001 
165596000    274.17562    328.79988    277.17534   -28.363924    27.597676    51.624542    40.088102 
165600000    270.15678    305.89152     281.7818   -27.752277    28.984396    24.109723     40.08739 
165604000    278.70182    319.65111    289.24215   -26.805088    27.453128    30.408958     40.08744 
165608000    275.12251    319.54721    285.45313    -28.33461    27.817405    34.094077    40.087304 
165612000    274.34182     326.1803    281.41848   -27.807566    27.043844     44.76182    40.087128 
165616000    267.74252    317.73868    277.67122   -27.187823    26.347326     40.06746     40.08697 
165620000    271.92715    308.87494    279.57741   -25.532797    27.202931    29.297527    40.087324 
165624000    276.69619    341.40981    275.84912   -27.763557    27.618683     65.56069     40.08854 
165628000    273.58029    311.95345    291.55303   -27.171509    26.475047    20.400423    40.088965 
165632000    276.47145     325.8381    288.14338    -27.79311    27.530663    37.694716    40.089235 
165636000    271.36728    314.82835    275.09713    -26.69861    28.299665    39.731222    40.089326 
165640000    276.88519    318.82391    277.35047    -27.79787    28.482576    41.473446    40.089181 
165644000    271.05279    302.00246    276.93581   -26.962803    27.637094    25.066644    40.089178 
165648000    282.14386     334.0939    311.04187    -28.60558    25.775871    23.052023    40.088728 
165652000    276.86786    323.68159    278.03777   -28.564949    27.685534    45.643818    40.088137 
165656000    269.50501    307.08769    270.32119   -26.943724    27.222668      36.7665    40.088329 
165660000    282.85076    305.24731    322.02188   -28.211845    24.683111   -16.774578    40.086736 
165664000    292.26679    332.07668    301.55087   -29.377009    25.854005    30.525817    40.086724 
165668000    274.08615    305.98157    273.63172   -28.726031    26.786163    32.349849    40.086978 
165672000     278.5348    323.78113    275.04859   -28.104238    26.090817    48.732542    40.087743 
165676000    275.28819    303.14039    284.47854   -26.753577    24.712896    18.661845    40.086622 
165680000    276.11482     297.4023    292.57855   -28.080937    25.240279    4.8237503    40.085499 
165684000    275.66044    308.16722    279.15975   -27.509716     27.54121     29.00747     40.08525 
165688000    271.33321    303.09777    277.37774   -26.540899    27.349666    25.720028    40.083714 
165692000    277.40607    330.44532    264.38016   -27.911412    27.725179    66.065157    40.084871 
165696000    273.40661     318.6996    280.38952   -28.439259    27.933309    38.310081    40.085697 
165700000    282.08309    332.77601    278.91905   -28.545384    28.247867    53.856962     40.08569 
165704000    274.16442    330.71051    274.78132   -27.848511    28.224331    55.929197    40.084084 
165708000    276.35453    307.70262    282.86656   -27.323715    28.110591    24.836056    40.083157 
165712000    271.73999    343.63044    267.75377   -28.221382    28.830518    75.876669    40.082137 
165716000    281.93192    352.71162    273.80647    -29.34398    28.147552    78.905153    40.083056 
165720000    280.89113    324.63596    300.76217   -29.637332    26.825131    23.873787    40.081638 
165724000    266.14786    292.42027    275.46806   -26.378502    27.521375    16.952205    40.081971 
165728000     269.8196    310.37081    274.13104   -26.934513    28.791932    36.239761    40.080824 
165732000    267.27648    316.78127    275.17942   -29.000084    28.371833    41.601844     40.07965 
165736000    272.62592    334.23386    261.97519   -27.820297     29.87037     72.25867    40.080225 
165740000    280.22123    316.39742    286.65288   -27.982413    27.813248    29.744535    40.080229 
165744000    271.46899    332.00896    271.49057   -28.844673    28.365175    60.518388    40.081392 
165748000    266.55561    326.96071    254.06299   -27.603102    29.549403    72.897729    40.082071 
165752000    266.97577    307.39306    277.30523   -26.829344     29.25581    30.087832    40.083633 
165756000    264.96648     295.1268    264.68833   -26.347065    29.402638    30.438475    40.082485 
165760000     276.3082    340.44965    284.62906   -28.579803    27.995456    55.820592    40.084232 
165764000    265.41657    325.30228    286.80983   -27.201025    27.132555    38.492448     40.08291 
165768000    277.51024    325.49551    285.74925   -27.997179    27.935012    39.746262    40.082478 
165772000    293.50239    360.56599    315.90689   -28.864602    26.861934    44.659093     40.08157 
165776000    279.54754    345.26432    286.77959   -28.970909     27.40637    58.484731    40.082748 
165780000    270.49169    317.30861     263.0387   -27.187889    28.394357    54.269907    40.081913 
165784000    272.85904    319.78521     277.3694   -28.297848    28.149514    42.415814    40.082113 
165788000    275.42131     333.1835    263.98347    -27.14718    29.017036    69.200034    40.080875 
165792000    278.50929    330.13119    295.10428   -28.179393    27.061935    35.026904    40.079973 
165796000    278.40909    335.09325    279.42528   -29.079608     28.31515    55.667976    40.080074 
165800000    276.30474    340.57397    271.77758   -29.042377    29.344439    68.796391    40.080158 
165804000    276.65808    310.01929    294.04565   -28.172309    27.630828    15.973641    40.081469 
165808000    270.71324    315.35304    272.76324   -27.278099    28.387824    42.589804    40.079885 
165812000    275.35262    320.12701    284.75302   -27.297071    27.381567    35.373992    40.079125 
165816000      279.984    331.87876    283.51423   -27.931652    27.800049    48.364527    40.078925 
165820000    269.29577    308.67958     274.5772   -26.709163    28.551605    34.102376    40.079194 
165824000    269.74048    289.10873    269.23003   -26.806981    28.663646    19.878695    40.078273 
165828000    276.94973    328.84128     280.4308   -28.654008    28.128927    48.410482    40.078656 
165832000    282.30288    343.87659    289.22866   -28.887297    27.254895    54.647934    40.078622 
165836000    273.84789    309.42818    278.96466   -28.297818    28.371463    30.463518    40.078104 
165840000    276.92288    329.37643    275.26587   -27.647396     28.25475    54.110559    40.078745 
165844000    278.19519    318.64617    287.82488   -27.341087    27.627312    30.821281    40.079271 
165848000    281.21402    362.86908    283.11529   -29.952807    28.369336    79.753791    40.080072 
165852000    282.96396    336.76878    294.62015   -28.871897    28.351697    42.148625    40.080655 
165856000    277.33684     311.4511    276.74368   -28.544328    30.434441    34.707429    40.080262 
165860000    272.04057    300.97086    290.03413   -27.611891    28.537382    10.936732    40.081379 
165864000    277.61492    313.31703    285.43349   -28.644347    29.021999    27.883535    40.081621 
165868000     273.1273    324.05679    277.72203   -29.119563    29.659036    46.334759    40.080622 
165872000    272.46877    316.15656    261.93595   -28.946261    29.077496    54.220605    40.081864 
165876000    272.72034    311.20821    272.25794   -29.704185    28.482684    38.950269    40.081385 
165880000    278.01177    315.14545    287.01575   -29.112362    28.215819    28.129698    40.080935 
165884000    273.38406    310.46796    277.35249   -30.250467    28.533136    33.115465    40.079849 
165888000     277.8478    313.66253    273.66804   -28.902834    28.339428    39.994488    40.079413 
165892000    277.58517    324.54069    290.66431   -30.378396    28.344922    33.876388    40.077289 
165896000    274.55727    327.10353     255.6681   -30.228962    28.820553    71.435422     40.07888 
165900000    285.72238    314.18034    317.73397   -30.000157    26.422176    -3.553629     40.07972 
165904000    267.42647    289.13124    260.22631   -28.933644    28.405337    28.904936    40.078407 
165908000    280.97084    307.01091    301.06968   -28.713466    26.723677    5.9412342    40.078273 
165912000     281.3646    347.79656    280.49092   -31.071397    28.025725    67.305634    40.077047 
165916000    274.43529    306.88959     280.0904   -29.723721    27.142178    26.799191    40.076352 
165920000    278.39605    327.98157    269.78164   -29.568076    28.840729    58.199925    40.076918 
165924000    276.69098    309.20597    296.88359   -28.982942    27.355553    12.322379    40.078512 
165928000    280.56034    309.51042    288.31289   -28.426726    27.412722    21.197527    40.076737 
165932000    270.34731     321.1815    261.29826   -29.110043    29.053989    59.883247     40.07823 
165936000    270.93288    312.91995    272.97888   -29.097506    28.940066    39.941067    40.076478 
165940000    279.85869    314.74065    278.68364   -29.557665    28.318714    36.057011    40.076605 
165944000    281.66271    338.18365    278.74501   -29.902175    27.817928    59.438647     40.07887 
165948000    284.01415    332.34875    288.90573   -29.641157     28.07038    43.443027    40.078611 
165952000    279.94936    322.64526    273.45626   -29.492914    28.924793    49.189003    40.080243 
165956000    282.72582    322.97978    295.34261   -30.223429     27.80225    27.637166    40.080078 
165960000    286.90667    345.38761    284.10943   -31.645066    27.665086    61.278176    40.077504 
165964000    281.06437    332.16238    273.92777     -30.8086    27.919775    58.234609    40.078341 
165968000     273.7969    326.19658    271.00842   -31.373484    28.943277    55.188159    40.078639 
165972000    278.16204    333.04593     275.9157   -33.015237     27.97216    57.130229    40.079079 
165976000    274.74696    308.08705    269.30192   -30.398801    29.354194    38.785133    40.078911 
165980000    274.72934    325.80706    274.04885   -30.291791    28.769523    51.758213    40.080397 
165984000    275.88722    307.76243    285.72563   -31.011258    28.694008    22.036794     40.08019 
165988000    274.71637    320.07096    298.10868   -29.947851    27.523051    21.962277    40.079178 
165992000    278.99794    324.25594    279.91876   -29.337363    30.150048    44.337182    40.079974 
165996000    270.73746    304.03895    284.35713   -29.276849    28.324557    19.681818    40.078735 
166000000    274.67893    316.04001    281.04082   -28.642253     29.87766    34.999187    40.078079 
166004000    279.28969    331.92348    261.18391   -31.076762    30.187289    70.739568    40.078939 
166008000    294.99973    344.52124    287.07923   -31.852401    29.526459    57.442006    40.078953 
166012000    275.40895     327.0871    266.74924   -31.610499    30.143982    60.337853    40.077373 
166016000    270.46309    303.12868    276.06416    -30.07235    29.063606     27.06452    40.077965 
166020000     276.3679    328.29729    266.22904   -31.125095    28.330931    62.068254    40.079374 
166024000    280.25372    328.18336     276.5103    -29.83067    27.637305    51.673067    40.079383 
166028000    283.93171    328.99809    292.87834   -31.018674    27.721019    36.119747    40.080032 
166032000    286.16712    326.17605     295.9664   -29.964855    27.352728    30.209649    40.079308 
166036000     273.8879    309.32635    276.64918   -30.616849    28.806584    32.677174    40.080033 
166040000    284.36334    316.59586    292.46888   -30.027383    28.476492    24.126979    40.079958 
166044000     286.6613    332.27745     284.7922   -30.616901    29.103628    47.485257    40.080347 
166048000     277.2393    311.37244     298.1759   -28.705918    28.904815    13.196545    40.078146 
166052000    286.29583    331.78731    303.54455   -31.473154     28.77059    28.242759    40.079064 
166056000    284.41233    321.64605    284.94046   -30.701056    29.287376    36.705595    40.078031 
166060000    289.82406    334.26737    309.34111   -31.537176    28.194162    24.926251    40.076632 
166064000    273.15895    310.79024    264.91438   -30.636036    30.418387    45.875859    40.077002 
166068000    278.87677    302.62917    291.38105   -29.979172    29.058591    11.248114    40.077141 
166072000    280.94382    328.77066    286.78554   -32.475621    28.464307     41.98512    40.078496 
166076000     266.7976    301.10773    271.96627   -29.617639    28.991597    29.141452    40.077231 
166080000    271.70311    308.56274     267.2788   -29.179023    28.826968    41.283934    40.076994 
166084000    277.56521    323.35007    274.80427   -30.707764    29.168606    48.545795    40.077248 
166088000    272.51446    298.89948    275.06648   -28.735514    29.096057    23.833002    40.076373 
166092000    274.57161    314.02446    280.33026   -29.654002    28.981455    33.694199    40.077856 
166096000    284.08926    350.78004    276.90826   -31.802046     29.23791    73.871785    40.077285 
166100000    278.88382    327.84808    281.10197   -29.774763    29.652625    46.746104    40.076074 
166104000    269.56063    302.16732     267.0244   -29.028212    29.904677    35.142915    40.076261 
166108000    280.10494    296.91762    292.03513   -28.758327    28.017799    4.8824939     40.07634 
166112000    279.05292    316.06636    277.53655   -29.772087    28.779893    38.529813    40.076916 
166116000    275.31811    317.87926    271.92328   -29.966442    28.794753    45.955971    40.076978 
166120000    271.57009    294.78288    268.09162   -29.236776    30.004398    26.691261    40.077097 
166124000    269.94964    300.25127    278.56517   -30.244005    29.002266    21.686103    40.077106 
166128000    276.05086    328.26095    262.91395    -30.71707    29.904326    65.346997    40.077948 
166132000    289.29578    324.70795    300.68816   -30.761368    29.331334     24.01979    40.077023 
166136000    280.73905    335.72808    288.99084   -31.702358    28.869733    46.737241    40.077904 
166140000    278.12553      317.523    266.85725   -29.881492    30.220107    50.665749     40.07608 
166144000    278.16492    316.93096    268.66126   -28.631819    29.599629    48.269703    40.075457 
166148000    277.44314    298.91377    296.72924   -30.130659    28.468864    2.1845298    40.075342 
166152000    293.63143    343.19516    300.54568    -29.75414    27.068184     42.64949    40.075705 
166156000    272.13331    306.36992     270.4409   -28.881716    28.207547    35.929023    40.076777 
166160000     281.1508    336.77483    271.98014   -30.517173     29.35609    64.794695    40.075897 
166164000    282.12717    336.72914    284.03604   -30.422673    27.934913    52.693105    40.075887 
166168000    287.63893    325.21464    299.59214   -30.789457    27.105164    25.622508    40.076288 
166172000     278.9555    312.03662    271.55517   -28.920715    28.319372    40.481457    40.077163 
166176000    275.56271    328.93385     281.3009   -28.961122    29.606258    47.632947    40.077917 
166180000     275.3209    320.51308    274.87546   -29.570648    29.435155    45.637618    40.076919 
166184000    276.87454    314.33139    295.46431    -29.32541    28.795097    18.867079    40.076345 
166188000    271.97723    304.38765     280.8871   -29.067603    29.397157    23.500554    40.075731 
166192000     278.9837    321.08984    292.36747   -29.179753    29.293778    28.722371     40.07599 
166196000    277.58247    345.31673    261.59737   -29.650198     30.08931    83.719366    40.075924 
166200000    281.20949    319.41654    286.79106   -28.208274    28.692662    32.625489    40.075639 
166204000     283.1273    332.44097    295.54815   -28.549665    29.365905    36.892828    40.074466 
166208000    275.80883    315.47846    288.61591   -28.655243    28.745233     26.86255     40.07404 
166212000    281.80003    336.04204    278.80367   -29.308013    29.138547    57.238368    40.073543 
166216000    273.18508    332.53624    275.99682   -28.952827    30.964377    56.539415    40.073681 
166220000    277.19186    316.58465    285.94457   -28.712813    29.500593     30.64008     40.07323 
166224000    276.66039    317.88652    297.93075   -28.651037    28.409466    19.955775    40.074302 
166228000    270.16711    329.77072    258.15614   -29.332525    30.187798    71.614583    40.075877 
166232000    271.15522    308.95079    293.04868   -27.545128    28.344565    15.902112    40.076895 
166236000    272.07248    327.96995    278.35396   -28.779582    30.284386     49.61599    40.077869 
166240000    276.28113    314.87447    276.31451   -29.084568    30.189212    38.559958    40.077697 
166244000    272.42567    320.53277    271.95798   -28.321177    29.235411    48.574789    40.077109 
166248000       273.83    313.42931    292.29036   -28.023554    29.355259    21.138944    40.077284 
166252000    274.41552    314.90164    275.82096    -29.36676    30.309157    39.080677    40.079126 
166256000    276.69029    322.15375    281.91583   -30.889211    30.399059    40.237922    40.080716 
166260000    266.18802    308.28892    267.65191   -29.514336     30.47737    40.637004    40.082616 
166264000    278.75759     336.0183    282.30224   -30.367798       30.254     53.71606    40.082539 
166268000    265.26058    304.41665    261.21115   -29.078349    30.394774    43.205498    40.082141 
166272000    266.35763    313.61137    278.56113   -29.237765    30.045415    35.050241    40.081746 
166276000    279.62534    329.43742    300.29235   -29.546802     29.27928    29.145064    40.080684 
166280000    273.62292    310.46454    310.92765   -26.772857    28.595806  -0.46311567     40.08189 
166284000    272.64888    335.67347    285.48172   -28.709577    30.927896    50.191752    40.083546 
166288000    270.43124    318.94585    290.03591   -27.678936    30.272609    28.909946    40.084206 
166292000    272.76103    309.59789    282.55724   -28.227628    30.930857    27.040651    40.085502 
166296000     266.9644    314.28401    268.60749   -28.405518    31.169347    45.676525    40.086062 
166300000    267.47092    309.77709     268.3601   -28.512629    31.719343    41.416985    40.085726 
166304000    271.94963    325.24014    268.56086   -29.623881    30.816614    56.679279    40.086255 
166308000    273.61477    314.82274    285.35177   -28.841659    31.393192    29.470967    40.087022 
166312000    271.08009    294.69346    289.82259   -28.118627    31.450392    4.8708713    40.087471 
166316000    260.07303    313.99716    258.77662   -29.038628    31.874177    55.220534    40.087691 
166320000    286.19483    348.69214      303.552   -30.374153    30.164645     45.14014    40.086914 
166324000    278.33241    326.04736    307.27828   -29.688175    29.429426    18.769079    40.086963 
166328000    286.14803    371.33769    277.65494   -31.413629    30.051026    93.682755    40.087055 
166332000    278.27084    310.01431    281.17289   -29.283457    29.954971    28.841426    40.086285 
166336000    282.13556    339.74578    283.78022   -30.615133    30.476502    55.965561    40.086021 
166340000     281.0366    330.92387    303.00615   -29.959271    29.491643    27.917729    40.085498 
166344000    275.56513    332.27496    265.06483   -30.635136     31.25806    67.210123    40.086751 
166348000    266.30825    290.53211    277.75599   -27.869636    30.915902    12.776122    40.086239 
166352000    276.70492    328.68074    285.45411   -29.730453    30.776202    43.226631    40.085336 
166356000    278.74314    333.66331    288.04291   -31.114295    29.580075    45.620397    40.084774 
166360000    281.54785    316.88087    295.05678   -28.558701    29.391141    21.824086    40.084004 
166364000    277.12787     322.8372    280.38795   -29.584165    30.780596    42.449244    40.084142 
166368000    273.82117    322.88715    286.72798   -30.635325    31.011744    36.159171    40.083273 
166372000    274.92982     293.5218    299.28828   -28.173295    31.396834   -5.7664747     40.08396 
166376000    277.24924    344.55469    272.88776   -31.707703    31.617136    71.666924    40.083751 
166380000    273.22591    316.00205    279.48814   -29.359405    30.738856    36.513908    40.083938 
166384000    273.47018    335.17424    272.36428   -29.057101     29.90469    62.809958    40.083088 
166388000    284.69338      336.399     302.5458   -30.651358    28.594887    33.853196    40.082158 
166392000    268.81167     304.2553    278.65367   -29.068852    30.026224    25.601634    40.082168 
166396000    272.81161    339.59786    270.17379   -29.694851    31.553265     69.42407    40.080379 
166400000    265.32498    292.81309    289.65598   -28.040803    31.280797    3.1571028    40.081026 
166404000    269.85062    331.80952     270.8692   -28.546909    31.890146    60.940319     40.08191 
166408000    272.63361      317.184    304.41127   -28.505953    28.922386    12.772728    40.082068 
166412000    271.58502    361.99148    260.67735   -31.222756    31.744602    101.31412    40.082968 
166416000    275.98341    334.03606    279.37167   -30.633296    30.390597    54.664395    40.083665 
166420000    270.48322     335.3512    261.95809   -30.756653    31.850066    73.393107    40.084692 
166424000    278.01702    338.91562    303.25681   -30.785045    30.627773    35.658803    40.085521 
166428000    270.43188    313.06235    277.02563   -28.653161    30.249576    36.036714    40.083951 
166432000    283.33255    332.07442    306.96308   -29.849024     29.34916     25.11134    40.084057 
166436000    278.37674    322.35755    281.53311    -28.67504    31.663569    40.824444    40.084253 
166440000     279.5375    329.84373    293.28108   -29.967108    29.340918    36.562642    40.084871 
166444000    264.85734     288.3427     294.9638   -27.849041    30.009694   -6.6210956    40.083483 
166448000    276.36965    331.99367    294.99211   -29.753964    30.722762    37.001565    40.083933 
166452000    277.35152    324.87876    278.21364   -29.473162    31.151061    46.665119    40.082978 
166456000    265.88229    300.12945    272.37536    -28.00677    30.937722    27.754094    40.083199 
166460000     274.4124    330.42418    287.27505   -28.409735    29.890833    43.149134    40.082873 
166464000    268.67438    301.65705    297.25267   -28.957862    29.773164    4.4043858    40.081736 
166468000    263.11789    306.47999     280.4153   -27.767546    30.986394    26.064688    40.081657 
166472000    265.28236     309.3809     276.8472   -28.359797    30.789208    32.533704    40.081811 
166476000     270.9137    324.87905    280.99509   -28.653764    31.394366     43.88396    40.082384 
166480000    269.22661     325.1261    283.22818   -28.734277    31.061946    41.897923    40.081475 
166484000    267.09035     301.7538    277.32891   -28.046249    31.360836    24.424896    40.080676 
166488000    274.82252      322.919    297.38175    -29.23933    30.342627    25.537251    40.080005 
166492000    264.21089    325.31245    275.19505   -29.268085    32.445839      50.1174    40.080828 
166496000    271.58275    310.68555    286.61315    -30.02325     30.96833    24.072398    40.080991 
166500000    268.32337    312.24063    268.41099   -27.973569    30.984267     43.82964    40.081374 
166504000    269.36387    316.53968    270.34934   -29.316843    30.940881    46.190338    40.082569 
166508000    275.91447    318.97461    279.04405    -29.97865    30.957666    39.930568    40.083136 
166512000    274.76393    321.06403    279.18052   -29.859651    30.203993    41.883508     40.08231 
166516000    271.96105    312.62484    271.89025   -28.747626    31.440766    40.734591    40.083466 
166520000    270.70451    316.18295    281.03562   -29.367952    30.310649    35.147331     40.08578 
166524000     268.5884    300.70418    276.35538   -27.264979    31.532038    24.348804    40.086278 
166528000    273.85837    299.49901    298.97104   -27.922509    30.614059   0.52797648     40.08636 
166532000    266.32258     314.2621    282.83144   -28.710386    30.649672    31.430657     40.08487 
166536000    271.02023    315.79933    261.27583   -28.819302    30.961859    54.523506    40.084247 
166540000    262.22564    307.47058    263.48366    -28.41944    31.312645    43.986913     40.08469 
166544000    273.41338    312.13385    299.50062   -29.842918    29.964281    12.633231    40.082543 
166548000    266.68111    315.14547    261.53819   -30.490616      32.0746    53.607283    40.082617 
166552000    276.39356    324.02247    288.72208    -30.32398    29.915801    35.300391    40.081975 
166556000     282.1112    326.58828    286.57577   -30.057346    29.960208    40.012518    40.082934 
166560000    277.20339    338.24017    279.38607   -31.066987    31.083894    58.854099    40.083874 
166564000     273.2918    326.83484    266.07656   -30.739268    32.083081    60.758277    40.083438 
166568000     266.0642    321.83608    274.81045   -31.066964    32.274905    47.025637    40.083578 
166572000    267.11982    310.83109     279.7846   -31.299101    31.760823    31.046494     40.08512 
166576000    279.04312    342.29775    273.74054   -30.975918    32.106273    68.557201    40.086051 
166580000    269.63911    316.03556    280.56142   -30.138637    30.335264    35.474133    40.084958 
166584000    272.64831    334.54287    284.42845   -31.230806    31.150355    50.114422    40.085508 
166588000    271.89503    321.76236    290.99716    -30.64846    31.543927    30.765204    40.087346 
166592000    281.40657    337.63838    288.19559   -31.126688     31.09414     49.44279     40.08681 
166596000     271.3891    318.82206    273.30831   -31.041456    31.418746    45.513751    40.087398 
166600000    274.39201    319.47701    296.29119   -31.552631    30.025595    23.185819     40.08668 
166604000    266.86133    306.05398     283.6099   -29.369817    31.654786    22.444084    40.085787 
166608000    278.23134     343.6158    275.14086   -31.293077    31.672645    68.474934    40.085826 
166612000    277.19399    315.47715    291.96425   -30.341576     31.94124    23.512898    40.086216 
166616000    263.93095    309.65793    282.60982   -30.852329    32.391955    27.048105    40.085108 
166620000    268.36947    323.61058    276.12707   -30.442995      31.6362    47.483516    40.086568 
166624000    278.66762    335.35455     278.8696   -31.805618    32.138706    56.484949    40.086687 
166628000    274.47731    308.01972    302.26139   -29.544877    31.797002     5.758339    40.085989 
166632000    283.16103    366.94745    285.06011   -32.412562    32.040151    81.887344    40.086045 
166636000    269.38289    302.16524    285.72264   -29.840438    32.514057    16.442598    40.086724 
166640000    278.94902    321.80729    290.85823   -31.379667    31.586408     30.94906    40.087349 
166644000    280.17633    350.19966    281.01512   -31.654065    31.135607    69.184547    40.087461 
166648000     278.1858     317.3924     310.9242   -30.853273    30.799943    6.4682036    40.086936 
166652000    280.22271    323.97407    297.07262   -30.940435    30.271688    26.901453    40.087192 
166656000    263.08568    306.07077    267.66896   -29.990279    30.788608    38.401812    40.087371 
166660000     274.6918    314.29071      279.337   -29.399481    30.627086    34.953712    40.087267 
166664000    272.23019     302.8912    299.01312   -30.904674    30.614437    3.8780827    40.087479 
166668000    280.20591     348.7416    279.32962   -31.755474    31.640701    69.411983    40.087565 
166672000    274.97634     335.6274    276.29069   -30.593636     31.38372    59.336706    40.087647 
166676000    266.29928    314.67233    267.84036    -30.04643    31.471985    46.831973    40.086886 
166680000    269.22054    294.06859    288.82375   -29.796823    31.867272    5.2448445    40.087186 
166684000    282.74604    361.49974    273.02736   -33.269517     32.62146     88.47238    40.086975 
166688000    278.12784    340.08661    271.61736    -32.19618    33.127101    68.469246     40.08791 
166692000    272.54406     328.7495    274.61058   -32.136567    31.584921     54.13892     40.08633 
166696000    276.01779    305.53663    288.76485   -31.028462    30.522452    16.771779    40.087335 
166700000    275.90386    340.93037    280.11368   -32.108256    30.831425    60.816687    40.087921 
166704000    265.95821    318.70416    266.77473   -30.619749    31.654822    51.929427    40.087775 
166708000    269.38808    312.45523    291.75301   -29.491632    30.851582     20.70222    40.085774 
166712000     275.2072    315.23898    294.96187   -29.634187    30.519017    20.277112    40.085273 
166716000    272.42797    314.43794    288.30474   -29.479236    30.595683    26.133197    40.087128 
166720000    282.54505    329.73332    285.62731   -30.622114    30.359613    44.106012    40.087292 
166724000    273.25778    304.82481    274.62148    -30.32787    31.083379     30.20333     40.08762 
166728000    262.86985    304.62601    276.67628   -29.459237    31.180029    27.949726    40.088243 
166732000    265.62656    310.86978    262.38529   -29.285511    33.378694    48.484492     40.08778 
166736000    268.39685     314.9834    285.52374   -29.758503    31.739832    29.459655    40.086857 
166740000    277.53551    331.22791    292.84292   -30.032479    30.183136    38.384986    40.086905 
166744000    275.55701    345.02322    269.79977   -30.448662    32.536106    75.223445    40.088144 
166748000    269.43109    303.24116    282.27729   -29.595789    31.261526     20.96387    40.087864 
166752000    264.19564    298.71991    266.88675   -29.171727    31.745372    31.833155    40.087679 
166756000    274.42989    312.13175    289.91854   -30.857873    31.442436    22.213209    40.088506 
166760000    262.61274    278.88992    280.29281   -27.833897    31.279395   -1.4028929    40.087476 
166764000    274.31492     335.2555    267.92106   -30.159105    31.398602    67.334441    40.087922 
166768000    272.70031    310.87519    276.06074   -29.221609    31.370169    34.814451    40.087229 
166772000    270.13571    317.16833    281.49568   -30.923543    30.434597    35.672647    40.086211 
166776000    270.52713    315.31484    266.76196   -29.609995    31.722229    48.552886    40.085399 
166780000    270.82724    316.56886    284.98262   -29.640115     30.95833    31.586239    40.085472 
166784000    282.41163    319.90374    289.84461   -30.268666     30.69586    30.059121    40.084815 
166788000    274.75855    309.78349    276.17507   -31.325192    30.759148    33.608415    40.084918 
166792000    280.68737    324.15464    269.79737   -30.591834    31.624542    54.357264    40.086068 
166796000    275.24883    306.77515    285.85756   -31.191332    30.078754    20.917589     40.08409 
166800000    276.15568    314.82328    283.95167   -30.571608    30.691779    30.871611    40.083182 
166804000    263.95799    309.33117    281.00822   -29.231513    30.121797    28.322951    40.082834 
166808000    281.17253     334.1412    282.08882   -31.150603    30.572617    52.052377    40.082302 
166812000      270.836    314.87003    275.48419   -29.957073    30.283966    39.385841    40.083303 
166816000    275.64065    315.46441    272.96104   -31.654779    31.911507    42.503372    40.082854 
166820000    279.66532    323.81356    304.41482   -31.697272    30.944945    19.398743    40.083103 
166824000    293.01746    348.11507    287.08373   -33.775129    31.156831    61.031343     40.08206 
166828000    292.61686    378.83113    290.05535   -34.713995     32.12434    88.775781     40.08182 
166832000    289.14218    337.12082    302.80795    -33.02996    31.089425    34.312873    40.082525 
166836000    276.44198    327.94129    278.67909   -31.707501    32.126525    49.262207    40.081785 
166840000    271.11773    313.09755    279.34253   -32.256191    31.592128    33.755018    40.080695 
166844000    276.83042      340.112    274.86816   -33.672693    31.059478    65.243844    40.080492 
166848000    267.62591     304.7666    282.42361   -30.956218    31.703265    22.342994    40.080205 
166852000    276.53582    330.37537    266.86229   -33.328202    33.058092    63.513079    40.078837 
166856000    275.56385    322.74808    281.46126   -31.760419    32.335224    41.286819    40.079296 
166860000    277.96935    322.51176    297.79656   -32.079419    31.503837      24.7152    40.079831 
166864000    274.06674     335.8883    272.86931   -31.077537    33.012703    63.018984    40.079213 
166868000    279.70767     317.9211    287.22276   -30.638021    33.225627    30.698338    40.078697 
166872000    277.43545    332.74185    277.60167   -31.571299    32.541779    55.140177    40.078821 
166876000    280.60581    342.64437    277.74202   -32.193276     32.63727    64.902343    40.078788 
166880000     274.3705    304.07705    296.44873   -30.398186    31.586795    7.6283193    40.078681 
166884000    264.16107    312.75139    258.33118   -31.091776    34.228392    54.420207    40.080674 
166888000    265.67132     307.2808    258.64772   -29.869663    33.747451    48.633079    40.080311 
166892000    276.16124     310.2884    286.39764   -30.844098    32.542119    23.890752    40.080084 
166896000    277.16703    332.26722    284.90957   -31.293787    32.255732    47.357653    40.079285 
166900000    273.05071    319.84852    269.41784   -30.246394    33.062687    50.430684    40.080439 
166904000    276.06087     326.1933    281.71324    -31.87652    32.618359     44.48006    40.080352 
166908000    279.78443    321.92214    290.13737   -31.293203     32.24785     31.78477    40.081485 
166912000    273.30592    312.98548    300.05238   -30.047984    31.618223    12.933096    40.080026 
166916000    272.19441    323.93615    279.07573   -30.924441    32.483222    44.860421    40.079266 
166920000    264.40648    299.78054     265.6216    -29.89286    33.403603    34.158947    40.079537 
166924000    266.89249    297.95817    283.88508    -29.71855    33.088318    14.073093    40.079987 
166928000    270.15198    306.38407    287.80966   -30.244272    32.247208    18.574406    40.079313 
166932000    270.00228    313.89819    288.13529   -30.775656    32.076572    25.762902    40.079905 
166936000    268.96299    328.83076    259.41705   -31.850222    33.091587    69.413712    40.080128 
166940000    274.32296    325.27662    284.53922   -31.713661    31.824019      40.7374    40.079732 
166944000    280.83624     334.5344    282.74998   -31.941972    32.008666    51.784414    40.078673 
166948000    274.45665    309.43826    291.91491   -31.692025    31.034759    17.523347     40.07773 
166952000    270.03535    312.59753    273.07322   -31.240458    33.035839    39.524302    40.076977 
166956000    279.61261    338.47289    284.18775   -32.122206    32.266123     54.28514    40.076593 
166960000    275.02702    317.67715    284.10946   -31.503494    32.235292    33.567682    40.076639 
166964000    265.60494    308.56607    253.65111   -32.036916    34.150378    54.914959    40.077318 
166968000    277.07083     330.2392    277.50045   -32.763043    32.700717    52.738755    40.077489 
166972000     271.5454    316.22114    283.04831   -32.079956    32.674162    33.172829    40.077928 
166976000    276.48165    312.15826      293.087   -32.646474    30.727182    19.071259    40.078507 
166980000     268.0217    303.39375    277.98252   -31.549404    32.303814    25.411237    40.077407 
166984000    272.83479    318.27328    281.40702   -32.358872    31.954058    36.866256    40.077631 
166988000    284.84479     326.8627    307.46433   -32.998537    30.563643    19.398363    40.078481 
166992000    271.90362    317.03655     272.0688   -32.707076    32.189012    44.967748    40.079031 
166996000    273.43273    314.22786    274.59972    -31.61917    31.747731    39.628133    40.078452 
167000000    285.21138    324.10543      297.356   -32.513393    31.419999    26.749433    40.079162 
167004000    281.57342    344.23101    290.35394    -33.51165    31.315151    53.877078     40.07959 
167008000    281.90374    305.52489    300.64749   -30.638578    31.554223     4.877402    40.080301 
167012000    270.07754    320.66137    263.54111   -32.969554    33.851764    57.120258    40.078722 
167016000    278.18857    326.11269    291.26284   -33.209042    31.040121    34.849851    40.078218 
167020000     273.3486    321.90876    271.20843   -32.809411    31.768879    50.700327    40.078099 
167024000    281.69112    312.95752    277.78216   -32.550644    31.959534    35.175358    40.077932 
167028000    279.68461     311.3073    276.64172   -32.618419    31.216722    34.665577    40.076264 
167032000    276.61343    319.92679    272.90352   -32.966556    32.654013    47.023276    40.076674 
167036000    275.32465    321.69224    265.02572   -32.338039    32.864156    56.666517    40.076808 
167040000    277.64864    321.32168    280.86318   -32.491019    30.438778      40.4585    40.077001 
167044000    281.07961    334.57175    294.81244   -33.841421    30.485779    39.759307    40.077573 
167048000    281.36406    298.92773    298.30378   -31.549816    31.446358   0.62395494    40.075793 
167052000    281.05241    314.97017    278.16019   -33.648177    32.476997    36.809981    40.075251 
167056000    279.55933    330.21796    266.84316   -33.079991    33.890948    63.374801    40.073985 
167060000    277.96293    314.61846    279.88002   -32.399056    32.536254    34.738443    40.074156 
167064000    270.35447    332.01669    269.08662   -33.982475    32.198271    62.930072     40.07399 
167068000    277.18603    300.25734    288.53632     -33.8207    33.310648    11.721019    40.074009 
167072000    275.72445    292.93433    286.05484   -30.806805    32.244202    6.8794936     40.07462 
167076000    279.78362    322.75998    274.81728    -33.09382    32.211745    47.942702    40.074322 
167080000    272.34297    321.69274     261.5844     -32.5067    32.813027     60.10834    40.074712 
167084000    287.45299    331.61976    284.95963   -32.393321     32.48071    46.660131    40.073529 
167088000    265.72156    294.32202    269.14556   -31.645501    31.952111    25.176458    40.073889 
167092000    287.16015    320.49033    314.85625   -33.352894    30.337724    5.6340878    40.073721 
167096000     276.5744    300.51963    293.63393   -32.552907    31.513253    6.8856949    40.073947 
167100000    277.13592    310.33895    279.74757   -31.220381     32.77427    30.591373    40.075478 
167104000    280.79374     327.8825    279.08388   -33.206645    32.270515    48.798619    40.074242 
167108000    278.93239    310.60094     282.3959   -33.306956    30.751395    28.205045    40.075986 
167112000    276.36436    301.26373     281.3924   -32.480945    32.113819    19.871332    40.076165 
167116000    280.01884    335.94232    289.04738   -34.371141    31.062034    46.894943    40.075847 
167120000     275.3326    316.06188    271.90598   -32.377438    32.404494    44.155898    40.075206 
167124000    277.06586    317.35064     286.1861   -32.451533    32.077416    31.164536    40.075552 
167128000    277.56157    333.85919     272.1774   -33.392829    31.793104    61.681797    40.074078 
167132000    278.57139    324.14197    273.63136   -34.393785    32.794519    50.510602    40.075257 
167136000    272.77608     311.3343    275.10679   -31.461696    32.908738    36.227504    40.076045 
167140000    261.64537    313.30403     261.7189   -32.141613    32.978608    51.585123    40.075408 
167144000    270.52061    303.09702    291.61619   -33.198449    31.733885    11.480833    40.073599 
167148000    276.43413    326.87338     293.0756   -34.770154    31.926484    33.797774    40.074808 
167152000    280.91218    331.30099    286.23007   -34.093567    31.319776    45.070919    40.074749 
167156000     280.0188    316.33778    281.70742   -32.822498    31.388893    34.630362    40.075465 
167160000    271.60276    312.64001    267.45838   -33.219117    32.565524    45.181632    40.075436 
167164000    277.62059    306.80228    272.50859   -33.333658    32.020792    34.293689    40.075553 
167168000      278.718    308.91787    287.97109   -32.452761    31.253899    20.946781    40.075823 
167172000    282.46475    310.98723    297.69372    -32.66383    30.715494    13.293514    40.076321 
167176000    275.72307    322.32206    274.03781   -33.636862    32.622351    48.284253    40.076685 
167180000    277.97417    323.89095    283.92131   -33.611277    32.131982    39.969643    40.076083 
167184000     283.2209    322.52821    289.62914   -33.207905    32.494614    32.899075    40.076276 
167188000    275.60184    333.48135    283.09657   -33.441148    32.982595    50.384787    40.075875 
167192000    267.64146    297.82124    269.63621   -32.238896    32.512886    28.185033    40.075601 
167196000    273.07036     323.2272    262.86767     -33.0257    33.018609    60.359529    40.075771 
167200000    278.53982    346.22873    269.48257   -33.503817     33.43007     76.74616    40.076913 
167204000    275.42047    330.12148    279.93808   -33.182179    32.264662    50.183394    40.077037 
167208000    278.99569    303.61331      297.948   -32.458392    31.403554    5.6653054    40.076811 
167212000     282.5761    334.49935     289.8959   -34.778644    32.470486    44.603455    40.076678 
167216000    277.80165    316.67646    284.56462   -32.862792    32.091638    32.111835     40.07636 
167220000    281.05792    313.47711    281.96876   -32.393428    32.201545    31.508359    40.076663 
167224000    274.04245    295.72404    275.14113    -31.51438    32.980219    20.582909    40.076375 
167228000    287.62937    343.43615    285.82105   -32.979087    31.738743    57.615103    40.076566 
167232000    278.41658      307.577    294.64672   -30.869889    32.240198    12.930274     40.07638 
167236000    269.36738    302.58015    275.39914   -31.032207    32.791109    27.181007    40.076414 
167240000    277.32864    322.13452    267.40053   -31.919666    33.217869    54.733994    40.076764 
167244000    288.11839     346.8581    283.16828   -34.155671      32.8385    63.689819    40.077589 
167248000    283.80675    331.29585    276.39845   -32.878815    33.156718    54.897404    40.077133 
167252000    273.05363    302.18885    273.91542   -32.201959    32.937564    28.273424    40.076483 
167256000    272.35998     326.1904    261.05948   -33.847025    34.567642    65.130917    40.077085 
167260000    268.37034    297.58589    278.21782   -31.910136     32.86501    19.368073    40.076423 
167264000    267.64132    316.80417    270.70136   -33.990423    32.820503    46.102811    40.079034 
167268000    270.14406    290.92084    286.06034   -31.248253    32.225103    4.8604983    40.079606 
167272000    268.43434    305.63446    277.04635   -32.303723    32.451821    28.588109    40.078237 
167276000     287.8341    331.57031    307.08333   -34.011798    31.715599    24.486983    40.077054 
167280000    277.83686    327.77123    277.21212   -33.464301    32.671719    50.559111    40.077074 
167284000    271.27936    321.01652    272.24334   -32.746833    32.754621     48.77318    40.077814 
167288000    275.74947    302.36452    288.97326    -32.38699    31.872736    13.391256     40.07654 
167292000    274.45015    311.86939    289.05825   -32.364574     31.68132     22.81114    40.076202 
167296000    272.72248    314.83775    276.26524   -33.223544    31.095122    38.572506    40.075976 
167300000    275.96375    326.00177    293.70473   -32.402914    31.575611    32.297035    40.075484 
167304000    272.02492    306.70482    286.50159   -31.952913    32.785652    20.203233    40.076242 
167308000    294.19237    345.64698    301.93087    -33.47258    31.938531    43.716117    40.076415 
167312000    273.16138    294.57275    285.25497   -32.121725    32.321823    9.3177856    40.075344 
167316000     270.8408    298.62893    283.09936   -31.396661    32.601895    15.529572    40.075613 
167320000    281.73453    320.11542    279.75224   -33.265326     33.11537    40.363176    40.074515 
167324000    270.38641    290.71002    277.85223   -32.486732    32.910714     12.85779     40.07456 
167328000    277.93646    314.67231     275.4997   -33.344927    32.974351    39.172606    40.073861 
167332000    275.65712    348.01276    262.94534   -35.342164    33.126758    85.067413    40.074046 
167336000    276.02335    314.02042    278.88212   -34.224738    33.106485    35.138293    40.074416 
167340000    274.80802    316.16331    284.31457   -32.661579    32.486067    31.848734    40.073599 
167344000    275.36596    311.07063    280.00625   -33.242014    33.255447    31.064381    40.073122 
167348000    283.45931     337.2027    293.38097   -33.756279    32.161092    43.821738    40.072753 
167352000    278.61785    307.25185     274.7216   -34.054078    32.755338    32.530255    40.073397 
167356000    277.96292    320.91252    272.43513   -34.143177    32.172099    48.477391    40.074012 
167360000    276.87595    314.56411    274.55874   -34.878417    33.071895    40.005377    40.074156 
167364000     276.1742    305.97273    264.84054   -33.855332    34.059314    41.132192    40.073549 
167368000    275.43263    309.26203    269.38289   -32.657624    34.362813    39.879139    40.073602 
167372000    286.27648    332.49238    296.17586    -34.55206    32.201541    36.316526    40.072835 
167376000    275.68406    322.87189    284.61165   -32.740097    31.794452     38.26024    40.071532 
167380000     268.1903    299.42781    272.53395   -31.215882    33.257083    26.893856    40.071738 
167384000     283.2859    341.60586    288.02756     -33.6778     32.30128    53.578294    40.071373 
167388000    275.61685    312.49773    295.43124   -32.223666    32.474622    17.066487     40.07111 
167392000     273.1643    315.26888    278.38037    -33.27601    32.687825    36.888512    40.071883 
167396000    280.45175    336.52161    283.02255   -34.428937    32.139838    53.499061    40.072308 
167400000     275.8421    320.62217     271.4026   -33.150341    33.099414    49.219563     40.07259 
167404000    276.64823    294.68102    303.47346   -31.425134    31.675784   -8.7924406    40.072516 
167408000    279.54223    324.00455    268.40802   -33.513688    32.952627    55.596538    40.073006 
167412000    281.92666    322.91637    271.97941   -33.953241    32.926742    50.936964    40.072862 
167416000    277.27084     313.9145    287.94608   -33.496464    33.062764    25.968419     40.07226 
167420000    274.51193     310.0189    272.08816   -33.798728    32.806939    37.930736    40.072252 
167424000    279.47888    332.63335    278.18006   -34.431165    32.348576    54.453287    40.073004 
167428000    277.35469     338.6448    276.90832   -34.497565    33.557696    61.736481    40.072452 
167432000    273.43062    302.91922    278.06457   -33.400487    33.622916    24.854649    40.072027 
167436000    282.93717     316.9058    295.66144   -34.633797    32.416354    21.244351    40.070566 
167440000    271.00358    301.41889    276.75898   -33.276177    32.924495     24.65991    40.070963 
167444000    288.49729    335.78013    298.14685   -35.356389    32.173252    37.633282    40.071739 
167448000    275.44376    345.67797    268.39281   -36.280384    33.750644     77.28516     40.07174 
167452000    274.83774    302.61643    265.38864   -33.339666     33.96285    37.227789    40.072249 
167456000    284.59142    329.38256    295.80688   -34.402824     32.30848    33.575677    40.072026 
167460000    269.32707    300.48995    274.34495   -32.388421    32.397422    26.145003    40.071027 
167464000    282.15284    295.10129    311.82315   -32.551532    30.320586   -16.721856    40.071384 
167468000    274.29005    324.38396    269.67705   -34.348357    32.780395    54.706906    40.069362 
167472000    283.56854    328.56611    279.77441   -33.324573    33.397657    48.791706    40.069133 
167476000    285.81037    339.69725     283.8769   -32.942257    32.104747    55.820352    40.068909 
167480000    280.25177    337.47193    265.66393   -33.651829     32.57369    71.807995     40.07006 
167484000    270.70379    317.57602    278.32817   -32.395591    31.616633    39.247853     40.07032 
167488000    276.88692    330.02423    276.41798   -34.452776    33.187235    53.606253       40.071 
167492000    284.01035    352.66233     288.3404   -35.133111    32.575952     64.32193    40.071952 
167496000    275.43833     319.5581    268.34074   -34.592266    32.815492    51.217362    40.072977 
167500000    278.32455    330.15617     261.4646   -34.072074    33.173859    68.691566    40.073017 
167504000    268.24521    312.09245    262.26337     -32.6797    33.813116    49.829074    40.073346 
167508000      279.415    334.91417    276.67024   -34.645521    33.115113    58.243931    40.074618 
167512000    274.73941    297.73361    287.34259   -32.375586    31.324371    10.391015    40.074584 
167516000    269.53892    294.99517    277.17228   -33.173267    32.630514    17.822898     40.07487 
167520000    288.22958    331.38743     321.9873   -35.117359    31.446884    9.4001283    40.074374 
167524000    280.74345    319.78054    281.24655   -35.086236    33.504083    38.533988    40.074892 
167528000    281.29852    360.46497    263.83224   -35.084861    33.258116     96.63273    40.074631 
167532000    281.15334    332.06617    271.99449    -34.45873    33.963189    60.071676    40.075378 
167536000    281.51038    344.01644    294.08776    -34.66112    33.251778    49.928682    40.075096 
167540000    276.14218    324.78678     274.8652   -34.681976    33.869625     49.92158    40.075755 
167544000     278.5261    315.34427    293.23439   -34.416228    32.927157    22.109885    40.075238 
167548000    268.70351    321.20104    274.64773   -32.191408    33.364791    46.553314    40.075405 
167552000    267.76516    319.59071     283.5062   -32.990073    32.674389    36.084509    40.075102 
167556000    281.96591     328.8536    296.40695   -33.483569    32.137045    32.446651    40.074569 
167560000    279.66168    323.09994    292.04432   -32.826738    32.793348    31.055617    40.074298 
167564000    279.76357    332.37961    288.20194   -31.652576    33.053489    44.177674    40.075047 
167568000    277.89466    302.05002    297.20626   -31.942048     32.17536    4.8437659    40.074838 
167572000    273.90755    316.24639    282.97657   -32.022296    34.723938    33.269825    40.074107 
167576000    269.65313    315.74142     268.1157   -32.897437    34.332526    47.625723    40.074969 
167580000    277.98445    320.19858    292.74272   -32.094101    33.534954     27.45586    40.074946 
167584000    260.61595    312.70449    260.57894   -32.660157    34.869298    52.125557     40.07524 
167588000    271.73278    303.80102    288.18498   -32.489094    32.786217    15.616031    40.074719 
167592000    276.62959    311.24322    281.96033   -33.354398    32.151476    29.282886    40.074811 
167596000    274.02581    314.67817    278.45082   -34.443645     32.66049    36.227346    40.074214 
167600000    274.07763    309.02357    295.54497   -31.889137     31.75116      13.4786    40.073731 
167604000    273.33743    295.34707     261.7695   -32.525596     33.22159    33.577571    40.074868 
167608000    280.98746    317.32688    284.88303   -33.440501    32.310259     32.44385    40.076157 
167612000     279.4758    314.40196    292.61135   -32.840719    33.700351     21.79061    40.076264 
167616000    276.39051    296.03977    300.47095    -33.71077    32.172528   -4.4311788    40.074284 
167620000    283.78231    324.49896    299.36836   -33.751698    32.021106    25.130601    40.075299 
167624000    284.52646    317.22655    298.29175   -32.725603    31.524943    18.934803    40.075635 
167628000    282.17302    336.97089    279.96229   -34.560618    33.664034    57.008596    40.076212 
167632000    273.15135    310.12939    277.83054    -34.66881    34.539438    32.298847    40.074863 
167636000    275.95748    350.80013    266.43074   -34.716449    34.371114    84.369385    40.073996 
167640000    273.04054     315.2661    268.33745   -32.863348    34.419096    46.928645    40.073808 
167644000    270.63185    301.13669    266.18093   -31.747912    35.190646    34.955753    40.074752 
167648000     267.4441    315.58115    266.77717   -32.708002     33.92485    48.803977    40.073966 
167652000    271.03645    305.21622    279.12397   -33.251191    33.482996    26.092249    40.073608 
167656000    273.70696    310.94633    304.13436   -33.040751    31.030035    6.8119696    40.072986 
167660000    278.54445    325.50216    288.35077   -33.636586    32.936108    37.151387     40.07413 
167664000     273.7804    323.83708    270.45337   -32.488726     33.69213    53.383711    40.074371 
167668000    275.78796    323.67335    292.49976   -32.169629    32.255652    31.173598     40.07428 
167672000    279.30802    308.25176    298.25592   -31.687333    32.392354     9.995841    40.073109 
167676000    276.73181    311.29988    299.42848   -31.416672      32.7511    11.871406    40.073334 
167680000    272.39479    336.37581    278.31718   -33.235571    31.983792     58.05863    40.073169 
167684000    263.70867    287.79583    277.67665    -30.92814    32.858643     10.11918    40.073342 
167688000    274.99205    328.12703    274.72747   -32.017885    33.515277    53.399563    40.072097 
167692000    274.08274     332.9562    289.98129   -31.979961    32.112864    42.974904    40.072438 
167696000     274.5828    322.78049    289.83038   -32.437005    32.386583    32.950112    40.071611 
167700000    275.50733    304.55254    296.69357   -30.704272    32.715528    7.8589706      40.0725 
167704000    277.63736    331.83374    292.96446   -31.946725    33.811158    38.869277    40.073438 
167708000    269.57877     326.6444    257.16134   -32.017189    34.084106    69.483059    40.073091 
167712000    278.86258    332.99233    290.59382   -32.535792    31.983562    42.398509    40.072065 
167716000    272.37515    305.83865    300.88998   -31.361095    32.896719    4.9486697    40.072111 
167720000    278.69417    322.88012    277.11001   -32.574011    33.008976    45.770108    40.071682 
167724000     276.8083    320.10814     297.1442   -32.271523    31.984931    22.963947    40.071291 
167728000    277.14167    317.22669    279.82527   -31.947518    31.953837    37.401425    40.071193 
167732000    272.46688    308.44645    272.15907   -31.369545    32.222733    36.287386    40.070899 
167736000    280.92581    346.09065    276.85429   -33.783285    32.695695    69.236356    40.070228 
167740000    270.10612    321.52379    271.60443   -32.101676    32.229004    49.919358    40.069568 
167744000    263.39848    297.56082       288.27   -30.621311    32.162775    9.2908218    40.070036 
167748000    269.31698    310.59517      270.134   -32.401932    33.852799    40.461168    40.069931 
167752000    274.78638    329.39501    281.92174   -31.861211    32.557942    47.473276    40.068607 
167756000    270.77631    324.62573    273.17535   -31.797645    33.047283    51.450382    40.069136 
167760000     264.8385    298.07238    283.70458    -30.82341    32.796585    14.367801    40.070075 
167764000    281.52319    328.97923    290.41017   -30.928249    32.272815    38.569053    40.069662 
167768000    272.48295    327.45406    278.35269   -32.054665    32.801858    49.101364    40.068945 
167772000    279.06764    344.59956    282.80992    -33.97064    31.974756    61.789644    40.067928 
167776000    265.32032    316.89639    273.47239   -32.577235     31.50792    43.423997    40.068686 
167780000    275.93316    313.81696    288.53798   -32.138093    32.357737    25.278976    40.068407 
167784000    283.47582    332.09731    307.00256   -32.160225    30.420771    25.094747    40.068421 
167788000    285.67928    348.32328    282.88905   -33.054713    31.916697    65.434235    40.067321 
167792000    269.94544    311.00968    271.30129   -30.618857    33.081746    39.708383    40.068021 
167796000    267.89571    315.74294    283.50973   -30.428193    31.029375     32.23321    40.068808 
167800000    279.00484    324.98217    276.21083   -32.082465    30.563488     48.77134    40.069426 
167804000    268.61257    310.38647    273.98631   -32.588346    32.923757    36.400155     40.07033 
167808000    275.02076    316.92503    263.51157   -31.408716    33.537992    53.413454    40.070479 
167812000    274.69914    340.62099    265.55408   -32.582553    33.154243    75.066908    40.071437 
167816000    283.10878    330.24217    282.31947   -31.080579    32.483702    47.922701    40.070814 
167820000    277.75947    307.14405     301.8132   -31.707805    31.682697    5.3308507    40.070031 
167824000    281.40038     332.1945    291.28187   -33.843182    32.833617    40.912628    40.069684 
167828000    273.06387    311.61709    265.52043    -32.57965    33.835455    46.096653    40.068828 
167832000    272.83896    331.84154    264.20974   -34.240131    33.825944    67.631804     40.06867 
167836000    272.12872    329.64881    263.49234   -33.932866    34.869448    66.156473    40.068075 
167840000    282.03661    354.23613    273.17162    -34.84618    33.876658     81.06451    40.069574 
167844000    272.95567    346.45612     253.7092   -34.370637    35.079867    92.746925     40.06869 
167848000    286.20044    318.02661    298.67266       -33.89    32.271015    19.353953    40.068271 
167852000    287.85384    340.06784    292.24931   -33.537673    32.945893    47.818528    40.068976 
167856000    273.97274     316.6754    273.76959   -32.300544    33.436634    42.905808    40.069506 
167860000    277.61569    335.01618    264.96827   -35.514693    34.026814    70.047906    40.070445 
167864000    273.90214    336.89486    274.57339   -34.786246    33.583385    62.321472    40.071684 
167868000    271.75007    307.39181    275.44063   -33.594059    33.316388     31.95118    40.070779 
167872000    267.46135    309.17869    271.74717   -33.175047       34.028    37.431521     40.07067 
167876000    277.23925    337.36078    286.46175   -34.217217    33.622779    50.899027    40.070966 
167880000    281.45949    355.36646    267.69768   -34.307699     34.63218    87.668783    40.071423 
167884000    275.56993    313.57401     277.5714   -32.582559    32.406237    36.002607    40.070918 
167888000    273.70867     319.6634    284.42197   -32.108321    32.391253    35.241428    40.071145 
167892000    269.35765    295.43724    259.19902   -31.757232    33.243827    36.238225    40.070182 
167896000    274.95359    333.01105    285.71727   -34.229695    32.578405    47.293784    40.070059 
167900000    284.44048    337.75486    274.55724   -34.823199    31.692423    63.197624    40.068953 
167904000    283.22613    331.71455    290.28127   -33.712337    31.436391    41.433285    40.068542 
167908000    276.27657    314.23333    284.04665   -32.273796    33.434978    30.186677    40.069166 
167912000    276.86351    327.26184    264.12465   -33.019801    33.410188    63.137186    40.069762 
167916000    282.52585    322.97978    294.45105   -33.661397    31.454275    28.528733    40.070748 
167920000    276.47694    327.60805    279.92444   -34.192979    32.724804     47.68361    40.069609 
167924000    288.08537    330.87552    296.49605   -34.484071    33.374632    34.379469    40.068474 
167928000    274.89037    314.17691    277.22676   -33.403303    33.582931    36.950143    40.069038 
167932000    285.08733    331.55909    274.82054   -35.309123     33.50249    56.738544    40.068336 
167936000    290.49325    351.65483    274.40493   -34.616586    33.644453    77.249899    40.067743 
167940000    271.43059    308.46976    270.87789   -34.141256     32.84646    37.591874    40.066706 
167944000    274.61707    316.90026    275.51772   -34.061224    32.851021    41.382544    40.066624 
167948000     283.1305    335.24725    277.66215   -34.958718     32.38503     57.58509    40.065333 
167952000    282.77632    356.29759    279.10197   -36.181997    32.267827    77.195621    40.064955 
167956000    281.88814    321.05634    273.33937   -34.488934    32.277553    47.716972    40.064209 
167960000    283.55559    343.10853    290.82832   -36.507463    32.416622    52.280212    40.064684 
167964000    288.62414    349.74222    273.69323   -34.836185     32.85393    76.048992    40.064582 
167968000    275.02661    292.22534    286.88876   -32.570154    33.416149    5.3365727    40.063956 
167972000    277.44506    331.74027    252.71616   -33.885713    33.390903    79.024112    40.064573 
167976000    289.00011    353.27533    285.81193   -34.494785    32.348917    67.463403     40.06421 
167980000    276.71202    313.50473    277.62574   -33.414349    32.592595    35.878986    40.064918 
167984000    270.12397    344.37479    256.52083   -33.600875    33.484162    87.853966    40.065124 
167988000    277.77752    330.67753    274.36825   -33.482791    32.824296     56.30928    40.065657 
167992000    281.63633    330.28106    291.90905   -33.026693    31.268433    38.372012    40.064538 
167996000    266.97351    301.81918    257.47932    -31.28073    32.802097    44.339856    40.064384 
168000000    281.01237    330.44676    277.19953   -33.275572    33.007958    53.247229    40.064593 
168001000    277.93084    324.81012    276.46661   -32.605522    33.826463    48.343515    40.064593 
Loop time of 21924.4 on 4 procs for 16000000 steps with 1498 atoms

Performance: 15.763 ns/day, 1.523 hours/ns, 729.781 timesteps/s
99.7% CPU use with 4 MPI tasks x no OpenMP threads

MPI task timing breakdown:
Section |  min time  |  avg time  |  max time  |%varavg| %total
---------------------------------------------------------------
Pair    | 10945      | 15145      | 19433      |3351.5 | 69.08
Bond    | 67.325     | 105.72     | 141.99     | 352.2 |  0.48
Neigh   | 121.42     | 121.48     | 121.51     |   0.3 |  0.55
Comm    | 288.03     | 4345.7     | 8462.1     |6128.4 | 19.82
Output  | 7.9983     | 8.0363     | 8.149      |   2.3 |  0.04
Modify  | 1171.9     | 1685.7     | 2230.1     | 969.6 |  7.69
Other   |            | 512.7      |            |       |  2.34

Nlocal:    374.5 ave 714 max 35 min
Histogram: 2 0 0 0 0 0 0 0 0 2
Nghost:    2370 ave 4245 max 496 min
Histogram: 2 0 0 0 0 0 0 0 0 2
Neighs:    13115 ave 25954 max 315 min
Histogram: 2 0 0 0 0 0 0 0 0 2

Total # of neighbors = 52460
Ave neighs/atom = 35.02
Ave special neighs/atom = 0.518024
Neighbor list builds = 28803
Dangerous builds = 0

write_restart FINALCONFIG
WARNING: Using a manybody potential with bonds/angles/dihedrals and special_bond exclusions (../pair.cpp:218)
Neighbor list info ...
  update every 1 steps, delay 0 steps, check yes
  max neighbors/atom: 2000, page size: 100000
  master list distance cutoff = 16
  ghost atom cutoff = 16
  binsize = 8, bins = 3 3 23
  4 neighbor lists, perpetual/occasional/extra = 4 0 0
  (1) pair lj/cut, perpetual, skip from (4)
      attributes: half, newton on
      pair build: skip
      stencil: none
      bin: none
  (2) pair morse, perpetual, skip from (4)
      attributes: half, newton on
      pair build: skip
      stencil: none
      bin: none
  (3) pair eam, perpetual, skip from (4)
      attributes: half, newton on
      pair build: skip
      stencil: none
      bin: none
  (4) neighbor class addition, perpetual
      attributes: half, newton on
      pair build: half/bin/newton
      stencil: half/bin/3d/newton
      bin: standard

#and everyone lived happily ever after, THE END
Total wall time: 6:23:02
