LAMMPS (16 Mar 2018)
#lammps script for united atom polymer simulation (full-scale run)

# 1. INITIALIZATION
#allows pair, bond, bending and dihedral interactions
atom_style molecular

  # periodic (video game) boundaries in all cartesian directions
boundary p p s

  # uses real units (instead of units based on pair potential parameters).  List of units used in manual
units metal

###########
# 2. ATOM DEFINITION
##########

   ##
   # Read in data from starting configuration file
   ##

#read_data lammps-AT-config

 #use to restart
read_restart RESTART
  orthogonal box = (0 0 -29.1214) to (20 20 152.979)
  1 by 1 by 4 MPI processor grid
  1498 atoms
  197 bonds
  96 angles
  95 dihedrals
  2 = max # of 1-2 neighbors
  2 = max # of 1-3 neighbors
  4 = max # of 1-4 neighbors
  6 = max # of special neighbors

   ##
   # Specify the nature of the bond interactions
   ##

bond_style harmonic
bond_coeff 1 19.51 1.54
bond_coeff 2 22.45 1.82
bond_coeff 3 10000.0 2.0
special_bonds lj 0.0 0.0 0.0 angle no dihedral no

angle_style harmonic
angle_coeff 1 2.683 114.00
angle_coeff 2 2.683 114.40

dihedral_style opls
dihedral_coeff * 0.06071 -0.011743 0.1363628 0.0

mass  1   14.00
mass  2   32.06
mass  3  196.97
mass  4  196.97


pair_style hybrid lj/cut 14.0 morse 14.0 eam
pair_coeff 1 1 lj/cut 0.00395 3.95 14.0
pair_coeff 2 2 lj/cut 0.01594 3.62 14.0
pair_coeff 3 3 eam Au_u3.eam
Reading potential file Au_u3.eam with DATE: 2007-06-11
pair_coeff 4 4 eam Au_u3.eam
pair_coeff 1 2 lj/cut 0.0000 3.785 14.0
pair_coeff 1 3 lj/cut 0.00258 3.44 14.0
pair_coeff 1 4 lj/cut 0.00 3.44 14.0
pair_coeff 2 3 morse 0.879 1.47 2.7 14.0
pair_coeff 2 4 morse 0.000 1.47 2.7 14.0
pair_coeff 3 4 lj/cut 0.00 2.934 14.0


group freeze type 4
100 atoms in group freeze
fix startend freeze setforce 0.0 0.0 0.0



################
# 3.  Simulation Settings
###############

neighbor        2.0 bin
neigh_modify    every 1 delay 0 check yes



# Define some variables
variable Lx          equal xhi-xlo   # Ang
variable Ly          equal yhi-ylo   # Ang
variable Lz          equal zhi-zlo   # Ang

variable dz          equal ${Lz}/30  # Ang
variable dz          equal 182.100820164033/30  

variable zzlo        equal zlo  # Ang
variable zzhi        equal zhi  # Ang
variable vol         equal ${Lx}*${Ly}*${Lz}  # Ang^3
variable vol         equal 20*${Ly}*${Lz}  
variable vol         equal 20*20*${Lz}  
variable vol         equal 20*20*182.100820164033  
variable TEMP        equal 300.00 # K
variable TThi        equal 320.00 # K
variable TTlo        equal 280.00 # K
variable dt          equal 0.00025 # ps

timestep     ${dt}
timestep     0.00025

variable zlo1      equal -26.0
variable zlo2      equal -11.0
variable zhi1      equal 135.0
variable zhi2      equal 150.0

# heat layers

region          hot  block  INF INF INF INF ${zlo1} ${zlo2}
region          hot  block  INF INF INF INF -26 ${zlo2}
region          hot  block  INF INF INF INF -26 -11
region          cold block INF INF INF INF ${zhi1} ${zhi2}
region          cold block INF INF INF INF 135 ${zhi2}
region          cold block INF INF INF INF 135 150
compute         Thot all temp/region hot
compute         Tcold all temp/region cold


# Second Equilibration
fix             1 all nve
fix             hot all langevin ${TThi} ${TThi}  0.005 59804  tally yes
fix             hot all langevin 320 ${TThi}  0.005 59804  tally yes
fix             hot all langevin 320 320  0.005 59804  tally yes
fix             cold all langevin ${TTlo} ${TTlo} 0.005 287859 tally yes
fix             cold all langevin 280 ${TTlo} 0.005 287859 tally yes
fix             cold all langevin 280 280 0.005 287859 tally yes
fix_modify      hot temp Thot
fix_modify      cold temp Tcold

variable        tdiff equal c_Thot-c_Tcold
thermo_style    custom step c_Thot c_Tcold f_hot f_cold v_tdiff
thermo            4000
run             800000
WARNING: Using a manybody potential with bonds/angles/dihedrals and special_bond exclusions (../pair.cpp:218)
Unused restart file peratom fix info:
  fix style: STORE, fix ID: layers_COMPUTE_STORE
Neighbor list info ...
  update every 1 steps, delay 0 steps, check yes
  max neighbors/atom: 2000, page size: 100000
  master list distance cutoff = 16
  ghost atom cutoff = 16
  binsize = 8, bins = 3 3 23
  4 neighbor lists, perpetual/occasional/extra = 4 0 0
  (1) pair lj/cut, perpetual, skip from (4)
      attributes: half, newton on
      pair build: skip
      stencil: none
      bin: none
  (2) pair morse, perpetual, skip from (4)
      attributes: half, newton on
      pair build: skip
      stencil: none
      bin: none
  (3) pair eam, perpetual, skip from (4)
      attributes: half, newton on
      pair build: skip
      stencil: none
      bin: none
  (4) neighbor class addition, perpetual
      attributes: half, newton on
      pair build: half/bin/newton
      stencil: half/bin/3d/newton
      bin: standard
Per MPI rank memory allocation (min/avg/max) = 10.93 | 11.62 | 12.32 Mbytes
Step c_Thot c_Tcold f_hot f_cold v_tdiff 
84001000    327.74787    262.39357           -0           -0    65.354299 
84004000    333.83934    261.93399  -0.50670639   0.68268303    71.905357 
84008000    336.20809    257.78808  -0.04658535   0.21311333    78.420012 
84012000    325.11413    282.35597   0.21213878   -1.2602719    42.758159 
84016000    318.69334     290.1292    0.8801506  -0.94869174    28.564143 
84020000    305.21235    290.02937    1.5258029  -0.91008523    15.182981 
84024000     323.2998    268.50716   0.29674673  0.076290427    54.792636 
84028000    326.35152     276.6972  0.045507622  0.066910267    49.654317 
84032000    338.18626    279.46075  -0.68937238  -0.10824276    58.725506 
84036000    350.70617    262.19503   -0.3741787    1.4442889    88.511146 
84040000    332.53124     271.9134  -0.52215385 -0.025425485    60.617833 
84044000    324.86134    280.55174  -0.44969589  -0.98657316    44.309597 
84048000    341.22718    288.62857 -0.0031121526  -0.54342879    52.598609 
84052000    324.22727    279.08795   0.66859048   -0.9755632    45.139315 
84056000    308.94262    255.61576    1.3028371  -0.83480958    53.326866 
84060000     312.7263    280.50674    1.6444169  -0.24579478    32.219564 
84064000    325.66569    290.57382  -0.39380372   -1.1390169    35.091865 
84068000    317.35956    265.92288   0.83400248   -1.0893971    51.436689 
84072000     321.4049    305.43326  -0.47989219   -2.8356338     15.97164 
84076000     307.2492    285.37943    2.3751467   -1.0840981    21.869779 
84080000    303.57803    284.60449     1.443263  -0.68382083    18.973545 
84084000    341.78997    292.55809   0.65045724   -1.0689092    49.231877 
84088000    346.53158    265.95524   -2.4075187  -0.92349316    80.576344 
84092000    304.26875    272.12513    1.4358236   -1.3540044     32.14362 
84096000    297.89504    275.39663    1.9545438  -0.96091685    22.498403 
84100000    323.49456     284.1642   0.54201763   -1.2823775    39.330356 
84104000    318.45034    275.96653   0.82969963   0.10059447    42.483818 
84108000    335.81315    283.58469   0.89894216  -0.35951911    52.228464 
84112000    322.68478    274.34313   0.79782316   -1.4594778     48.34165 
84116000    323.20276    285.05988   0.52940286   -1.0668953    38.142878 
84120000    307.09889    276.52776    1.2640354   0.51498943    30.571129 
84124000    315.48014    272.66687   0.27697277  -0.53249278    42.813278 
84128000    314.46322     291.7973    1.5852001   -1.9733662    22.665919 
84132000    356.21525    277.15275  -0.14116891   -1.6188867    79.062504 
84136000    322.87596    287.25009    1.3748694   -1.3005744    35.625865 
84140000    312.40768    282.65286    2.4607801     -2.42556    29.754819 
84144000    312.98465    304.65086    1.8663041   -3.2578085    8.3337858 
84148000    315.87297     267.2498    1.5981599   -1.3754724    48.623167 
84152000    347.55077    266.85432  0.059245043  -0.66888929    80.696446 
84156000     327.4925    283.39105   0.58782882    -1.113561    44.101456 
84160000    315.86367    285.82745    2.1157292   -2.1511476    30.036223 
84164000    319.90713    276.73787     1.584771  -0.48630043    43.169256 
84168000    334.16241    303.55775   0.42349204   -2.3304951    30.604658 
84172000    336.03893    270.69775    1.0603478   0.08435784    65.341183 
84176000    325.25928    287.58594    2.5276891  -0.76057461    37.673345 
84180000    298.42865    279.74217     2.557178   -1.2662382    18.686478 
84184000    316.61304    275.31938    1.8835561    -1.318088     41.29366 
84188000    327.04098    290.43651    0.4676574   -1.2300531    36.604467 
84192000     325.6936    274.34772    2.2264176   0.49954373    51.345877 
84196000    324.76597    287.14786    1.2547994  -0.40171002    37.618109 
84200000    312.29131    286.60946    1.5056509  -0.67081227     25.68185 
84204000    318.32338    283.43989    2.8711317  -0.55020724    34.883493 
84208000     345.8141     289.9179  0.097311883   -1.0901457    55.896205 
84212000     314.8035    269.25018    1.1533928   -1.0713192    45.553321 
84216000    323.43048    285.05683   0.64001654   -1.5486066    38.373645 
84220000    306.55982     275.9372    1.8497055   -1.0298244    30.622618 
84224000     332.1974    283.78472    1.0552906   -1.1833487     48.41268 
84228000    331.90296    285.72811   0.53127173  -0.50767526    46.174846 
84232000    334.86797    268.96596   0.54246479  0.023968374    65.902013 
84236000    313.88166    277.90124    1.5197402   -0.8471747    35.980421 
84240000    318.61223    284.06942    1.8921441  -0.81268804    34.542812 
84244000    323.69756    268.66276    1.3845791    0.8874558    55.034805 
84248000    312.28291    288.64081    2.0186659   -1.2951587    23.642104 
84252000    348.62933    294.53232 -0.066520132   -1.0846168    54.097005 
84256000    307.13686    282.91301    1.5060032   -1.1287448    24.223843 
84260000    307.88829     271.7724    1.3610766  -0.76213492    36.115898 
84264000    333.07955    273.97986  -0.52608178   -1.2351571    59.099688 
84268000    312.61736    286.62924    0.2910653   -1.0512046    25.988114 
84272000    348.49166    279.01393  -0.83887378 0.0087463795    69.477731 
84276000    322.04069    270.05604   0.82336268   -0.9431387    51.984648 
84280000    322.26409    279.76386    1.7496793   -1.0967196    42.500231 
84284000     320.5448    284.21366     1.479439   -2.1005024    36.331141 
84288000    304.09934    279.23167    1.4384169   -1.1862293    24.867672 
84292000    326.51958    281.68434   0.87195157   -1.5543608    44.835236 
84296000    302.02802    261.07333    1.9322533  -0.27145734    40.954696 
84300000    301.45421    281.90101    1.7639206   -1.0175058    19.553197 
84304000    306.52386    284.02884    1.2564935   -1.0546288     22.49502 
84308000    334.27453    262.45821  -0.28592163   0.59126895     71.81632 
84312000    322.33749    301.06464    1.4326011   -1.7261693     21.27285 
84316000    331.30332     283.1591     1.400394   -1.0523055    48.144219 
84320000    316.55976    268.19684   0.79030348  -0.86546362    48.362918 
84324000    318.64498    275.94234   0.24043675  0.070356246    42.702645 
84328000    343.22381    279.36894    0.2304408   0.18408891    63.854866 
84332000    308.41515    292.09818    2.0334724  -0.89065517    16.316962 
84336000    327.38206    287.92264    1.7056361  -0.37695149    39.459411 
84340000     311.0476    300.57777   0.55044298  -0.82565042    10.469828 
84344000    320.46058    278.36515   0.28534557   -1.0747852    42.095428 
84348000    308.81045    303.85278   0.42206993   -1.0038425    4.9576743 
84352000    307.59897    271.70073   0.40864115   0.54999602    35.898242 
84356000    316.53785    276.70927   0.80756235    1.2777032    39.828582 
84360000    281.82727    272.54367    2.9789413    1.0617286    9.2835989 
84364000      305.764    278.21977    1.8780447   0.56895944    27.544227 
84368000    307.13674    284.06353    1.0384673   0.40462908    23.073212 
84372000    309.28397    283.37307    1.2867178    1.0907003    25.910901 
84376000    330.83658    296.02561    1.1163727    0.1613972    34.810967 
84380000    309.30396    258.63767     1.181467    1.3903891    50.666284 
84384000    304.79992    287.65207    1.4527395  -0.98496819    17.147855 
84388000    327.66021    287.34586   0.43441683 -0.096640729    40.314349 
84392000     324.8858     282.6567 -0.056199955   0.27010811    42.229101 
84396000    326.93336    277.43057   0.66673734    1.0418621    49.502783 
84400000    342.21862    256.70109    0.1512378    1.7632056     85.51753 
84404000    301.28058    286.98815     2.106622  -0.64179271    14.292436 
84408000    318.98006    295.14999    1.0083493  -0.69524086    23.830069 
84412000    311.45734    283.69202    1.7409722  -0.19191882    27.765317 
84416000    338.61602    275.49689    2.0276611   0.39257293    63.119126 
84420000    314.11154    269.63086    2.3852565   0.96885338    44.480681 
84424000    348.94682    287.94667   -0.1421807  -0.24406568     61.00015 
84428000    312.80159    288.01508    2.1518381   0.45943681    24.786505 
84432000    332.60598    297.94226    1.5107582  -0.25704514    34.663721 
84436000    309.97168     277.6737    2.2676551    1.2143731    32.297982 
84440000    310.03367    269.73562    2.7847077   0.93564722    40.298055 
84444000    293.79936    284.35928    2.1376658   0.79340844    9.4400881 
84448000     316.4426    269.17699    1.6713896    1.5693076    47.265603 
84452000    315.28217    263.05496    1.7197975    1.5779063    52.227209 
84456000    313.95703    256.93898     1.394323   0.92556601    57.018055 
84460000    331.88902    284.27226    1.3306671  -0.58094491    47.616757 
84464000    308.46505    270.14623     2.696106     1.273062    38.318819 
84468000     303.1778    272.23028    2.4833631  0.077774957     30.94752 
84472000    318.77353    302.88844   0.42072594  -0.33240719    15.885092 
84476000    309.14731    280.85352   0.71249295     1.920297    28.293791 
84480000    329.42561    280.85693    1.1758305    1.4896779    48.568684 
84484000    327.17199    281.44086   0.60302382   0.98967753    45.731135 
84488000    319.25626    287.50824    1.8391032  -0.26936675    31.748022 
84492000    339.53178    292.68531   0.81671477   0.61116773    46.846464 
84496000    342.93961    284.20059 -0.026882165   0.61983672    58.739021 
84500000     309.4965    277.60851   0.96942093    1.3057067    31.887989 
84504000    311.97307    276.50594    1.9707017   0.78549244    35.467137 
84508000    353.57266    303.29003  -0.36881576  -0.52453028    50.282628 
84512000     322.7733    292.69218   0.53671111    0.5534403    30.081111 
84516000    329.35067    269.32587   0.54402781   0.98443445    60.024808 
84520000    325.52984    272.88027   0.38604727    1.2159877    52.649571 
84524000    310.72907    278.57857    1.2188222 -0.045667432    32.150498 
84528000    309.69773    278.50917    1.2858302   0.73013385    31.188567 
84532000    328.16562    287.15976    1.2525238   0.40667321    41.005856 
84536000     314.6792    275.06182    1.0266365   0.86926818    39.617383 
84540000    338.93235    265.11111    0.2493622    1.1770326    73.821238 
84544000    318.37818    261.65537  0.038512506   0.80480219    56.722807 
84548000    335.65361    278.69479  -0.51492159    0.1568515    56.958826 
84552000    341.26119    284.66947  -0.19580325   0.28199666     56.59172 
84556000    300.07386    279.08056   0.30202258   0.20528525      20.9933 
84560000    336.20952    271.41971   -1.7011559   0.67259695    64.789816 
84564000    321.25331    281.38726  -0.52053713  -0.15447691    39.866042 
84568000     313.7704    296.00184    1.0530612   -1.5040337    17.768555 
84572000    308.34255    263.21291 -0.060243457   0.65879818    45.129642 
84576000    304.68494    274.37604   0.89912584   0.18553954    30.308898 
84580000    311.12615    295.79333   0.47618859   -1.1784896    15.332826 
84584000    328.65569    292.00866  0.061453103  -0.87026326    36.647029 
84588000    307.23736    275.34094   0.51576404  0.098283064    31.896422 
84592000    336.20873    296.90505   -0.1105292    -2.202593     39.30368 
84596000    317.41023    270.51336  -0.15003053  0.040456171    46.896867 
84600000    325.55067    281.49754   0.53362608   -1.6726047    44.053136 
84604000    320.87307    281.09283   0.19072774  -0.45341889    39.780244 
84608000    300.55234    302.28245    1.4283271   -1.4509198   -1.7301155 
84612000      332.803    286.35619    0.6561389  -0.18427579    46.446812 
84616000    329.21468    274.59329   0.65560259   0.34997288     54.62139 
84620000    333.31368    267.47914  -0.32783293    0.8524825    65.834532 
84624000    329.20446    284.89043  -0.22377733  0.022011744    44.314025 
84628000     333.0855    275.48595   0.30849608  -0.84459509    57.599555 
84632000    318.41131    296.64859 -0.053027806   -1.6725242    21.762714 
84636000    334.07029    289.90386   -1.9006411   -1.1994446    44.166429 
84640000    312.13835    289.13913 -0.056299383  -0.69403327     22.99922 
84644000    327.82056    272.04559   -1.5083368   0.92713562    55.774968 
84648000     361.1501    273.90558   -2.6782392   0.33420619     87.24452 
84652000    316.89823      278.108  -0.57266806   0.20028275    38.790224 
84656000    301.49413    297.46348    2.3719945    0.4913573    4.0306579 
84660000    322.62544    275.00673  -0.70138123   0.40986996    47.618703 
84664000    323.00778    270.66226    0.7401849    1.5283671    52.345513 
84668000    329.53046    268.25715   0.76309268   0.21304751    61.273312 
84672000    317.41173    260.06008    1.6237835    -0.239221    57.351643 
84676000    353.18226    284.81401   0.45004495   -1.0297188    68.368254 
84680000    321.93648    290.06046    2.3146333   -0.7469463    31.876013 
84684000    318.78387    281.52264   0.83497103   -0.2497523     37.26124 
84688000    330.67286    267.79653   0.77393917   0.12140125    62.876329 
84692000    307.30876    296.06681    1.5516829  -0.79948165    11.241949 
84696000    308.10637    271.79377    2.1820461   0.10577266    36.312598 
84700000     328.9139    284.42598    1.9621855  -0.39590422    44.487919 
84704000    310.38657    285.25023    2.2826082  -0.84501894    25.136342 
84708000     330.6187    277.76739    1.8573268    -1.842258    52.851306 
84712000    319.03482    250.29459    2.7896807   0.14943749    68.740226 
84716000    331.71771    286.89209    2.6541721   -1.7684192    44.825622 
84720000     298.1437    278.30313    2.8371613  -0.58869616    19.840577 
84724000    329.69539    286.21615    1.3745756   -1.1842503    43.479242 
84728000    318.46842    282.18839    2.0084793  -0.34388966    36.280023 
84732000     331.0686     292.4217   0.46044667  -0.63290384    38.646904 
84736000    291.54329    296.32271    2.2933167   -2.0263965   -4.7794184 
84740000    313.80431     266.8276    1.8138061   0.30211933    46.976703 
84744000    336.34392     283.2539   0.79518559   -0.7817712    53.090015 
84748000    333.52313    282.08374    2.3516231  -0.25832649     51.43939 
84752000    314.04735    277.77241    2.9723358 -0.048850571    36.274945 
84756000    313.46284    274.70719   0.90909533    1.0392654    38.755657 
84760000    320.36476    270.88131    1.2051815   0.26495251    49.483458 
84764000    340.45752    281.76012    1.2884778 -0.089760589    58.697401 
84768000     302.8215    286.77336    4.0034393   0.25971179    16.048137 
84772000    332.05994    284.23513   0.94416814   0.81041478    47.824811 
84776000    306.62568    298.62993    2.6794442  -0.58153962    7.9957491 
84780000    337.72474    294.24108    1.5305603 -0.027245837    43.483659 
84784000      320.035    264.13069    1.4299289   0.21284787     55.90431 
84788000    333.64666     288.2169    1.9774031    0.1036259    45.429754 
84792000    310.35465    267.25046    2.7539951    1.5790842    43.104192 
84796000    306.68988    251.80899    2.0969839    2.3558819    54.880892 
84800000    313.41429    269.04654    3.3929548    1.5953366    44.367746 
84801000    311.90571    268.92916    3.3124198    1.4419287    42.976543 
Loop time of 1059.43 on 4 procs for 800000 steps with 1498 atoms

Performance: 16.311 ns/day, 1.471 hours/ns, 755.123 timesteps/s
99.6% CPU use with 4 MPI tasks x no OpenMP threads

MPI task timing breakdown:
Section |  min time  |  avg time  |  max time  |%varavg| %total
---------------------------------------------------------------
Pair    | 530.22     | 733.23     | 939.67     | 736.4 | 69.21
Bond    | 3.2932     | 5.1628     | 6.8981     |  76.1 |  0.49
Neigh   | 6.1526     | 6.1548     | 6.1562     |   0.1 |  0.58
Comm    | 13.512     | 209.16     | 407.82     |1350.7 | 19.74
Output  | 0.0061384  | 0.019899   | 0.040313   |   8.9 |  0.00
Modify  | 56.02      | 80.656     | 106.94     | 215.0 |  7.61
Other   |            | 25.05      |            |       |  2.36

Nlocal:    374.5 ave 714 max 35 min
Histogram: 2 0 0 0 0 0 0 0 0 2
Nghost:    2376.75 ave 4259 max 496 min
Histogram: 2 0 0 0 0 0 0 0 0 2
Neighs:    13137 ave 26066 max 313 min
Histogram: 2 0 0 0 0 0 0 0 0 2

Total # of neighbors = 52548
Ave neighs/atom = 35.0788
Ave special neighs/atom = 0.518024
Neighbor list builds = 1499
Dangerous builds = 0
unfix 1


# PRODUCTION

fix             1 all nve
fix             hot all langevin ${TThi} ${TThi}  0.005 59804  tally yes
fix             hot all langevin 320 ${TThi}  0.005 59804  tally yes
fix             hot all langevin 320 320  0.005 59804  tally yes
fix             cold all langevin ${TTlo} ${TTlo} 0.005 287859 tally yes
fix             cold all langevin 280 ${TTlo} 0.005 287859 tally yes
fix             cold all langevin 280 280 0.005 287859 tally yes
fix_modify      hot temp Thot
fix_modify      cold temp Tcold

variable        tdiff equal c_Thot-c_Tcold
thermo          4000

dump gigo all atom 4000 dump.cords_xyz.dat
dump_modify gigo scale no
dump vfgigo all custom 4000 dump.velo.dat id vx vy vz fx fy fz

# thermal conductivity calculation
# # reset langevin thermostats to zero energy accumulation
#
compute         ke all ke/atom
variable        temp atom c_ke/1.5/0.00008617333262

fix             ave all ave/time 100 40 4000 v_tdiff ave running
thermo_style    custom step temp c_Thot c_Tcold f_hot f_cold v_tdiff f_ave

#compute         layers all chunk/atom bin/1d z lower 0.05 units reduced
compute         layers all chunk/atom bin/1d z lower ${dz} units box
compute         layers all chunk/atom bin/1d z lower 6.0700273388011 units box
fix             2 all ave/chunk  100 40 4000 layers v_temp file profile.langevin

run             16000000
WARNING: Using a manybody potential with bonds/angles/dihedrals and special_bond exclusions (../pair.cpp:218)
Neighbor list info ...
  update every 1 steps, delay 0 steps, check yes
  max neighbors/atom: 2000, page size: 100000
  master list distance cutoff = 16
  ghost atom cutoff = 16
  binsize = 8, bins = 3 3 23
  4 neighbor lists, perpetual/occasional/extra = 4 0 0
  (1) pair lj/cut, perpetual, skip from (4)
      attributes: half, newton on
      pair build: skip
      stencil: none
      bin: none
  (2) pair morse, perpetual, skip from (4)
      attributes: half, newton on
      pair build: skip
      stencil: none
      bin: none
  (3) pair eam, perpetual, skip from (4)
      attributes: half, newton on
      pair build: skip
      stencil: none
      bin: none
  (4) neighbor class addition, perpetual
      attributes: half, newton on
      pair build: half/bin/newton
      stencil: half/bin/3d/newton
      bin: standard
Per MPI rank memory allocation (min/avg/max) = 12.03 | 12.29 | 12.44 Mbytes
Step Temp c_Thot c_Tcold f_hot f_cold v_tdiff f_ave 
84801000    261.05468    311.90571    268.92916           -0           -0    42.976543            0 
84804000    267.09636    337.79106    265.76645   -1.6078136   0.21347757    72.024608            0 
84808000    259.23555    334.01761    262.78505   -1.0271711   0.47103882     71.23256    36.532813 
84812000    273.81325    324.36959    284.66407    -1.454352   -2.1785759     39.70552    37.709701 
84816000    264.89616    308.74371    291.91552   -1.1484975   -1.0658272    16.828186    38.475143 
84820000    271.45749    295.37551    296.73971  0.032530085   -1.0029982   -1.3641941    38.369237 
84824000    269.62636    337.25047    268.01633    -1.448434  -0.21061922    69.234143    40.029173 
84828000     277.0256     345.6932    300.54703    -2.304892   -2.5735315    45.146167    40.152735 
84832000    265.45081    313.67941     280.3503   -1.2393696   -1.5308479     33.32911    39.670491 
84836000    270.89711    334.65532    259.14849   -1.8015166   0.40439064    75.506831    40.002116 
84840000    268.33623    349.84966    267.16267   -3.8867471   -0.1796325    82.686993    39.716936 
84844000    263.88843    305.97134    279.30802   -1.3797424   -1.6631965    26.663322    39.461005 
84848000    274.64831    335.12741    276.92375   -1.3871236   -1.7359624    58.203657    39.656069 
84852000    277.47843    331.12452    280.18024   -1.4241793   -1.9980338    50.944283    39.823281 
84856000    271.73309    324.46131    272.56264  -0.82929714   -1.0352088    51.898668    39.908167 
84860000    269.64271    312.19363    287.24217    -1.359235   -2.7308418    24.951461    40.032409 
84864000    274.21947    313.63478    295.25104   -1.4255823   -2.0617658    18.383744    39.954046 
84868000    271.01054    337.41659     264.8314   -1.7065708  -0.49888936    72.585198    39.932303 
84872000    273.61196    319.24248    274.84183    -2.161617   -0.5805255     44.40065    40.000601 
84876000    273.66037    332.31161    279.19438    -2.311892  -0.98321888    53.117227    39.924575 
84880000    270.86548    307.32411    291.16825   -1.7031076   -2.1889998    16.155863    39.849126 
84884000    273.15459    333.74608     284.7853   -2.2458446   -1.3911735     48.96078      39.9611 
84888000    270.19719    327.92184    272.32278   -1.1928556     -1.16784    55.599067    40.114467 
84892000    272.14779    325.44322    291.80057  -0.55580867  -0.47592023    33.642658    40.206691 
84896000    271.95518    326.74148     263.7651   -1.9564312  -0.25559505    62.976381    40.128892 
84900000     267.4083     307.4609    293.84646  -0.24534999   -1.5460578    13.614446    40.228702 
84904000    269.72116    318.79577    272.55409    -2.203399  -0.11050582    46.241684     40.11429 
84908000    288.73671    365.64388    285.27097   -3.4181567   -1.0626849    80.372909    40.307729 
84912000    267.61038    295.01663    278.30159  -0.62025167   0.29023888    16.715039    40.218624 
84916000    272.15864    328.64899    264.28578   -2.4349531 -0.090278617    64.363215    40.301353 
84920000    272.30477     312.2331    277.69952   -1.3934832  -0.71381325    34.533571    40.392031 
84924000    267.57835    312.86186    278.68624   -3.0498927  -0.66504994    34.175619    40.428935 
84928000    275.71331    315.61629    299.67015   -3.1514879   -1.6774765    15.946134    40.292438 
84932000    275.14493    335.50345    264.96419   -3.2966561    0.1624401     70.53926    40.256907 
84936000    272.84809       307.01    309.95884   -1.5756227   -1.5864963   -2.9488471     40.14761 
84940000    268.84349     303.0145    294.42832   -1.1933184   -1.3584742    8.5861787    40.138156 
84944000    267.42205    300.75303    273.53129    -2.250174  -0.82848073    27.221733    40.147802 
84948000    277.50206    342.21503    270.36821   -3.6701714  -0.20828204    71.846825    40.231037 
84952000    270.88823    331.51421    258.72772   -1.4675087   0.73213182    72.786483    40.212794 
84956000    270.29274    320.22435    272.48756   -1.7954559   0.63385898    47.736789     40.23929 
84960000    267.59596    318.33581     274.5733  -0.84771272  -0.23825029    43.762511    40.330046 
84964000    274.29367    317.97537    289.60156   -1.5129942   0.14393896     28.37381    40.515073 
84968000    266.82712    326.25085    293.46183   -1.7478121   0.49810237    32.789022    40.562933 
84972000    266.16222    322.01677    269.72396    -1.885368    1.6940587    52.292814    40.648934 
84976000     277.8561    335.00653     284.0313   -2.0756013   0.60559272     50.97523    40.623519 
84980000    265.57799    327.44683    282.49625   -1.9666139   0.23345949    44.950578    40.735574 
84984000    265.97024    309.39419    288.75919  -0.64969995  -0.31868512    20.634997    40.713974 
84988000    266.23509    317.46283    292.30524  -0.75505904  -0.16448624     25.15759    40.659297 
84992000    263.40342    320.85834     281.8874   -1.7983108    1.1500581    38.970942    40.702486 
84996000    264.51358    323.15151    281.18254   -1.5661838   0.74588572    41.968973    40.712646 
85000000    269.87775    313.18603    289.19927  -0.54352373  -0.51627422    23.986762    40.561838 
85004000    264.04197    300.75232    284.56599    1.0519209   0.80693006     16.18633      40.4542 
85008000    266.02672    324.25439    276.49324   -2.1242998   0.83432993    47.761148    40.415745 
85012000    266.34277    322.63565    272.36713   -2.2488507    1.3940001    50.268527    40.410213 
85016000     262.4114    311.20808    282.07665   -1.9395651   0.29273593    29.131431    40.358077 
85020000     269.2743    326.67311    288.84033   -1.0630081  0.042548408    37.832777    40.322696 
85024000    269.96211    341.76477    282.57595    -1.834186   0.51935582     59.18882    40.241842 
85028000    278.08615     347.7675     286.6131   -1.6985442   0.81056226    61.154403     40.26336 
85032000    258.14961    342.21389    257.19233   -1.6626272   0.86183198    85.021562    40.298949 
85036000    261.82133    339.57737    272.66345   -1.5441152    1.6066232    66.913915    40.291899 
85040000    262.19367    315.93055    278.37315    1.3866746    2.3338954    37.557401    40.303764 
85044000    249.62999     302.5798    268.49941   0.31545131    2.2216675    34.080391    40.201884 
85048000    259.51381    311.69857    279.27875  -0.78884136     2.141941    32.419817    40.192657 
85052000    256.75716    313.12187    284.99963   -1.0829235    2.2045936     28.12224    40.144738 
85056000    264.55122    337.73734     275.2068   -2.9374295    1.8173607    62.530545    40.149571 
85060000    258.45359     296.6055    276.38352   -1.6898701     2.143984     20.22198    40.211508 
85064000    270.79772    326.29572    289.67654     -2.42218    1.0657454    36.619187    40.193254 
85068000    272.24103    302.54811    305.26055   -1.5769214  0.072269281   -2.7124443    40.163287 
85072000    272.91882     321.9128    284.14278    -2.239725    1.9815011    37.770027    40.053939 
85076000    268.82281     331.2462    292.14446   -2.5882288   0.88793931    39.101743    40.112268 
85080000    266.11631    311.58815    292.32142   -2.9189971  -0.23061141    19.266726     40.09818 
85084000    266.94728    312.46594    278.19471   -2.0097024   0.21863657    34.271224     40.04137 
85088000    274.25998    314.37674    296.58866   -1.6527447  -0.35694359    17.788085    40.053605 
85092000    275.53656    337.02479    282.55857   -2.5183408   0.78879039     54.46622     40.06659 
85096000    266.76739    315.87281    279.90823   -1.2950304   0.89245826    35.964577     40.02383 
85100000    266.49856    313.97605    273.50133   -1.7382941   0.80686385    40.474722     40.04602 
85104000    267.15741    305.29672    274.79228   -1.4246027    1.2514929    30.504439    40.122821 
85108000    251.20288    295.56501     244.5176  -0.66045407    3.3011011    51.047415    40.142072 
85112000    261.90009    314.95252    273.56202   -0.9636128    1.6445371      41.3905    40.138109 
85116000    267.56358    321.48699    279.40125   -1.1218339    0.7141651    42.085742    40.179495 
85120000    261.23378    326.45427    259.69215  -0.42585921    2.3383863     66.76212    40.215791 
85124000    255.32481    297.52923    276.01934  -0.97428431    1.4850673    21.509893    40.273483 
85128000    265.29466    343.71313    274.68461   -2.0938101    1.6080378    69.028514    40.338577 
85132000    261.37497    303.40226    269.00042 -0.036281387    1.3943715    34.401846    40.314958 
85136000    257.88406     316.8942    261.75412   -2.1857048    1.5483503    55.140083    40.308299 
85140000    274.29009    323.33755    294.29717   -2.0111156   0.17562876    29.040383    40.369753 
85144000    264.45475    310.99767    273.23099    -1.580905    1.7749243    37.766678     40.37125 
85148000    268.47358    325.84336    265.30533   -1.1913284    1.3077872    60.538031    40.400421 
85152000    269.74166    318.19541    281.26233   -1.6541487    1.2466044    36.933079    40.394929 
85156000    270.58371    318.07218     282.2996   -1.8593349    1.0215402     35.77258     40.39707 
85160000    267.54705    311.40045    273.55658   -2.3824793    1.2097111    37.843866    40.346753 
85164000    271.95426    338.22554    283.01426   -3.6453049   0.91798587    55.211281    40.352002 
85168000    264.74902    293.43346    293.79274   -2.1100275   0.87740733  -0.35927549    40.338579 
85172000    268.45897    313.15849    280.03861   -2.3798308    1.4261474    33.119885      40.3606 
85176000    267.50123    321.85095    294.54236   -3.6509728   0.12155433    27.308593    40.355627 
85180000     265.0711    300.93702    269.90052   -2.1086692    1.3009984    31.036496     40.34779 
85184000    269.06827    307.34519    293.33158   -2.2298896  -0.39360816    14.013617    40.371237 
85188000    268.57295    322.11385    266.87102   -2.9085497     1.289391    55.242837    40.368724 
85192000    261.84051     302.3824    266.53281   -2.7934578    1.8908379    35.849591    40.362447 
85196000    277.19898    333.37738    276.65445     -3.77134    1.3512975    56.722933    40.334193 
85200000    262.09854    289.23019    269.08434   -2.9842917    2.0825654    20.145844    40.313406 
85204000    272.87887    326.41523    266.29175   -4.8458872    1.8025828    60.123484    40.384843 
85208000    265.58462    303.50475    297.86091   -4.7355613  -0.04034849    5.6438376    40.333381 
85212000    268.32392    320.24482    275.48365   -4.4567741     0.436284    44.761168    40.275842 
85216000    280.84603    338.93629    277.23489    -4.558131    1.3233249    61.701401    40.269873 
85220000    272.18734    318.09986    287.70006    -4.218678   0.33082561    30.399804     40.24079 
85224000    279.04389    329.53313    298.92287   -5.8688963   -0.5519722    30.610261    40.164525 
85228000    272.66453    301.12798    296.67281   -4.8578437 -0.026732882    4.4551691    40.133644 
85232000    278.71989    319.42513    296.28645   -4.4851414   0.37895147    23.138675    40.112041 
85236000    273.93182    339.40497    273.95277   -4.8324676     1.703838    65.452205     40.11487 
85240000    271.81248    305.90882    275.13126      -3.6819    2.0803229     30.77756    40.103072 
85244000    274.01402     324.9945    277.29292   -5.0517527    1.5699314     47.70158    40.136077 
85248000    259.77459     286.3991    267.88941    -2.870405      2.98967    18.509689    40.123431 
85252000    274.36743    314.54518    276.22349    -4.903951     2.611421    38.321692    40.115312 
85256000     267.1945     326.8132    273.63452   -4.4399563    1.4744656    53.178678    40.147979 
85260000    282.75088    320.40953    306.78909   -3.6929409 -0.069364818    13.620443    40.099702 
85264000    273.32964     326.1326    284.17355   -4.4348436    1.2532812    41.959046    40.123349 
85268000     277.7771    325.16073    291.01551   -3.9309115    0.6923301    34.145223     40.10932 
85272000    264.27723     304.5192    280.04511   -4.0597412   0.68205195    24.474089    40.119723 
85276000    276.43534    311.39987    288.83186   -4.6947642    1.1298238    22.568009    40.139195 
85280000    261.92888    318.08333    262.01795   -4.7233824    3.5356653     56.06538    40.173788 
85284000    275.93664    303.96259     316.6117   -3.8072286    1.7733164   -12.649107    40.186764 
85288000    273.77333    323.92975    278.59323   -4.6730041   0.82305832    45.336513    40.139043 
85292000    268.73595     317.6958    267.84464   -3.1598747    1.8304305    49.851159     40.10808 
85296000    267.07834    312.64746    260.07798   -3.7684174    2.6983089    52.569474    40.111976 
85300000    270.87256    323.45324    288.17298   -4.1849774   0.95206637    35.280259    40.052514 
85304000    270.73682    310.84648    272.44707   -3.7681612    2.0838784    38.399409    40.061573 
85308000    264.64594    314.77352    286.21131   -4.2996694    1.4773262    28.562211    40.068121 
85312000    271.14328    324.86705    282.22161   -4.8146688    2.0553798    42.645437    40.075166 
85316000    264.85628     301.9901    278.72235   -3.4482677    2.4177103     23.26775     40.08771 
85320000    266.97319    325.25548    259.24648    -4.452574    3.3037006    66.009002    40.103793 
85324000    270.31634    323.53615    293.27398   -4.0251472    1.3228112    30.262172    40.113745 
85328000    276.52332    330.67867    271.84002   -4.9817196     1.688964    58.838645    40.087197 
85332000    266.55181    321.08026    272.57095   -5.6807446    1.6856847    48.509313    40.083758 
85336000    265.28934    314.20081    258.60396   -5.1495318       2.7797    55.596843    40.091974 
85340000    273.31012    315.09094    299.52784   -3.7140967    1.6007604    15.563099    40.102281 
85344000    267.05068    314.17215    280.71831   -3.9533896    2.1511083    33.453842    40.143288 
85348000    275.28801    326.19561    289.47496   -4.9005539    1.3197362    36.720645    40.160066 
85352000    269.64588    318.80584    270.85557   -4.5171812    2.1846389    47.950269    40.177424 
85356000    270.55862    320.99296    283.18914   -5.0943357    2.1705953     37.80382    40.149641 
85360000    266.96594    326.89987    280.35259   -4.1166753    2.9027074    46.547283    40.177247 
85364000    268.99562    319.57641    281.94017   -3.3847309    1.6912583    37.636239     40.17505 
85368000    269.98999    335.79486    272.09925   -4.0496612    1.2233223     63.69561    40.229149 
85372000    262.69916    319.87805    261.22928   -5.0900092      1.79994    58.648774     40.21511 
85376000    268.29401    316.25599    279.34323   -5.1414138    2.5317186    36.912754    40.217747 
85380000    278.76375    339.05009    296.67108    -4.752614    1.5515936    42.379017    40.224143 
85384000    268.65832    312.82168    281.25715   -5.2509966    2.2652279     31.56453    40.241555 
85388000    263.77001    300.66278    276.65712   -4.4858061    1.9186097    24.005657    40.275287 
85392000    273.47067    310.67229    304.16398   -4.1787867   0.53424541     6.508314    40.262629 
85396000    273.86554    324.36327    300.91096   -5.4897708   0.58824495    23.452312    40.248629 
85400000    266.75973    326.29948    279.29599   -4.6148189    1.4023277    47.003485    40.293308 
85404000    279.76822     318.5144    307.76417   -5.1388942  0.047296044    10.750228    40.263815 
85408000    275.81514    334.93858    281.86875   -5.6621324    1.3918723    53.069832    40.232711 
85412000    279.50832    340.79022    295.09933   -4.2431345   0.98288812    45.690896    40.198586 
85416000    264.48266    322.26707    263.08256   -4.0913254    3.5263647    59.184511     40.19671 
85420000    276.82276     341.2838    285.80115   -6.1064153    2.7717579    55.482647    40.191261 
85424000    265.03031    308.19837    295.28728   -4.1022583    1.6858406    12.911083    40.182249 
85428000    264.52657    321.47028    271.52398   -4.3163085    2.5690114    49.946307    40.207627 
85432000    274.35968    334.89473     297.6884   -5.1571767   0.27666389    37.206325    40.202022 
85436000    268.76333    356.06587    276.69565   -5.6666432   0.04698805    79.370223    40.223939 
85440000    262.61975    295.47277    286.44204   -3.5762642     1.917686    9.0307318    40.183782 
85444000    273.60753    342.02187    282.19913   -4.5875689    2.8192497    59.822744    40.226565 
85448000    276.61873    338.65766    277.17848   -5.4941967      3.64611    61.479187    40.236706 
85452000    271.02637    353.20099    281.94824   -5.7670695    2.6924498    71.252744    40.247705 
85456000    269.78364    302.20138    297.82763   -2.4832543    2.2526206    4.3737508    40.257562 
85460000    269.81622    312.60463    271.76026   -4.1838789    3.0448407    40.844366    40.256143 
85464000    270.33674     329.6259    270.74496   -5.2207332    2.5408066    58.880939    40.254686 
85468000    265.97628    302.74867    286.17337   -3.0808451    2.2271778    16.575302    40.279962 
85472000    264.10601    310.61218    273.58248   -3.2010192    2.3668305    37.029708    40.323855 
85476000    268.13721    336.39209     279.2824   -4.1564041    2.0040027    57.109697    40.328964 
85480000    268.06343     312.9796    279.84081   -2.2051472    1.7087542    33.138793    40.312779 
85484000    266.19606     327.5362    287.63894   -3.3745169     1.324771    39.897255    40.287778 
85488000    266.53753    321.91582    252.05995   -2.2988279    2.4895286    69.855878    40.329395 
85492000    269.62283    316.55589    295.52927   -1.7926257    1.5848513    21.026623    40.320682 
85496000    265.18996    314.56336    277.51831    -2.770153    3.2496568    37.045049    40.298581 
85500000    262.39594    325.25387    268.92885   -3.9835223    2.7674089    56.325015    40.310428 
85504000    258.80575    293.40001    270.28178   -1.5255628     3.426045    23.118235    40.300603 
85508000    261.03384    316.64903    273.35727   -3.4297141    2.3035943    43.291753    40.302531 
85512000    267.20819    339.26784    256.85834   -3.8817248    2.9827449    82.409499    40.312636 
85516000    269.52696    324.18838    284.92049   -3.4307892    2.6394896    39.267892    40.301578 
85520000    261.01044    295.30231    275.16075   -3.3811497     2.522379    20.141559    40.291317 
85524000    277.98539    350.19851    282.85639   -6.6350681    2.1933696    67.342121     40.28205 
85528000    271.49895    325.59756    283.17889   -5.2641757     2.202814    42.418671    40.289844 
85532000    268.09411    322.99346    286.18495   -5.2249063    2.3670307    36.808507    40.278445 
85536000    269.05829    303.96222    275.70568   -3.8596644     1.757142    28.256541    40.271736 
85540000    259.55371    307.83998    271.02305   -4.2065625    3.1128923    36.816932    40.253819 
85544000    270.59814    332.46261    271.05718   -4.4505571    3.0561038    61.405422    40.257063 
85548000    266.52751     325.6706    273.67529    -5.268541    2.9908781     51.99531    40.269581 
85552000    264.25106    313.45427    278.51128   -3.6937314    2.6939283    34.942989    40.272282 
85556000    265.29935    345.45903    261.34779   -5.7327656    4.3122444    84.111234    40.251012 
85560000    264.60252    322.56814    265.26967   -5.1033825    2.7415122    57.298478    40.253523 
85564000    266.82407     329.1615    263.40515   -5.1645487     3.140631    65.756352    40.293006 
85568000    265.27052    310.09805    279.18542   -3.5147903    3.0383509     30.91263    40.302346 
85572000    270.16205    318.45331     270.1916   -3.5820532    3.9108937     48.26171    40.322035 
85576000    270.17957     321.9779     296.6275   -3.4544793    2.0781788    25.350404    40.317488 
85580000    266.07884    322.84853    272.86236   -4.7956745    3.3290685    49.986172    40.318517 
85584000    265.34653     320.3838    274.34912   -5.1007657    2.4952265    46.034681    40.320571 
85588000    272.75727    349.83219    276.66756   -5.5692122    2.9090659     73.16463     40.32467 
85592000    267.13714    309.56676    280.49613   -5.3834395    3.0580134    29.070633    40.329632 
85596000    260.45324    309.94831    272.53115   -5.0278738    4.1582071    37.417166    40.323109 
85600000    260.41377    303.90931    260.60005   -3.6850439    5.2506961    43.309262    40.308855 
85604000    280.35904    338.82184    304.82946   -5.4167817    2.3617601    33.992382    40.291602 
85608000    270.62211    310.42956    292.76984   -5.0122741     1.694056    17.659718    40.290924 
85612000    272.75731    310.57465    293.58339   -5.2515829    1.0532593    16.991256    40.291602 
85616000    257.87458    306.87466      263.176   -4.7944247     3.826855    43.698662    40.286785 
85620000    278.17156    318.67153    290.29766   -4.9710964    1.9774623    28.373871    40.275712 
85624000    269.67856    301.77195    290.79519    -5.525981    3.3343839    10.976756      40.2691 
85628000    265.83275    308.08563    271.32732   -5.0637744    2.8542167    36.758314    40.260782 
85632000    271.79205    322.46341     298.6784   -5.8363659    2.0783686    23.785006    40.265069 
85636000    273.89143    315.10537    285.80129   -5.6699628    2.8166962    29.304076    40.269788 
85640000     272.9873    328.66467    283.65683   -6.5752168    3.1657695    45.007834    40.274503 
85644000     268.2846    333.21665    269.06509   -5.8892016    3.7757536    64.151556    40.286634 
85648000    266.69594    316.23164    272.50457   -4.9742173    3.8935415    43.727066     40.26557 
85652000    266.06261    288.86707    281.61388   -3.9841711    3.1779416    7.2531884     40.26617 
85656000    261.53455    318.58998    271.61285   -6.1380474    3.8824022    46.977131    40.273968 
85660000    274.24547     325.3187    276.32478   -6.3977082    3.4473752    48.993919    40.281533 
85664000    273.04703    344.55009     285.8331   -7.8165016    3.0663047    58.716994    40.295991 
85668000    273.95961    321.99582    277.86792   -6.5988929    3.4072353    44.127894    40.281013 
85672000    274.03768    326.45914    290.39062   -6.2426618     2.953891     36.06852    40.268884 
85676000    260.35239    320.95738    252.31621   -5.4955944    4.6194764    68.641177    40.286013 
85680000    270.00089     321.9415    271.33607   -5.6396208    3.6771098    50.605426    40.284339 
85684000    274.98993    343.55832    280.82148   -6.5377337    2.7578505     62.73684    40.274668 
85688000     272.7048    319.04132    293.49929   -4.7062465    2.3905956    25.542028    40.284362 
85692000    272.31461    345.15652    267.94251   -5.1641393    2.7170587    77.214009    40.276001 
85696000    278.57014    345.69946    288.31942   -5.1207433    1.3403867    57.380034    40.283971 
85700000    266.08017    306.71025     278.9044   -3.9736592    2.5023216     27.80585    40.269337 
85704000    267.50032    317.74665    265.77482   -4.2981507    2.2941333    51.971833    40.269216 
85708000    271.76516    343.73986    263.59926   -7.3132131    3.0877959    80.140595    40.275226 
85712000    277.69938    319.66127    294.22184   -5.2685216    2.4313332    25.439429    40.294762 
85716000    274.47934    341.93165    267.88688   -5.9154816    2.7113846    74.044774     40.29682 
85720000    274.41011    320.34281     299.5505   -5.9678773    1.7479475    20.792312    40.292051 
85724000    269.05025    313.93326    276.36851   -5.2184726    3.0238533    37.564751    40.288541 
85728000    274.26804    334.97829    257.99587   -6.0769942    3.8152618    76.982419    40.305037 
85732000    276.03297    340.95843    284.05767   -5.8942259    2.2854152    56.900761    40.306171 
85736000    274.35522    328.67483    276.23578    -5.716505    2.7348239    52.439059    40.326652 
85740000    276.39641    320.80805    300.02031    -4.902704     2.301588    20.787746    40.334903 
85744000    264.60072    306.82975    271.15129   -3.1466906    2.9462487    35.678459    40.346808 
85748000    278.09566    335.75801    280.95812   -4.9542504    2.5093106    54.799888    40.352408 
85752000    269.78375    318.70723    264.77586   -5.5045127    2.2670411    53.931371     40.34978 
85756000    264.19787    305.90146     261.5873   -4.0819061    2.9471696    44.314168    40.344675 
85760000    268.93446     318.5647    252.64119   -3.8506445    3.7953322    65.923507    40.359227 
85764000     269.5261    315.55774    279.86828   -4.3796959    2.2896466    35.689454    40.383528 
85768000    272.43572    312.07853    273.85362   -4.7878804     3.317471     38.22491    40.388229 
85772000    276.96415    330.64867    291.85435   -4.8357949     0.840213    38.794319    40.391403 
85776000    268.09629    323.13724      283.893   -5.2912814    1.7222052    39.244236    40.388005 
85780000    277.87339    326.57693     286.3449   -5.0107332    1.5313203    40.232027    40.384234 
85784000    271.36786    329.11098    269.21198   -5.1155677    3.5968507    59.899002    40.388558 
85788000    274.22115    330.31039    285.58755   -4.8223944    1.9089756    44.722844    40.383992 
85792000     265.7125    296.33294    271.97363   -3.9103848    2.4523283    24.359311    40.368909 
85796000    272.21382    326.78433    276.76357   -5.2838987    3.8887495    50.020758    40.369902 
85800000    267.11123    306.78422    286.26994   -4.1788585    2.5607076     20.51428     40.36119 
85804000    273.30293    331.67854    290.65713   -5.5839732    1.0427051    41.021416    40.346733 
85808000    269.99489    321.18065    265.54684   -3.8686057    2.7110997    55.633819    40.355799 
85812000    279.06646     346.9719    264.32205   -5.7689392    2.8293612    82.649854      40.3554 
85816000     274.6313    336.87422    273.10835   -6.0850395    2.8132676    63.765865    40.343297 
85820000    267.49668    327.96823    266.62603   -6.3967425    3.2195124      61.3422    40.347682 
85824000    275.35274    325.25188    286.47337   -4.7310669    2.6135424    38.778512     40.36078 
85828000    260.53897    293.64919    281.56573   -3.3301661    2.0311764     12.08346    40.313029 
85832000    273.45443    326.20045    265.09552   -4.8887353      3.83683    61.104935     40.30767 
85836000    271.87811    310.60094    268.37759   -4.3392862     2.248876    42.223354    40.284907 
85840000    268.00004    306.27641    261.73311   -5.8042433     2.533346    44.543306    40.273927 
85844000    267.01129    313.88249    274.90219   -5.5246128    2.5645994    38.980295    40.276127 
85848000    274.31397    324.87077    273.56467   -5.1256576     2.281017    51.306099    40.278398 
85852000     258.9892    309.66769    260.87183   -3.3570838    3.5843084    48.795859    40.297774 
85856000    263.48692    313.32929    270.56714   -4.7882029    2.4729928    42.762158    40.293293 
85860000     273.8226    340.16066    289.16222   -5.1614412    1.6878797    50.998441    40.309526 
85864000    276.13445    330.35589    287.80007   -5.4094213    1.5499087    42.555819    40.321124 
85868000    270.68812    298.82573    291.32485     -4.63065    2.8163289    7.5008807    40.333164 
85872000    268.51247    313.00389     283.4522   -4.5923726    1.7222586    29.551692     40.33015 
85876000    269.59365    316.68766    268.02241   -3.9684309    3.4729762    48.665251    40.326619 
85880000    266.73598     303.1116    294.97336   -3.5923926   0.93121819    8.1382338    40.302589 
85884000    279.80476     347.3902    283.50734   -6.1170785    2.0888138    63.882852    40.289836 
85888000    275.14008    293.80996    298.41999   -3.5900468   0.52997555   -4.6100284    40.290174 
85892000    277.47414    337.61372    283.59112   -5.6829747    2.1821911      54.0226    40.289837 
85896000    267.75221    321.00319    274.02723   -4.4413847    2.8188108    46.975956    40.285317 
85900000     272.0772    313.31671    280.00279   -6.8274619    2.6930966    33.313918     40.28672 
85904000    272.14032    325.80175    270.81148   -6.9098092    2.7054554    54.990274     40.28433 
85908000    275.78645    318.14429     285.9761   -5.8075599    1.3399372    32.168191    40.290562 
85912000    271.68809    332.45633     270.8573   -5.6164723    2.4639627    61.599027    40.280206 
85916000    270.77488    304.14474    255.18567   -5.4104032    3.4465824    48.959068    40.289104 
85920000    265.02583    313.37072    257.76243    -5.664366    3.1981475     55.60829    40.300759 
85924000    277.83481    331.47969    278.91355   -5.4467219    3.3977801    52.566134    40.300216 
85928000    272.78077    324.26074     265.4919   -5.7198216    2.9409182    58.768836    40.306053 
85932000    267.03495    302.62639    272.09905   -5.4317319    2.6132796    30.527338    40.307719 
85936000    276.74361    342.70954    272.08736   -6.3939949    3.2004786    70.622175    40.317628 
85940000    271.79929    318.95971    274.10741   -4.9120495    2.6687456    44.852306    40.312425 
85944000     276.3625    333.93688    268.50843   -5.6252493    2.6927165    65.428453    40.304571 
85948000    276.19904    335.23031    286.08422   -5.9241795    2.0571216    49.146097    40.305917 
85952000    267.43002    302.38553     289.2756   -4.3631017    2.4874121    13.109937    40.292143 
85956000    285.53757    343.25344    315.31477   -7.1109112    1.2478265    27.938667    40.287806 
85960000    279.56998    339.05189    285.72348   -6.2698727    2.6591586    53.328411    40.292797 
85964000    273.02241     309.3428     274.5544   -4.9719031    3.0147941    34.788398    40.290585 
85968000    274.49911    341.14076    275.50214   -6.8675993    2.8637504    65.638629    40.297637 
85972000    272.92745    325.19207    285.94243   -5.1315503    2.7435436    39.249642    40.299408 
85976000     277.3606    315.73537     304.9742   -5.4067279    2.0382786    10.761173     40.30362 
85980000    283.50756    344.01123    284.24079   -6.6500401    2.3477137    59.770442    40.297448 
85984000    274.37187    311.48701    277.68835   -5.4850027    3.5574824    33.798666    40.298864 
85988000    269.01279    302.63219    279.12084   -5.5853229     2.061097    23.511347    40.304871 
85992000     283.2068    344.54417    276.21951   -6.0974231    1.9451122    68.324652    40.290247 
85996000    261.28487    296.66391    285.18386     -4.79901    1.1286824    11.480046    40.292794 
86000000    269.77642    306.03775    277.47141     -4.78503     2.630316    28.566341    40.297048 
86004000    264.71654    313.36297    257.74771   -5.3053798    3.9726858    55.615261    40.303892 
86008000     265.8337    296.74738    272.64277   -5.2863081    3.0313121    24.104615    40.296452 
86012000    276.19075    320.15174     301.2485   -6.3336173   0.63613162    18.903246    40.286456 
86016000    279.47774    328.31918    281.64089   -5.7303744    2.1457693    46.678293    40.291683 
86020000    270.89784    316.00095    295.97408   -4.7328103    2.1682968    20.026878    40.305404 
86024000    271.08787    331.10971    273.68061   -5.7991931    2.8341518    57.429099    40.307403 
86028000    276.40818    321.39819    288.36195   -5.9603031    2.4095716    33.036234    40.288864 
86032000    277.84633    314.36449    291.38532   -5.7256273    2.4825331    22.979172    40.286429 
86036000    283.84529    344.56947    281.34116   -7.3118237    2.6128646    63.228307     40.28515 
86040000    271.16474     288.0849    281.88362   -4.8254607    2.0675672    6.2012811    40.284079 
86044000    265.50783    306.84411     275.5013   -6.5940309    3.3050692    31.342816    40.276615 
86048000    285.22236    310.21428    310.41142   -6.6109597   -0.4713163  -0.19713672    40.268943 
86052000    282.26147     331.1757    290.53232   -6.7352045    1.4933407    40.643387    40.262999 
86056000    277.81224    322.06113    285.31039   -6.5897653   0.51837866    36.750742    40.273694 
86060000    277.07939    333.99684    287.44723   -6.3671045    1.8617166    46.549614    40.263331 
86064000    272.42308    307.69331    261.82212   -5.6559337    4.2392994     45.87119    40.255377 
86068000     270.2779    330.99058     277.9492   -7.4819428    2.2350953     53.04138    40.252139 
86072000    276.14605    314.61865    284.81949   -5.7408589    1.4631766    29.799159    40.242602 
86076000    275.33659    310.82139    286.02665   -5.6767935      1.47924    24.794739    40.231866 
86080000    283.28351    335.36906    288.83094   -7.6080187    2.8426509    46.538121    40.224816 
86084000    274.20925    306.81244    288.35329   -5.1636097   0.88533275     18.45915    40.215701 
86088000    282.07726    320.51346    291.26137   -6.3777377    1.5849759    29.252089    40.212981 
86092000    273.93385    315.51807    277.53461   -7.0630091    2.8446928    37.983466    40.240462 
86096000    276.12371    336.05251    269.34443   -7.3950377    3.5719438    66.708086    40.240347 
86100000    281.71486      335.145    293.74666     -6.80468    2.1827766     41.39834    40.239655 
86104000    284.60038    314.88923    291.67902   -6.2848595    1.8095763    23.210212    40.242089 
86108000    280.25064    335.90129    298.78491   -6.8263451   0.57109319    37.116372    40.250639 
86112000    275.83364    326.14836    250.52816   -8.0742344    3.3030596    75.620202    40.266862 
86116000    282.94429    321.90891    313.59027   -7.7451515  0.033885959    8.3186399    40.255582 
86120000     272.1804    326.89419    270.74043   -8.1904161    3.6937875    56.153755    40.255179 
86124000    278.24069     326.9406    272.41773   -7.7549628     2.801991    54.522863    40.243383 
86128000     280.4498    327.25194     295.9448   -7.8460484    1.6025603    31.307147    40.250489 
86132000    275.84517    309.57924    281.67691   -6.7375101    2.9414498    27.902332    40.246389 
86136000    281.16863     326.5555    274.38133   -6.6336833    3.3244003    52.174174    40.252342 
86140000    275.70815    324.38686    278.11297   -6.8292377    1.2043957    46.273896    40.249477 
86144000    273.71403    310.68503     279.2156   -6.6273845    2.2592927    31.469435    40.254524 
86148000    272.96463     309.3865    277.68768   -7.0537976    1.7701673    31.698822    40.247835 
86152000    275.66032    322.18016    279.66611   -6.6685164    2.0493085    42.514056    40.243824 
86156000    282.83063    331.72318    286.64576   -7.2505163    2.2250965    45.077426    40.240778 
86160000    264.29856    306.92657    253.32474   -5.4292962    2.9262385     53.60182       40.226 
86164000    278.40478    319.76711    286.90465   -6.9801779    1.4255863     32.86245    40.248836 
86168000    280.41056    323.70545    288.58793    -8.319762    1.7170907    35.117529    40.254226 
86172000    277.03437     329.1209    274.49633   -8.1876121    3.0001416    54.624569    40.250332 
86176000    283.14553    316.46531    303.08786   -6.4365611    1.6825316    13.377451    40.253543 
86180000    278.60127    333.77804    291.49067   -7.6192692    1.7467661    42.287373    40.247873 
86184000    274.59239    310.88466    283.58252   -5.6355981    3.3348693    27.302137    40.249629 
86188000    267.28986    280.39224    274.18858   -6.1896507    3.0125054     6.203659    40.249748 
86192000    278.08622    313.37896    284.88548   -7.4988746     2.445105    28.493481    40.252883 
86196000    271.35834    331.56806    265.51794   -8.3488033    3.4327037    66.050122    40.246926 
86200000    268.82767    312.90433    262.28035     -7.61969    3.1218094    50.623982    40.240649 
86204000    277.55197    316.06651     283.0175   -8.0930147    1.2279549    33.049002    40.238763 
86208000    282.38614    319.39528     290.8413    -7.857955    1.6026836    28.553986     40.23327 
86212000    277.21824    328.46649    266.66843   -8.5252523    2.9640673    61.798062    40.238444 
86216000    285.13412    332.29901    290.84561    -8.406843   0.81350775    41.453403    40.240071 
86220000    275.47537    324.95727    270.50535   -7.9488875     2.527223    54.451926    40.223865 
86224000    277.05475    316.25626    267.16303   -7.4358044    2.6227094    49.093232    40.212998 
86228000    276.62036    324.95173    283.77087   -8.6560617    2.9764449    41.180854    40.213235 
86232000    286.26097     335.8005    277.95412   -8.8321427    1.8814786    57.846382    40.197517 
86236000    277.56431    306.50013    294.88077   -8.4870793    1.9545574    11.619354    40.193168 
86240000    288.84986    342.58965    291.63855   -8.7570331    0.9336191    50.951098    40.194225 
86244000    277.82963    325.36732    296.64529   -7.4437469    1.0896527    28.722031    40.200508 
86248000    269.37418    330.59687    276.21804   -6.7838771    2.3679154    54.378831    40.204754 
86252000    275.56959    321.66427    285.93697   -6.7217701    2.5969506    35.727302    40.201292 
86256000    261.97166    299.61161    255.47433   -6.1962948    4.1390742    44.137278    40.221211 
86260000    275.69142    323.77283    274.92815   -8.2232726    2.6993295     48.84468    40.215233 
86264000    277.88967    327.28254    280.79632   -8.2611543      2.93451    46.486221    40.224832 
86268000    273.11712    328.94819    280.68646   -7.3258035    2.6597255    48.261723    40.229559 
86272000    288.94775    341.83539    303.12292   -7.5090348    3.4286485    38.712471    40.231277 
86276000    267.62744    299.27294    286.12272   -5.8713073    1.2193616    13.150221    40.226442 
86280000    273.36064    303.95277    276.05297   -5.1863517    2.5763204    27.899804    40.243407 
86284000    259.83574    305.71062    262.12699   -6.1873767    4.3272893    43.583627    40.242368 
86288000    275.40569    318.27972     295.3421   -6.2928542    1.7365562    22.937616    40.237351 
86292000    284.01847    358.81634    270.55108    -8.890529    5.0334657    88.265261    40.244407 
86296000    273.63042    314.89926    280.33363   -6.9319545    2.8606385    34.565636     40.24868 
86300000    266.54919    304.07491     287.6287   -4.6109013    3.2280075    16.446204     40.25336 
86304000    273.03621    328.45348    278.54057   -6.8427652    4.3779304    49.912909    40.231544 
86308000    264.16573     296.2798     259.2718   -5.6161816    4.7933856    37.007998    40.255814 
86312000    268.01889    319.29707    277.29571   -5.8768119    3.0444639    42.001364    40.243459 
86316000    282.55291    341.45647    267.29021   -7.8139092    4.0769708    74.166258    40.243173 
86320000    284.18781    337.30164    311.79647   -7.5078554    1.8967153    25.505167    40.251819 
86324000    267.96208    310.71323    263.58658   -5.3457754    4.2621262    47.126648    40.263329 
86328000     270.9111    338.00235    273.38914   -6.6393618    4.4256206      64.6132     40.26904 
86332000    270.49755    318.25359    281.72036   -6.7777616    3.0429195    36.533224    40.288404 
86336000    268.55102    314.56291    281.48217   -6.5717152    3.1277388    33.080746     40.27679 
86340000    265.99666     305.5282    259.37788   -6.0384537    3.8675709    46.150322    40.288891 
86344000    281.84611    333.89351    298.06925   -7.8546336    3.2081593    35.824253    40.285633 
86348000    275.88728    329.98086    258.26908   -7.7129762    2.9008829    71.711781    40.286863 
86352000    277.44705    323.02752    286.76967   -6.6840568     2.476071    36.257845    40.293335 
86356000    267.45373     304.3598    295.93118   -6.1607605     2.327946    8.4286211    40.289121 
86360000    273.83375    324.94943    280.68826   -5.9826892    4.2238443    44.261174    40.303303 
86364000    266.13032     308.1546     264.1039   -6.2688465    5.5368962    44.050704    40.307445 
86368000    277.97069    327.06248    286.56669   -7.7135822    3.5443671    40.495796    40.303359 
86372000    278.23289    330.05001    315.91464   -7.9030253    1.0908374     14.13537    40.316326 
86376000     276.6539    341.97768    268.40812   -7.3749213    3.2575888    73.569554    40.308904 
86380000     269.3488    313.59302    272.06212   -6.8909675    4.4048257    41.530896    40.305522 
86384000    277.74898    337.89432    292.04875   -8.3016435    3.3285878    45.845569    40.307963 
86388000    263.54654    312.34478    262.33065   -6.4425626    4.5609331    50.014131    40.307853 
86392000    280.62298    349.79634    283.38253   -8.5543494    4.1270976     66.41381    40.306519 
86396000    279.55243    332.98401    297.26783   -8.2086946    3.5898402    35.716181    40.309074 
86400000    264.81437    302.30974    266.26377    -6.879041    4.0148683    36.045975    40.297163 
86404000    273.58984    325.67996    288.79213    -7.745293    3.8940477    36.887826    40.286454 
86408000    274.20234    308.63649    285.05426   -7.0790144     3.128983    23.582225    40.279593 
86412000    270.76496    324.96319    261.57847   -6.8992112    4.0085096    63.384715    40.289036 
86416000    274.73866    336.42495    271.93932   -7.3235096    4.3485387     64.48563    40.283263 
86420000    271.31643    335.64856    278.30853   -7.2473553    4.6297122    57.340032    40.278651 
86424000    271.24179    309.33716    278.28829   -6.2552954    4.1565424     31.04887    40.291665 
86428000    278.13311    330.35927    276.76969   -7.8815753    3.6016469    53.589586     40.29265 
86432000    280.06115    337.56622    287.65919   -7.4557144    2.9982871    49.907033    40.284241 
86436000     269.1162    319.04269    276.70294   -7.0170947      3.66803    42.339746    40.278912 
86440000    272.29466    314.25307    279.96529   -6.5381211    2.9365263     34.28778    40.282569 
86444000    275.99522    303.12767    298.48086   -5.3371067    2.4032339    4.6468073    40.281511 
86448000     271.9977    326.74913    283.59907   -8.0208849    3.1054872    43.150063    40.282724 
86452000     268.0317    315.44392    272.48308   -6.7814205    4.5972645    42.960839    40.283735 
86456000    267.19948    318.49911    268.93329   -7.0788827    5.1432255    49.565818    40.293998 
86460000    268.70097    324.69518    275.01945   -7.5354725    4.8326844    49.675729    40.294334 
86464000    280.11994    348.64014    284.86227   -8.2910657    4.4246969    63.777875    40.300127 
86468000    269.44593    311.18002    282.98566   -7.8196003    4.7102364    28.194357    40.313477 
86472000    272.24641    326.82062    287.83545   -7.5346067    4.6344008    38.985177    40.315347 
86476000    266.34926    312.93349    289.00232   -8.0117817    3.7770654    23.931167    40.316381 
86480000    273.68088    314.39595    290.79071   -7.3467524    3.1787078    23.605239    40.324573 
86484000    273.97575    300.80122    293.57348   -7.6760751    3.0928019    7.2277392      40.3189 
86488000    271.45802    333.14774     273.2297   -10.018892    4.4272554    59.918036    40.318104 
86492000    273.38804    334.31163    283.05777   -7.2184113    3.7115377    51.253856    40.308544 
86496000    270.12904    323.56203    272.73844   -6.3181454    5.2467278    50.823588    40.302691 
86500000    281.99127    331.80946    297.51277   -7.1831257    4.6083484    34.296698    40.315709 
86504000     272.6488     332.3117    279.69163   -7.6669594    4.2124643    52.620069    40.320283 
86508000    281.40029    328.20636    293.72105   -8.3712692    3.5519416    34.485314     40.31056 
86512000    272.88382    310.07896    280.71957   -7.6517125    4.6720466     29.35939    40.305937 
86516000    272.70541    325.38818    275.84053   -7.9674493    4.5489689    49.547656    40.310012 
86520000    277.88371    332.10229    261.86442   -9.0395428    4.4217705    70.237873    40.300977 
86524000    284.70485    320.96497    295.89731   -7.6521967    3.5880144    25.067662    40.295359 
86528000    279.51889    319.87868    281.41824   -6.5549759    3.5596839    38.460445    40.301026 
86532000    267.72977    313.89273    276.59962   -7.5234099    3.9147058    37.293105     40.30232 
86536000    271.96426    329.24008    253.99292   -8.6119739    3.6251165    75.247158    40.306091 
86540000    283.81374    339.01603    292.78766   -8.4962408    2.5663842    46.228371    40.308282 
86544000    265.42821    294.50022    252.07252   -6.1263537    5.6691959    42.427699    40.312903 
86548000    278.65678    324.88964    283.77614   -7.8865967    3.8096086    41.113504    40.309967 
86552000    263.68095    300.25104    288.69704   -7.8447017    3.4979394    11.553999    40.315242 
86556000    273.66487    312.09923    267.55945   -7.4479657    4.7993835    44.539781    40.307779 
86560000    274.68228    313.15939    271.08105   -8.1636457    4.7975918    42.078335    40.302076 
86564000    276.20189    304.29461    281.51101   -8.0791195    4.8053717    22.783602    40.305275 
86568000     287.0246    334.14778    292.00506   -9.0062899    4.0440959    42.142724    40.304423 
86572000    275.91062     321.6725    289.29861   -8.6557273    4.1269213    32.373888    40.313313 
86576000    266.68962     311.1358    250.03724   -6.9814413    5.9185291    61.098564    40.312427 
86580000    272.33938     317.2927       278.52   -8.7449226    4.8848129    38.772701    40.310193 
86584000    263.76649    291.09357    268.77881    -5.834547    4.8573888    22.314763    40.321355 
86588000    277.60365    316.49795    301.33427   -8.2572285    3.5926788    15.163678    40.314521 
86592000    280.82667    330.52919    297.46244   -9.0279815    3.3792005     33.06675    40.312187 
86596000    275.18203    315.37444    281.19532   -8.6431741    4.4559864    34.179123    40.307036 
86600000    267.52341    307.99623    264.79417   -7.6165111    5.4081237    43.202063     40.30645 
86604000    266.10937    314.18342    286.63829   -8.2420783    4.1541181    27.545126    40.295961 
86608000    266.97245    304.38626    253.01571   -7.6077075    6.1594527    51.370548         40.3 
86612000    274.54694    324.96357    270.42879   -8.0917038    5.2388689    54.534784    40.307886 
86616000    274.23266    323.00807      275.804   -7.5477675    4.9533137     47.20407    40.300056 
86620000     273.8529    322.98258    282.17466    -8.837673    4.5688001    40.807926    40.300315 
86624000    278.34707    331.01877    286.25557   -8.7094316    4.2138337    44.763209    40.308526 
86628000    274.81967    325.45046    279.87428   -8.7045631    4.7229942    45.576179    40.306308 
86632000    271.69023    312.19331    284.55003   -8.3385438    4.6741598    27.643275    40.303546 
86636000    267.31595    303.26376    268.98334   -8.9678905    6.2027068    34.280411    40.296163 
86640000    270.90422    334.08559    262.79099   -10.594015    5.4393692      71.2946    40.298603 
86644000    276.61577    325.12731    274.19936   -9.2428385    5.1710648    50.927954    40.301292 
86648000    275.83303    316.13208    283.87535    -7.316382    4.7820595    32.256726     40.29727 
86652000    277.79669    342.87419    286.47017   -9.2182779    4.8390156    56.404023    40.297035 
86656000    270.66299     310.0102    277.86906   -8.1089705    4.3859822    32.141136    40.296878 
86660000    275.27635     308.6039    305.12072   -7.2435099    2.7830372    3.4831792    40.294768 
86664000    273.85357    338.40537    261.84486   -9.0743958    5.5622124    76.560513    40.297595 
86668000    272.69471    315.96009    284.14716   -8.3966586    3.7605214    31.812924    40.296903 
86672000    265.33773    293.44589    270.95538   -6.8511673     5.698943     22.49051    40.289745 
86676000    271.78795    324.30583    271.51156   -9.1980984    5.6032244    52.794272    40.292883 
86680000    283.93366    319.11408    294.68832   -9.2821356    4.0688564     24.42576    40.306416 
86684000    277.06578    329.96436    278.80503   -9.7560372    5.4598207    51.159323    40.320841 
86688000    282.50755    315.24821    283.77689   -9.2401382    4.7144816    31.471317    40.322677 
86692000    278.60375    332.16968    272.86298   -10.165832    4.2694325    59.306691    40.322246 
86696000    280.76032    314.57247    278.24636    -8.764436    6.0534561    36.326109    40.327808 
86700000    281.51006     337.0052    266.26644   -9.0849228    5.9075995     70.73876    40.321873 
86704000    280.50957    333.30874    264.36473   -9.9135899    5.0656129    68.944008    40.329763 
86708000    266.41583    298.27206    287.20624   -8.8240851    5.5402832    11.065823    40.330693 
86712000    282.90959    339.85216    296.20765   -10.771752    4.4472643    43.644513    40.334941 
86716000    281.40542    325.72043    294.73942   -10.120818    5.0427113    30.981012    40.341114 
86720000    267.53999    304.80922    265.04567   -8.4289093    5.8191457    39.763554    40.345892 
86724000      268.015    310.53107    278.56324   -9.2650494    5.6048227    31.967838     40.35264 
86728000    272.71459    326.16474    280.40322   -10.261027    5.4417589    45.761523    40.345687 
86732000    268.87271    312.03412    271.37569   -9.7401537    5.9985992    40.658425    40.343333 
86736000    262.82037    313.49524    260.07547   -9.9241577     6.773253    53.419778    40.337567 
86740000     266.7203    301.77364    249.24463   -8.7766446    6.2476779    52.529009    40.335291 
86744000    279.12935    320.31726    285.00164   -9.3211871     4.913675    35.315622    40.336826 
86748000     277.8346    326.73338    281.52949   -9.8730807    4.5428917    45.203885     40.34311 
86752000    265.42159    312.29091    264.01372   -8.5649066    6.1745328    48.277191    40.336003 
86756000    270.61629    311.64126    272.67513   -7.6005721    6.6966169    38.966131     40.33522 
86760000    278.59573    342.13614    276.72068   -9.0472573     6.756392    65.415462    40.338325 
86764000    271.82076    344.90394    266.87783   -8.8243167    5.3768529    78.026109    40.341293 
86768000    271.88446     317.4754    284.07417    -7.508191    5.0816205    33.401231    40.344062 
86772000    275.02643    333.20574    279.00047   -7.9526051    5.6092968    54.205276    40.346489 
86776000    277.25625    312.72984    293.01362   -7.9901965    5.2137173    19.716221    40.350628 
86780000    265.45059    304.41493    270.14854   -6.7442124    4.9374826    34.266393    40.345074 
86784000    278.95405    348.31295    285.51168   -7.7069148    5.0101271    62.801265    40.344633 
86788000    271.97403    322.56767    282.80833   -8.6532291    4.1886155    39.759335    40.350741 
86792000    274.09542    303.93433    294.00195   -6.7259959    3.6440732    9.9323824     40.34572 
86796000    261.86803    321.89541    251.71482   -7.9417141    6.3693071    70.180591    40.351732 
86800000    272.88998    321.03133    270.65801   -9.4185062    5.5487982    50.373327    40.351406 
86804000    281.50943    344.39287    284.81294   -9.8598288    5.7342185    59.579936    40.351157 
86808000    278.03366    332.81652    281.21709   -9.5052019    5.6692998    51.599429    40.350707 
86812000    274.89496    323.51572    288.29911   -9.1005691     5.821229    35.216606    40.352086 
86816000    276.90795    346.82396    261.78013   -10.081576    6.8047927    85.043827    40.347778 
86820000    272.73066    321.79606    265.71952   -7.9441828    7.2219129     56.07654    40.345448 
86824000    272.17431    293.45151    289.17447   -7.8842944    4.8403333    4.2770391    40.334804 
86828000     269.1176    334.57033    273.85686   -9.6083607     6.355535    60.713461    40.335536 
86832000    280.05396    342.54522    284.20629   -10.660688    5.5814242    58.338924    40.331397 
86836000    276.86466    334.85339     283.6547   -9.9567678    5.5520375    51.198695    40.327805 
86840000    275.26554    321.37878    282.55181   -8.8296334    6.1172402    38.826969    40.320222 
86844000     271.5196     341.0079    260.55823   -9.2360234    6.1588036    80.449679    40.316516 
86848000    270.24932    292.18274     283.7209   -6.3666928    5.6436806    8.4618439    40.304898 
86852000    275.36232    322.13425    295.45128   -8.7490206    5.8668578    26.682965    40.303972 
86856000    279.79695    325.93506    285.40625   -9.1316279    5.6787686    40.528809    40.306435 
86860000    261.93472    305.20993    270.90253   -7.6107055    5.7714602    34.307398    40.303022 
86864000    264.99272    312.31876     278.5633   -7.8267204    5.3790158     33.75546    40.306227 
86868000    279.15688    329.03332    291.91097   -8.7192886     4.844413    37.122355    40.309302 
86872000    270.61933    313.53771    275.21159   -8.1549062     5.474173    38.326113    40.309114 
86876000    270.84634    328.16217    258.59803   -8.6007953    6.7012882    69.564135     40.30559 
86880000    271.94939    362.92094    264.76831   -10.751433    6.8645716    98.152629     40.30208 
86884000    271.63776    326.64779    286.87931   -7.6125169    6.1893978    39.768473    40.299798 
86888000    291.39792    341.60011    317.31401    -9.766937    3.4751612    24.286102    40.296716 
86892000    270.50549    331.22574    271.44214   -9.5668288     5.662359    59.783603    40.308221 
86896000    266.57876    313.24413    282.47914   -8.5443447    5.7550999    30.764986    40.304172 
86900000    276.71334    333.96203    292.84824   -8.9425145    6.1191202    41.113784    40.302768 
86904000    272.35989    311.24933    272.90698    -7.702701    6.5444143    38.342348    40.295409 
86908000     275.3732    303.01102    323.92179   -7.2628201    3.2476994   -20.910767    40.289413 
86912000    281.72115    329.70696    289.85245   -7.7277594    4.4465689    39.854508    40.293075 
86916000    275.56589    339.15372     284.2869   -8.0024836    4.6777737    54.866822    40.292386 
86920000    268.82441    321.39352    264.99943   -8.2444864    6.1708834    56.394086      40.2976 
86924000    266.67282    305.57469    281.34584   -7.9819851    5.9817719    24.228859    40.287021 
86928000    265.31809    315.11624    274.66451   -7.0990139    6.2387366    40.451728    40.286389 
86932000    270.68375    310.59025     286.8883   -7.3015668    5.6344031    23.701942    40.274914 
86936000    270.65524    317.54706    261.12305     -7.58843    6.5612672    56.424002    40.273212 
86940000    272.64535    301.64946    275.86484   -6.6396965    6.2339464    25.784622    40.268577 
86944000    265.31091    298.08805    279.40709   -6.6047371    6.1611108    18.680958    40.266636 
86948000    274.56252    332.08981    293.10368   -8.7834764    3.9250551    38.986123    40.270712 
86952000    279.14346    335.67156    306.03938   -8.2249684    4.6873937    29.632176    40.273958 
86956000    265.63988    311.23291    263.76345   -6.9406798    5.1733286    47.469461    40.257455 
86960000    273.21042    318.32368    294.08814   -8.1408174    4.8843875    24.235544    40.268459 
86964000    266.70575    321.57157    270.33488   -8.5418512    5.0594926    51.236691    40.266344 
86968000    272.92986    331.56424    277.67215   -9.2415799    5.6010284    53.892092    40.267005 
86972000    277.73131    318.53794    297.02318   -8.2692289    4.9788823    21.514754    40.269932 
86976000    273.63027    319.11443    288.92906   -8.3759344    5.7177986    30.185369     40.27089 
86980000    276.97529    320.49462    281.25563   -7.1245439    4.4810615    39.238992     40.26999 
86984000    271.14144    318.35722     275.9232    -7.833131    4.8882653    42.434023    40.272336 
86988000    271.98953    320.08417    293.50784   -6.9796452    4.6272431    26.576333    40.270995 
86992000    272.93152    316.36097    280.60998   -7.0303937    4.6648198    35.750989    40.265727 
86996000    275.15638    304.87016     306.3228   -8.6567944    3.2307717   -1.4526415     40.26836 
87000000    279.08306    343.98703    280.82837   -10.087654    5.2331831    63.158662    40.272246 
87004000    278.61415    331.80183     301.2415   -8.3967822    3.8971748    30.560329    40.272398 
87008000    264.66156    305.96127    274.53158   -7.0326928    4.8065012    31.429697    40.277473 
87012000    270.90298     329.7664    270.91676   -9.2115238    5.4753904    58.849646    40.273514 
87016000    274.48441    323.26793    273.59419   -9.9178332    4.9614413    49.673742     40.28232 
87020000    274.10145    332.29928    271.09741   -10.768862     4.936919    61.201862    40.279914 
87024000    283.62293    345.36015    281.68146   -9.7872638    4.7657498    63.678698    40.278496 
87028000    281.00758    330.55921    281.20968   -9.3308988    4.5997331    49.349533    40.287386 
87032000    271.97485    296.72014    294.36833    -6.676844    3.6943555    2.3518075    40.283833 
87036000    271.45736    304.40748    273.01914   -6.8574234    4.6524698    31.388334    40.285346 
87040000    273.31583    325.29514    280.03622   -8.9806666    4.2883004    45.258914    40.276438 
87044000    268.36868    309.31006    267.17816   -6.9320319    5.2703674    42.131899    40.273537 
87048000     272.3377    314.40655    278.30776   -7.5808815    4.8508458    36.098789    40.270845 
87052000    270.52003    305.50457     287.3299   -6.4957908    5.1414522    18.174666    40.272375 
87056000    273.27756    330.02066    265.44463   -8.3901567    5.4044677    64.576031     40.26916 
87060000    274.45603    312.85115    289.82688   -7.6588535    4.3158678    23.024263    40.266927 
87064000    273.37844    326.48858    280.22812   -9.7161533    4.8967931    46.260457    40.269221 
87068000    269.76844    326.02421    271.19802   -8.6587511    6.0440942    54.826182    40.268615 
87072000    274.63905    339.70691    277.37177   -9.8301224    4.1266339    62.335137    40.267142 
87076000     269.0579    322.23815    276.04659   -9.2902258    3.9194651    46.191555    40.270838 
87080000    267.81982    321.48461    270.33203   -8.5321476    4.1089725    51.152575    40.269136 
87084000     278.4302    340.37124    264.23493   -9.7399686    5.7252108    76.136314     40.26932 
87088000     282.8765     338.4643    305.09289   -9.3581758    2.8530251    33.371405    40.272784 
87092000    273.71824    332.06521    275.65145   -7.4315058    5.3979451    56.413765    40.270296 
87096000    268.56869    326.31738    260.58496   -7.7934382    4.8546139    65.732412    40.284075 
87100000    263.56425    306.93481    259.10056   -6.9231722    5.6514487    47.834244    40.279499 
87104000    266.45683     313.9641    266.02926   -7.3771049    4.3205407    47.934838    40.277956 
87108000    270.02023    317.74657    284.40109   -7.4696555     4.346942    33.345484    40.277518 
87112000    279.43238    350.24853    274.60955   -9.1394612    5.6179813    75.638985    40.284279 
87116000    272.58412    324.21275    281.92857   -9.0414351    4.2082229    42.284174    40.290628 
87120000    282.82316    352.88845    287.59864   -9.7298792     4.377216    65.289812    40.292645 
87124000    266.56452    328.54185    256.62056   -8.6254246    6.4585841    71.921294     40.29876 
87128000    266.83608    314.98388    278.52708   -6.3964451    5.1386252    36.456803    40.300279 
87132000    264.98077    315.69505    270.90802   -8.2373593    6.0073176    44.787024     40.30527 
87136000    269.18289    295.78661    288.20955   -6.4267279    4.6542673    7.5770552    40.302254 
87140000    278.02414    326.32134    277.59504   -8.0630709    4.7317984    48.726293    40.300993 
87144000    266.65542    304.23426    274.83608   -5.7112133    4.7002415    29.398176    40.306154 
87148000    265.70679    311.66676    283.41898   -6.2398042    4.9261303    28.247784    40.303061 
87152000     273.7831    303.56096    281.88003   -6.4438756    5.8543845    21.680931    40.300558 
87156000    262.95037    309.25885    264.82711   -7.9221149    6.3577695    44.431738    40.298181 
87160000    269.64894    326.27046    286.96351   -7.7330619    4.1841091    39.306953    40.296416 
87164000    265.11578    309.36913    274.26395   -5.9646502    5.3421734    35.105178    40.298322 
87168000    268.82408     300.0806    270.30447   -6.6155013    5.9011142    29.776122    40.302735 
87172000    278.26483    351.65338    275.98346   -8.3643246    5.6077454    75.669912    40.302127 
87176000    256.69995    305.64902    253.88768   -6.0002697    4.8677105    51.761332     40.30171 
87180000     266.1282    332.43401    271.37373   -6.8934034    5.6832659    61.060282     40.30638 
87184000    268.59463    316.43518    263.64824   -8.3930741    4.8909602    52.786937    40.311267 
87188000    275.03421    312.64344     286.5986   -7.5541784    5.0275587     26.04484    40.313995 
87192000     263.5699    308.52269    269.19243   -6.8631994    5.0637673     39.33026    40.318572 
87196000    267.69427    298.23326    260.73441   -5.6319203    4.6694681    37.498854    40.321377 
87200000    272.14876    327.49076    270.97479   -7.6574348     4.505103    56.515966    40.316869 
87204000    272.76777    330.37889    283.15839   -8.2183912     5.259539    47.220497    40.323385 
87208000    275.98725    317.03774    284.34689   -7.0621464    5.2860272    32.690851    40.319746 
87212000    267.12338    322.47694    259.06893   -8.1496561    7.0802209    63.408017    40.316274 
87216000    281.89441    346.15018    292.30502   -8.7670853    4.2544822     53.84516    40.317967 
87220000    275.54651    307.19306    279.29821   -6.7548501    5.7747425    27.894857    40.318931 
87224000    277.47242    339.78071     307.7585   -8.3750167    5.0044137     32.02221    40.313918 
87228000    285.36322    344.88437    309.44402   -8.0383204    4.7689027    35.440347    40.315389 
87232000    268.45527    319.48009    267.81414   -7.9156395    6.8947383    51.665944    40.318589 
87236000    274.69342    336.92047    280.12398   -8.7924614    5.5348483    56.796493    40.314042 
87240000    270.91783    321.97234    296.30478   -7.0120796    6.0434445    25.667561    40.318928 
87244000    274.45793     322.7418    304.59574    -7.312043    4.4340463    18.146062    40.321009 
87248000    269.97284    327.24377    275.05076   -8.2634302    5.0991033    52.193013    40.318247 
87252000     270.1165    325.02632    273.67471    -7.848871    5.3191856    51.351611    40.315814 
87256000    261.78353    302.23471    270.35445   -6.0377575    6.0089406    31.880253    40.307398 
87260000    271.37499    321.78767    283.62044   -8.1402496     5.635153    38.167234    40.306615 
87264000     269.7007    331.43201     287.5144   -7.2914244    5.5053467     43.91761    40.302376 
87268000    266.22246     314.3584    270.42976   -7.6543037    5.4502483    43.928637    40.299012 
87272000     270.5991    314.07157    306.47637    -7.294527    4.0209293    7.5951968    40.298623 
87276000    258.46396    299.95361    262.91719   -6.7741743    6.7497141    37.036423    40.298414 
87280000    269.54339    329.51857    282.21752   -8.4465765     5.561127    47.301048    40.293046 
87284000    260.62722    293.30574    275.23972   -5.9087028    6.6105836    18.066025    40.291151 
87288000    280.96721    321.22832    309.54241   -7.1422483    4.6690007    11.685909    40.292066 
87292000     271.5155     313.1483    291.84837   -6.1420526    4.8974203    21.299928    40.294022 
87296000    275.18997    335.13774    297.61627    -6.822819    4.1964734    37.521471      40.2868 
87300000    275.57041    326.33969    294.52707   -8.1551723    4.4435144    31.812622    40.289977 
87304000    272.48961    323.28714    286.66401   -7.9464294     5.521293    36.623135    40.294904 
87308000    267.42976    309.47401    272.78528   -7.5731824    5.6064851    36.688732    40.294489 
87312000    276.11473    338.00135    284.05173   -8.8646092    4.8715318    53.949617    40.296256 
87316000    270.76985    325.49489     278.2942   -7.9513091     5.199615    47.200691    40.292734 
87320000    272.44486    329.84068    280.79535   -8.8534265    5.1419755    49.045335     40.28788 
87324000    276.29658    314.26898    300.33597   -7.6706775    3.7335281     13.93301    40.284087 
87328000    273.77378    340.27825    259.86984   -9.1318165    6.4869708    80.408409    40.283761 
87332000    275.09415     322.4906    275.41909   -7.3505294    6.1877521    47.071514     40.28725 
87336000    268.79304    301.73878    286.80896    -6.436161    5.4571295    14.929822    40.289539 
87340000    267.66668    315.47006    274.15753   -6.8680017    6.1864757    41.312533    40.291138 
87344000    275.93368    317.03698    296.36468    -6.912888      5.04631    20.672306    40.292241 
87348000    274.87272    369.22698    253.53068   -9.4187956    6.3014665     115.6963    40.295755 
87352000    266.57678    317.65558    272.64688   -5.9004304    6.1038468    45.008695    40.293521 
87356000    278.83145    330.38622    302.41198   -8.4258149    3.7899255    27.974235    40.294322 
87360000    271.15887    318.78045    300.88796   -7.7262202    4.5553738    17.892493    40.289029 
87364000    268.62277    305.04156    293.52218   -7.2108603    4.2305009    11.519387    40.290672 
87368000    265.83932    319.89231    285.97407   -9.3110289     5.385886     33.91824    40.290378 
87372000    270.58856    309.19399    297.88548    -7.379763    5.1435511    11.308507    40.286444 
87376000    263.86435    305.45859    272.61271   -7.7847128    6.7416881    32.845882    40.281645 
87380000     272.1744    317.59711     295.0602   -7.0030753    5.3106314    22.536907    40.281869 
87384000    268.20859    314.68451    271.81429   -7.8948338    6.2639124    42.870225    40.281263 
87388000    274.65972    341.91138    298.88535   -7.9567484    5.2958689    43.026033    40.281264 
87392000     271.3929    330.58698    259.89784    -8.220084     7.158038    70.689144    40.283697 
87396000    270.10121    328.50805    276.84565   -7.7200546    5.5313653    51.662402    40.274467 
87400000    270.97316    331.03978    276.44448   -7.7907298    6.0267942    54.595302    40.276775 
87404000    267.01876    321.67196    282.42236   -8.0556504    6.5365708    39.249594    40.273746 
87408000    266.07492    327.41985    263.53177   -8.2736732    6.6453674    63.888075    40.269434 
87412000    263.89145    307.32006    278.65296   -8.0039181    5.5440137    28.667094    40.264958 
87416000    265.78077    311.27124    280.83497   -6.5578279    6.5038734    30.436276    40.260187 
87420000     260.3737    306.96953    285.65378   -7.4927915    5.8933569    21.315744    40.264719 
87424000     267.4745    310.43634    276.75133   -8.2187193    6.3048389    33.685005    40.269086 
87428000    279.84452    340.52589    275.28751   -8.5831534    6.1242395    65.238381     40.26981 
87432000    277.97544    332.68806    294.79324   -9.3767174    4.6942404    37.894816    40.274506 
87436000    269.66219    317.76702    262.65076   -7.6444359    5.7794722    55.116263    40.280698 
87440000    267.99766    310.04782    274.12933   -6.3077032    5.1386561    35.918483    40.282726 
87444000    273.04719    345.34426    266.39415   -8.8277815    6.4346809    78.950109    40.288948 
87448000    268.45017    318.39459    278.31228   -7.7952248    5.8694299    40.082305    40.291432 
87452000    272.38054    340.11415    268.92595   -10.183445    6.2879763    71.188204    40.297459 
87456000    271.81622    331.73404    286.85279   -9.3894714    5.0710066    44.881252    40.297859 
87460000    280.85582    333.97683    301.87729   -9.3679721    4.2396446    32.099534    40.295419 
87464000    268.15344    295.61135    299.14751   -6.7657011    4.5111024   -3.5361569    40.294989 
87468000    277.18006    324.48153    277.01865   -8.5451879    5.6744874    47.462883    40.294547 
87472000    268.44669    327.96362    276.06426   -9.5666398    6.5247598     51.89936    40.297889 
87476000    278.03495    332.86675    291.18697   -8.8900359    4.8694676    41.679786    40.299605 
87480000    263.72057    291.91232    282.12453   -7.3737076    5.9188691    9.7877888    40.301203 
87484000    263.68715    304.70189    281.19915   -7.6789635    5.7640864    23.502734    40.296974 
87488000    271.15116    305.00843    268.61176    -7.158047    6.5874367    36.396668    40.292916 
87492000    277.22626    310.87146    282.95439   -9.5599208    4.5029776    27.917071    40.290695 
87496000    277.78836    315.57451    298.34287   -9.3577729    4.5679503    17.231645    40.290506 
87500000    267.98094    316.35829    276.79435   -9.7423211    5.3528356    39.563941    40.292204 
87504000     278.7528    326.76081    297.27425   -10.253592    5.4263556    29.486567    40.293886 
87508000    270.69106    311.45587    288.57951   -9.1672701    4.5895788    22.876351    40.287804 
87512000    265.05964    305.69924    255.70956   -9.7556892    8.3416414    49.989681    40.286292 
87516000     274.0552    349.00087    265.59847   -10.840742    7.5438266    83.402393    40.288986 
87520000    269.02365    324.14404    261.69721   -9.8118287     6.345606    62.446836    40.290246 
87524000    262.90207    307.80282    278.99871    -7.670161     5.899131     28.80411    40.291659 
87528000    260.69227    277.18814    279.82882   -6.1247771    6.3822426   -2.6406817     40.28901 
87532000    270.66545    320.75642    268.31865   -8.9802711    7.6710548    52.437774    40.287528 
87536000    279.60769    316.96243    296.29473   -9.7163865    6.5103252    20.667702    40.285427 
87540000    274.17463    303.73412    288.16827   -9.0760204    5.8339148    15.565849    40.284179 
87544000    265.11246    305.86257    283.18003   -8.4784395    5.6485305    22.682532    40.284844 
87548000    272.40706     334.4273    261.09756   -10.185558    6.5039869    73.329738     40.28212 
87552000     268.0499    302.57691    276.60881   -7.2045653    7.0507023    25.968105    40.280343 
87556000    269.90744    300.88762    284.04078   -8.8831337    5.7974099    16.846842    40.280006 
87560000     268.6139    311.21815    270.21963   -7.9045214    6.1523384    40.998517    40.280275 
87564000    281.60118     339.2741     293.1438   -9.8663537    5.3547395    46.130303    40.278959 
87568000    270.25004    325.15411    281.75632   -9.3358599    6.1745301    43.397792    40.278953 
87572000    269.99555    313.62768     276.9302   -9.0707962    6.1009315    36.697483    40.281274 
87576000    268.62437    331.23471    271.66396    -9.064691    6.1622945    59.570746    40.278484 
87580000     280.0341    343.66112    281.24473   -10.047838    5.3101835    62.416383     40.27436 
87584000    268.37741    311.73282      274.794   -9.0892347     6.973318     36.93881     40.27482 
87588000    268.93068    310.12223    273.81973    -10.09978    6.6084679    36.302504    40.272223 
87592000    276.50229    318.66717    286.39194   -10.928746    6.0936158    32.275235    40.270907 
87596000    269.21302    304.61508    289.99775   -9.4808835    5.7118012    14.617334     40.27096 
87600000    274.15582    304.32946    301.91539    -9.946164    4.6196152      2.41407    40.263155 
87604000     272.7713    301.78836    288.15302   -9.4971136    5.5940517    13.635344    40.264752 
87608000    272.37989    335.48419    274.19413   -10.200543    6.6732443    61.290054     40.26264 
87612000    268.45547     318.6749    277.71773   -9.2447079    6.5373557     40.95717    40.262546 
87616000    267.91896    308.77473     261.1716   -8.3762905     5.976157    47.603134     40.26654 
87620000    263.15885    293.12606    275.52163   -6.7533978    4.7907994    17.604439    40.262201 
87624000    278.25097    337.37257    299.24115   -7.8104226    5.9099263    38.131424    40.256663 
87628000    273.78113    296.40834    299.83422   -7.0764039    5.1754182   -3.4258879     40.25993 
87632000    271.94687    326.25741    264.74894   -8.8932142    5.9577766    61.508467    40.258635 
87636000    275.06686    333.47532    282.34235   -10.023577    5.1169229    51.132969    40.248222 
87640000    272.24851    310.20093    291.86141    -6.823429    5.2607928    18.339516    40.245238 
87644000    272.41444    321.51628    289.11571   -9.1278748    4.7103464    32.400564    40.239203 
87648000    274.05626    327.12664    266.10902    -8.338587    6.5284319    61.017617    40.236877 
87652000    265.95212    296.44347    274.06742   -7.3669873    6.5651434     22.37605    40.239314 
87656000    266.09751    321.72465    263.53093   -7.9717144    6.5803453     58.19372    40.239675 
87660000    275.98581    341.98845    277.32092   -8.4910418    5.8570834    64.667527    40.233781 
87664000    277.05174    331.28821    284.70111   -7.0714588    6.0217446    46.587094    40.233881 
87668000    267.12788    318.60096    265.42016   -7.2708587     6.192998    53.180796    40.234077 
87672000    266.96545    321.74839    285.90903   -8.1744862    5.6478408    35.839356    40.235783 
87676000    272.74403    317.78588    281.01148   -8.8680274    5.6991062    36.774404    40.236543 
87680000    265.58147    304.10055     289.9252   -7.6411697    6.4468279    14.175354     40.23676 
87684000    267.48292    319.87934    262.13373   -7.8127594    7.2882599    57.745617    40.230813 
87688000    271.77918    322.26575    282.73314   -8.9410627    6.0826492    39.532611    40.237129 
87692000    270.93243    316.32759    295.05679   -8.3791249    5.5771916    21.270806    40.241589 
87696000     272.0241    345.96868    274.19765   -9.8837651    6.8350231     71.77103    40.246241 
87700000    267.43095    321.14547    268.35231   -9.5384235    7.2697321    52.793156    40.248618 
87704000    264.79002    323.98774    264.40357   -10.245957    6.5581849    59.584173    40.251365 
87708000    279.13859    321.29383     300.3957   -9.8358389    5.3942926    20.898135    40.248402 
87712000    268.33493    295.97123    300.98171   -7.7066112    4.8544095   -5.0104797    40.250314 
87716000    273.34066    307.68849    300.92142   -8.6946565    4.8615549    6.7670669    40.250329 
87720000    266.73426    313.30893     276.7329   -7.1399619    4.5243055    36.576034     40.25641 
87724000    271.90085    313.77343     289.6641   -7.8547444    5.1257069     24.10933    40.256872 
87728000    273.09941    319.65842    276.34839     -6.96009     6.081399    43.310025    40.255645 
87732000    270.64754    336.18862    273.83351    -9.343504    5.3864667    62.355102    40.257962 
87736000    274.58253    330.34526    278.94234   -9.3243559    5.6216974    51.402916    40.261142 
87740000    271.97049    314.09495    284.89973   -7.5188241    5.5759093    29.195228    40.267305 
87744000     276.9983    324.81541     293.0431   -8.7410778    4.1409668    31.772311    40.267841 
87748000    283.62894    337.99932    293.12361   -9.5360916    4.6933955    44.875716     40.26844 
87752000     279.5031    308.17131    293.41913   -7.9669572    4.7265964    14.752187    40.270607 
87756000    275.00475    334.21948    285.70205   -8.3122485    5.4728654    48.517434    40.276444 
87760000    270.36214    319.49516    272.16267   -8.1692409     5.227126    47.332489    40.283344 
87764000     269.2621    320.53293    276.67178   -9.1609794    6.2988506    43.861147    40.287704 
87768000    268.52361    302.65223    277.49396   -8.2437024     5.400241    25.158269    40.289379 
87772000    267.13553    308.65206    272.84631   -7.4974763    5.7338671    35.805748    40.289488 
87776000    265.45537    312.29223    268.39419   -8.9682627    6.3040161    43.898041    40.290638 
87780000    276.04769    317.65818    290.39159   -9.1487382    4.4108576    27.266588    40.290023 
87784000    274.61353    327.55325    278.85521    -9.010469    4.2251244    48.698041    40.291725 
87788000    277.32479    328.04282    283.21465   -8.7242277    5.6008899    44.828169    40.289846 
87792000    273.08348    332.26089    263.64452   -8.4949547    5.9820684    68.616375     40.29503 
87796000    264.93408    311.21416    255.72225    -7.396265    6.3788415    55.491904    40.304081 
87800000    283.80803    319.66363    311.85823   -9.2881375    4.3170041    7.8053931    40.305782 
87804000    285.16386    344.12654    297.46713     -10.6179    4.4028422    46.659409    40.306727 
87808000    263.21749    314.05824    271.15387   -7.0758008    5.8787611    42.904372    40.314864 
87812000    279.53622    347.21369    280.74258   -10.470987    6.2560374    66.471105    40.314501 
87816000     270.1453    320.25226     266.0289   -8.3745714    6.1297003    54.223357    40.309672 
87820000    279.60622    331.78723    290.37583   -8.7205363    5.2054712    41.411402    40.295191 
87824000    267.29741    317.74983     266.9417   -8.5329345    6.5743943    50.808139    40.299546 
87828000    278.00455    342.63448     264.0904   -10.216407    5.0545608    78.544081    40.298252 
87832000    276.59517    318.43983    303.39203   -9.0282948    4.6989243    15.047799    40.299902 
87836000    277.37748    329.01675    278.12722    -8.331904    5.5279439    50.889533    40.295972 
87840000    270.12684     303.5381    302.94623   -8.2333977    3.9485714   0.59186941    40.291428 
87844000    278.74285    336.93759     287.1941   -8.2163175    3.9878112    49.743487    40.291972 
87848000    278.26224    328.39553    302.41065    -9.083934    3.6688756    25.984879    40.287045 
87852000    262.92856    295.22637    270.06035   -6.7869186    5.7023512    25.166022    40.290728 
87856000     279.2324    328.89196    289.37428   -9.8658994    5.4532904    39.517681    40.289234 
87860000    266.35212    307.33866    273.71242   -8.3711801     5.142318    33.626236    40.281485 
87864000    273.02897    339.09303    274.61009   -9.4946792    5.4303168    64.482936     40.28834 
87868000    274.92327    309.36808    298.79523    -7.470982    3.8635431    10.572846    40.290685 
87872000    271.91118    317.26736    277.98754   -7.6391169    4.2369659    39.279822    40.294952 
87876000     268.9986    301.98966    272.13758   -7.2599444     5.232325    29.852078    40.295653 
87880000    285.09102    354.49836    296.20725   -9.8358948    2.9754536    58.291106    40.293973 
87884000    282.37949     354.5224    285.78484   -9.3600421    3.4993995    68.737559    40.289299 
87888000    273.03417     301.5235    287.75254   -7.2133836    4.3402931     13.77096    40.292448 
87892000    275.57325    318.47774    283.62533   -7.5440705    3.9683153    34.852405    40.287094 
87896000    271.58497    326.43543    272.58656    -8.403231    4.6037773    53.848868    40.289445 
87900000    281.96885    342.57007    292.22346   -10.298227    3.8603542    50.346614    40.287827 
87904000     274.4088    330.79852    263.71438   -7.8897345    4.4590374    67.084138    40.292272 
87908000    276.03242    315.16477    298.42935   -7.8428003    2.7008059    16.735419    40.294063 
87912000    275.34187    339.09124    263.49082   -8.5347053    4.3224814    75.600419    40.296269 
87916000    276.43363    318.78231    267.92696   -7.8612712    3.7062552    50.855356    40.294941 
87920000    267.71617    298.68312    289.23935   -7.4932179    3.8816981    9.4437711    40.294985 
87924000     281.5858    319.99591    293.06803   -8.3630386    2.6895229    26.927877    40.290636 
87928000    271.56031    326.78671    266.08882   -9.8553365    5.1141072     60.69789    40.299185 
87932000    276.82634    322.07238    271.30835   -9.2934514    5.2756127    50.764031    40.304527 
87936000    264.96613    291.71267    255.34282   -7.0009961    5.3376294    36.369848    40.302881 
87940000    270.04356    326.93202    268.43723   -8.4745906    5.4980404    58.494787    40.295988 
87944000    278.02223    308.57498    283.83475   -7.7117873    4.1182845    24.740226    40.290621 
87948000    275.42605    346.67236    269.06285   -10.072341    3.5027237    77.609513    40.294471 
87952000    272.47745    317.54033    285.95534   -8.0138742      3.51891    31.584996    40.293704 
87956000    277.61532    335.88386    306.30479   -8.2689447     2.287875    29.579068    40.289242 
87960000    271.22753    321.86221    277.87497   -9.2520377    4.4103011    43.987237    40.286983 
87964000    273.53841    311.32131     275.5622   -7.0796402    4.0995719    35.759106    40.289531 
87968000    266.91856    322.67944    273.09771   -8.0649845    4.7512685    49.581731    40.292392 
87972000    269.10508    314.07677    270.28597   -6.8725942    5.8248605    43.790806    40.293426 
87976000    263.78139    312.58741    279.32933   -7.0464781    4.7096175    33.258081    40.293796 
87980000    280.88515    329.59677    285.02013   -7.3141378     4.701105     44.57664    40.294673 
87984000    269.88978    322.57396    291.53241   -7.7413018    4.6546185    31.041545    40.299463 
87988000    270.58651    320.99425    283.63405   -6.8563768    5.3763577    37.360195    40.299729 
87992000    275.23268    320.11305    269.77066   -7.3940275    5.3142675    50.342391    40.304325 
87996000     276.3391    328.95639    301.79375    -8.770065    4.0876207     27.16264    40.308987 
88000000    276.63303    299.54174    308.11163    -7.518024    3.1500148   -8.5698898    40.305365 
88004000    271.50876    337.44797    282.51604   -9.6197864    5.0155785    54.931927    40.307341 
88008000    271.87793    317.09906    280.42173   -8.0603594    4.8113229    36.677329    40.302711 
88012000    262.85549    306.01361    287.68711   -7.4975754    4.6014925    18.326497    40.295152 
88016000    276.70419    327.49964    288.23822   -8.1295066    3.7939026    39.261413    40.296858 
88020000    276.51206    344.48482    302.31298   -8.8696144    3.4540475     42.17184    40.302467 
88024000    268.30564    309.96572    277.90988   -7.5338226    5.1132471    32.055842    40.299906 
88028000    272.21412    330.77537    284.36426   -8.6074962    4.8444754    46.411118    40.298239 
88032000    270.22456    338.28534    277.84765   -7.8481805    5.7701042     60.43769    40.299967 
88036000    276.94209    339.71466    295.02949    -8.706262    4.9639492    44.685172    40.296378 
88040000    273.38478     338.6112    275.56205   -9.1251331    6.1513117    63.049157    40.298224 
88044000    273.65769    323.50568    278.00115   -8.0184784     5.670925    45.504531    40.296185 
88048000    274.78265    319.72827    292.92192   -6.3668599      5.24162     26.80635    40.295378 
88052000     281.4524    359.48473    275.21051   -10.095845    5.8969722    84.274219    40.293473 
88056000    269.72471    321.24769    263.68439   -8.8828176    6.1373852    57.563305    40.292684 
88060000     267.4837    331.93645    260.36128   -8.4696672    6.4547518    71.575168     40.29826 
88064000    275.93691    311.90661    292.50022   -8.6235885    5.2788291    19.406384    40.295224 
88068000    274.15864    326.78422    288.69802   -9.8108131    5.2402679    38.086199    40.292011 
88072000    269.37932    310.29338    285.85722   -6.6775043     5.090999    24.436164    40.289369 
88076000    275.91948    341.76802    274.57975    -8.359774    5.6870424    67.188267    40.288343 
88080000    272.10445    317.32742    274.77123   -5.9700668    5.9628057    42.556195     40.28852 
88084000    271.37576    319.34078    292.15208   -7.0343053    4.4988432    27.188699    40.290706 
88088000    273.73187    314.31307     277.9825   -6.4842896    5.1858116    36.330567    40.286737 
88092000    265.08171    322.40102    272.37646   -8.5672629    4.5098592    50.024559    40.290761 
88096000    269.89992    309.90681    278.96664   -7.0470481    5.6296469    30.940175    40.291438 
88100000    272.74429    320.57955     281.7408   -8.4477858    5.1997427     38.83875    40.293213 
88104000    269.65457    312.28012    290.22776   -7.3824129    4.6127821    22.052354    40.288196 
88108000     275.4342    347.27681     269.1795   -9.0981163    5.0952879    78.097315     40.28857 
88112000    285.31094    337.64983     310.5707   -8.6510508    4.0146204    27.079132    40.288848 
88116000     275.4593    330.66956    285.03067    -9.522078    5.2029857    45.638892    40.297046 
88120000    273.68063    348.01586    270.37907   -9.0303273    6.4092176    77.636797    40.297785 
88124000    276.34752    303.57624    298.50741   -6.7180324    4.7396202    5.0688264    40.297145 
88128000    271.28396    332.43251    279.81743   -9.0885505    4.7850368    52.615082    40.297839 
88132000    281.82272    349.20327    271.09668   -9.6636693    5.2109315    78.106591    40.294929 
88136000    276.96237    315.35212    282.37982   -7.2229718    4.8529272    32.972304    40.294493 
88140000    273.50559    313.36214    292.10816   -8.6044822    4.8595236    21.253988    40.295683 
88144000    274.06643    334.38877    277.82861   -9.9372964     6.090169    56.560164    40.298945 
88148000    271.93937    322.76181    279.75396   -9.2529776     6.255537    43.007851    40.297148 
88152000    277.14411     313.0719    286.75611   -9.6577063    4.6931948    26.315796    40.300182 
88156000    275.28805    317.07082     276.2449   -9.5610652    6.4177631    40.825925    40.301594 
88160000    270.13596    302.73285    280.06795   -8.0525742     5.102815    22.664893    40.302528 
88164000    279.11794    338.64927     274.0852   -9.9717946    4.6680211    64.564071    40.304535 
88168000    272.61132     316.2825     266.0519   -9.2496072    5.6934321    50.230603    40.304852 
88172000    270.59208     324.9389    281.33743   -8.6672419    4.5313134    43.601475    40.300172 
88176000    270.39342     317.7662    277.88277   -8.0069794    6.0059544     39.88343    40.302281 
88180000    269.30945     322.5801    292.26554    -9.695479    4.4598037     30.31456    40.303125 
88184000    276.76584    314.07946    293.40884   -7.3215705    4.1767079    20.670615    40.307141 
88188000    270.07801    335.54741    274.63049   -8.9439285    5.3146843    60.916914     40.31036 
88192000    275.14785    332.11663    276.62293   -10.523448    5.8829127    55.493697    40.310294 
88196000    274.38601    324.54265    278.34208   -9.3967067    5.2614753     46.20057    40.306722 
88200000    279.31406    325.49474    306.28896    -10.03428    3.6086986    19.205778    40.308429 
88204000    290.56916    342.76587     327.6909   -10.576277    2.4968427    15.074968     40.30209 
88208000    266.21014    312.29063    266.48975   -9.4455315    6.2967133    45.800883    40.304134 
88212000    287.27794    349.05854    301.61048    -10.18482    3.0751365    47.448067    40.301886 
88216000     271.1024    316.51096    252.98239   -9.0786419    5.8247632    63.528565    40.296073 
88220000    277.60534    315.59659    272.33005   -9.3380178    5.4856981    43.266539    40.296482 
88224000    285.54724    337.77514    279.16022   -10.936939    5.4106908    58.614914    40.294341 
88228000    288.98486    308.83678    296.74197   -9.3933101    4.4026953    12.094806    40.300061 
88232000    277.62901    337.49036     269.0768   -10.499354     4.854576    68.413559    40.302817 
88236000     273.3684    305.41857    266.20003    -8.234334    5.2008382    39.218547    40.302878 
88240000    281.71783    342.18517    284.76245   -9.9286214    4.0775377    57.422723    40.305332 
88244000    281.88348    317.67764    292.32034   -9.2130258    3.8174426    25.357295    40.301982 
88248000    275.46729    327.74806    272.67419   -9.6881299    5.7653276    55.073878    40.305836 
88252000    281.83656    331.89916    291.89642   -10.145456    4.0105397    40.002741    40.314037 
88256000     281.9633    315.52427    303.64137    -10.45636    3.5493793    11.882902    40.316632 
88260000    279.79426    341.54552    274.34592   -12.671687    4.7307154    67.199597    40.315278 
88264000    277.92104    316.83659    283.66757   -10.487434    4.8011997    33.169018    40.317861 
88268000    277.89854    292.18431    288.73778   -8.6028346    5.0159345    3.4465287    40.307528 
88272000    276.12481    327.67716    254.41313   -11.020635    6.6198187    73.264031    40.311627 
88276000    275.88447    306.22348    293.06934   -9.7878297    5.2682615    13.154147    40.310732 
88280000    283.54005    310.34211    308.88788   -9.4374853    4.0025732    1.4542276    40.309831 
88284000    274.66355    308.68055    292.54796   -9.6033499    4.8648846    16.132593    40.312759 
88288000    275.14649    313.34044     294.9891   -10.115712    4.2548571    18.351343    40.308106 
88292000    273.21912    311.02873    269.87778   -10.265643    5.5576921    41.150942    40.307077 
88296000     266.6807    294.10592    265.21466   -9.2303596    6.7855804    28.891258     40.30636 
88300000    275.98049    344.82915    277.88135   -10.373202    6.0181065    66.947807    40.311124 
88304000    280.33774    317.58546    297.42938   -9.3010724    5.2465403    20.156077    40.309787 
88308000    275.13356     320.8485    275.13015   -10.302399    6.1318782    45.718352    40.307349 
88312000     270.5387    313.54385    274.36989   -10.255705    5.6454927    39.173958    40.300526 
88316000    267.54256    292.54534    276.89552   -9.2218225    6.3454294    15.649826    40.295626 
88320000    264.46406    301.00419    261.64887   -9.0360127    6.4691508    39.355322    40.295759 
88324000    277.44775    297.96883    292.58999   -8.5961161    4.9139877    5.3788422     40.29409 
88328000    284.38163     319.3636    303.80689   -9.7776222    4.4553399    15.556714    40.294179 
88332000    283.89226    331.93555    293.65008   -11.327795    4.5432659    38.285468    40.296195 
88336000    271.94555    309.30847    292.90053   -10.114134     4.753567    16.407937    40.290396 
88340000    264.35721    288.16311     275.5855   -9.3627387    5.7600209    12.577609    40.294112 
88344000    282.58742    322.27447    290.53417   -9.5967697    4.6733659    31.740305    40.292141 
88348000    281.39484    333.26269    273.96239   -11.139918    5.7929573    59.300295    40.295329 
88352000    279.60072     310.5023    294.24934   -9.9267922     3.864248    16.252958    40.293921 
88356000    274.96753    320.20832      280.803   -10.541258    4.7243934    39.405318    40.292875 
88360000    270.43876     308.9048    260.30149   -9.9686899    6.0029866    48.603312    40.293008 
88364000    287.36376    325.72779    293.32718   -10.712298    4.7613086    32.400607    40.291767 
88368000    279.67787    320.24977    269.55375   -11.268717    6.6485902    50.696021    40.296278 
88372000      281.893    322.98361    288.13273   -11.119386    5.2317925    34.850885    40.297278 
88376000    278.11845    303.59249    284.71458    -9.554647    5.8583265    18.877911    40.293156 
88380000    278.21307    306.51611    280.66495   -10.229619    5.3441401     25.85116    40.289773 
88384000    270.91443    298.28273    260.60517   -10.572637    5.4914867    37.677566    40.290736 
88388000    272.05937     306.9176    267.94234   -10.137559    5.9757984    38.975267    40.289174 
88392000    279.08234    316.15085    279.87416   -10.709082    5.4549813    36.276694    40.288554 
88396000    267.11504    283.57216    275.48474   -10.037668    4.9976116    8.0874175    40.287447 
88400000    274.46635    307.79769    266.46446   -12.263859    6.1471546    41.333231    40.283528 
88404000     277.5037      320.663    282.37748   -12.349533    5.3374131    38.285523     40.28387 
88408000    283.60476    326.01569    290.06156   -11.469912    5.1293794     35.95413    40.282063 
88412000    278.31588     314.6342    269.10627   -10.786239    6.8141562    45.527931    40.273872 
88416000     282.9583    340.78362    270.95335   -13.638468    5.9893839    69.830272    40.274127 
88420000    279.30563    316.80549    280.20913   -11.773579     5.779828    36.596357    40.274554 
88424000    275.46426    310.26046    296.65782   -10.517021    5.5279901    13.602639    40.273634 
88428000    273.39747    305.49944     275.6974   -9.7824454    6.6710363    29.802031    40.272872 
88432000    279.58235     310.2161    290.77666   -10.867228    5.0248147    19.439432    40.274665 
88436000     278.7659    317.80104    279.78946   -11.278968    6.3242731    38.011582    40.272884 
88440000    276.11276    344.45438     266.3494   -11.473307    5.6161362    78.104975    40.273562 
88444000     279.9648    320.54737     307.1586   -11.953493    5.2215165    13.388768     40.27233 
88448000    273.80695     325.8157    271.39859   -11.279528     7.262815    54.417108    40.275217 
88452000    271.56055    294.73086    287.20834   -9.7649167    6.7741218    7.5225211    40.267852 
88456000    274.31848    314.48168    279.92704   -12.605403    6.1571988    34.554645      40.2589 
88460000    274.63205    322.66237    280.45432   -12.665693    5.8139489    42.208054    40.256859 
88464000    274.36534    331.08179    276.69797   -11.608837    6.1114716    54.383822    40.257361 
88468000    267.31629    310.12633    268.81129   -10.247723    6.0758246    41.315046    40.256561 
88472000    286.08618     331.0628    292.89842   -12.279199    6.6321958    38.164377    40.263146 
88476000    267.23777    312.25908    279.07907   -11.661874    7.3371151    33.180002    40.264739 
88480000    281.77585    351.02784    275.46942   -12.075307    7.1094031    75.558417    40.268845 
88484000    279.18401    328.64735     279.0683   -11.961836    7.1092991    49.579048    40.266579 
88488000    277.33029    322.84704    281.60602   -11.801213    6.2998797    41.241024    40.268316 
88492000    286.02728     330.1283    290.33948   -9.8710249     6.156959    39.788826    40.276669 
88496000    276.52491    306.62932    276.61604   -9.6323826    6.6071403     30.01328    40.277894 
88500000    271.88965    290.66353    292.65885   -10.100162    5.9670559   -1.9953198    40.279183 
88504000    273.04875    315.78807    260.09718   -10.981604    6.5680924    55.690897    40.282988 
88508000    278.78207     338.3571    286.09785   -11.632999    5.8914603    52.259248     40.28446 
88512000    275.20535    306.60653    279.34628   -10.095863    5.0156615    27.260243    40.283597 
88516000    264.03604    282.97508     268.5713   -9.3747154    5.7571836    14.403779    40.286763 
88520000    264.37106     288.9795    284.46266    -8.624322    6.8001789     4.516835    40.287439 
88524000     274.9694     330.7614     280.3624   -9.5304764    6.5482065       50.399    40.285902 
88528000    277.06052     329.3161    277.20831   -9.7962101    5.8720444    52.107798    40.285643 
88532000    277.01672    334.00231    286.42208   -10.583014    5.5348038    47.580227    40.285047 
88536000     272.7655     318.9997    290.32561    -9.147629    6.1840612    28.674094    40.280516 
88540000    269.09446    301.15022    270.62019   -9.5657609    7.0465197     30.53003    40.279903 
88544000    267.28499    313.40591    262.43153   -10.797201    7.6413851    50.974381    40.279392 
88548000    274.39933    329.24669     290.2216    -10.23307    6.1789765    39.025093    40.277449 
88552000    267.82996    306.13545    281.39963   -10.674691    6.2356085    24.735821    40.279653 
88556000    271.41024    307.81447    284.87559   -10.087069    6.1289478    22.938884    40.283374 
88560000    279.17881    335.59364    292.42444    -10.16753    5.9376653    43.169199    40.280194 
88564000     270.4577    304.36791    287.85561   -9.0277098    5.8264922    16.512299    40.273534 
88568000     278.9284    333.85258    270.36082   -11.368255     5.831742    63.491763    40.273685 
88572000    271.36031    318.95386    282.30195   -9.7953991    6.1027471     36.65191    40.276116 
88576000    270.82805    310.48254    272.21972   -9.5006444    7.4162842    38.262817    40.273885 
88580000    278.12948    337.11712    283.96927   -10.372634    6.5851521    53.147856    40.279127 
88584000    279.83693    338.86149    292.29634   -11.059887    5.2853323    46.565147     40.28232 
88588000     281.9895    326.73674     310.7407   -10.784364    4.0823532    15.996037    40.278167 
88592000    269.55646    322.62346    260.23747   -10.245803    6.9019744    62.385989    40.278761 
88596000    282.99372    313.17211    282.01982   -9.4034112    5.3095847    31.152289    40.285719 
88600000    272.83462    309.69427    288.58145   -7.7983899    4.7095596    21.112824    40.287859 
88604000    279.56648    338.75881    273.79639   -10.641438    6.5566435    64.962422    40.293336 
88608000    281.18512    311.23167    287.52966   -9.8010262    4.9662902    23.702013    40.295284 
88612000    277.20425     322.6932    274.29443   -9.6963318    6.3147796    48.398766    40.290089 
88616000    283.21302     330.2877    282.19204   -11.138987    5.6869025    48.095661    40.288307 
88620000    279.16521    318.48754    312.46457   -11.350052    4.9822987    6.0229731    40.289886 
88624000    272.71996    312.50454    280.42222    -10.30267    6.1742102     32.08232    40.286702 
88628000    274.98816    317.10494    285.46089   -11.154076    6.2250135    31.644053    40.278916 
88632000    278.10108    341.75446    270.28918   -12.146574    6.5297205    71.465278    40.275749 
88636000    279.38055    339.91509    285.04474   -12.016992    6.7662065    54.870352    40.276262 
88640000    278.23744    331.64447    271.97276   -11.977453    6.3163325    59.671705    40.273691 
88644000    284.62542    344.00138    278.35107   -12.738476    5.5411051    65.650305    40.272231 
88648000    285.02158    334.31801    278.11722   -11.068555    5.1387109    56.200783    40.277864 
88652000    277.77929    307.26046    290.99609   -10.118306    5.9772713    16.264366    40.281348 
88656000    276.90055    331.75844    277.89386   -11.619535    5.6917665    53.864575    40.283184 
88660000    273.03263    311.79295    256.91732   -10.313299    7.2308962    54.875627    40.282614 
88664000    277.18915    325.37699    283.53651   -12.087127    5.1846213    41.840485    40.290061 
88668000    277.78228    317.27053    289.20743   -10.996364    6.5516622    28.063107    40.296399 
88672000    277.84131    317.39335      279.515   -10.910332    6.8028769    37.878349    40.297263 
88676000     276.0975    320.14589    286.45977   -11.632608    6.6577959    33.686126    40.303591 
88680000    269.43691    300.63076    262.19178   -10.357443    8.0206254    38.438977    40.306857 
88684000    266.73747    307.82632    254.35313   -11.250393    8.5406354    53.473191    40.309435 
88688000    286.21212    346.31264    283.49008   -12.547248    6.5732895    62.822559     40.30744 
88692000    277.32296    329.40038    276.32734    -11.88905    7.2446784    53.073034    40.308384 
88696000    270.20595    310.00902    266.03101   -11.151242    8.0738332    43.978009    40.306625 
88700000    270.75629    313.65941     268.8802   -10.567151    7.5846828    44.779214    40.303224 
88704000    279.35915    313.41423    301.28182   -10.375757    4.7520387    12.132409    40.303227 
88708000     273.1303    311.85658    269.85151   -10.521201    6.0979097    42.005066    40.302846 
88712000    272.38141    311.22769    278.09732   -10.196123     5.628975    33.130367    40.304208 
88716000    278.86283    323.83354    286.63928   -10.640382    4.4776779    37.194259    40.304113 
88720000    280.19449     328.9725     298.3726   -11.998854    4.7152094    30.599897    40.309421 
88724000    275.76233     328.0644    275.04046   -11.307059    5.3350737     53.02394    40.310253 
88728000    277.28395     328.8056    262.12698   -12.527658    5.8596538    66.678613     40.30882 
88732000    272.41032    316.79722    260.34151   -9.8627638    5.6939525    56.455707    40.308778 
88736000    282.69637    329.38733    296.14004   -11.511449    5.2784018    33.247291    40.309894 
88740000    274.45001    323.35878    277.13548   -11.918412    5.1337934    46.223301    40.306005 
88744000     267.7578    301.32408    267.41606   -10.998224    6.9133007    33.908025    40.306114 
88748000    279.71006    314.43675    285.23765   -11.742161    5.7186563    29.199107    40.303424 
88752000    288.90633     346.6425    306.94289   -12.295556    5.1334346    39.699619    40.303041 
88756000    277.52581    337.43194    274.10718   -11.529554    5.6746262     63.32476    40.300872 
88760000    275.95536      311.705    277.44468   -10.200302    6.2477133    34.260317    40.295909 
88764000    274.95436    303.72827    283.07766   -8.8259797    7.2266565     20.65061     40.29467 
88768000    277.71857    325.35351    296.08427   -10.699183    5.5040768    29.269237    40.295178 
88772000     262.6031    303.99568    244.20231   -9.4555719    9.3270342    59.793373    40.293958 
88776000     281.9488     321.8607    301.02087   -10.730807    6.7301731    20.839832    40.296035 
88780000    261.80214    298.75537    270.34885    -9.876402     7.957609    28.406523     40.29374 
88784000    279.76233    315.94933    287.60541   -11.655315    7.2714892    28.343929    40.292815 
88788000    273.25451     320.9674    284.58988   -10.719572    6.6969635    36.377528    40.295758 
88792000    274.71088    326.52259    269.41396   -10.809931    6.8702086    57.108624    40.293365 
88796000     272.9928    310.05117    289.97611   -9.4542406    6.3065824    20.075052    40.297427 
88800000    275.68088    313.50065    305.97533   -9.7125505    5.0185196    7.5253282     40.29666 
88804000      270.303    326.22253    258.31246   -10.787244    7.5356201    67.910078    40.296013 
88808000    266.24017    307.34914    266.49457   -11.929904    7.4467288    40.854577    40.292655 
88812000    274.55511    304.07315    296.50139   -10.596833    7.3182223    7.5717609    40.289596 
88816000    275.66746    339.97206    260.12476   -11.941666    7.3891039      79.8473    40.285883 
88820000    277.89866    341.23916    272.90545    -12.24453    7.2833287    68.333716    40.284139 
88824000    271.73256    341.87531    261.44239   -11.715228    7.7747649    80.432927    40.287362 
88828000    288.33429    348.17909    286.60752   -13.044036    7.4495724    61.571576    40.288763 
88832000    268.46929    293.81184    289.74037   -8.9985084    6.4100653    4.0714696    40.288088 
88836000    270.08687    325.68615    268.32582   -12.774708    7.5411254    57.360324    40.284891 
88840000    286.67844    378.38878     284.5849   -14.182711    6.9482096    93.803885    40.286262 
88844000    282.80843    330.16802    279.43332   -11.811451     6.175426    50.734701    40.285426 
88848000    275.04165    319.77373    272.72057    -11.56124    7.3350809    47.053163    40.290521 
88852000    272.14321    311.74684    277.91092   -10.154337    8.0633778    33.835919    40.286521 
88856000    278.41322     340.6472    277.70992   -12.697725    7.9554967    62.937277    40.285918 
88860000    274.65846    319.79816     281.5023   -11.341251    6.9419732    38.295866    40.284121 
88864000    287.07514    340.39601    314.12887    -12.50155    4.6935592    26.267133    40.284755 
88868000    274.02737    315.52966    273.55563   -10.458596    6.2161948    41.974028    40.284979 
88872000    279.83858    333.93882    270.83594   -11.962733    7.0068628    63.102878    40.284002 
88876000    275.80134    325.21345    279.74023    -12.99172    5.0646454     45.47322    40.279053 
88880000    278.75014    306.80641    290.35405   -11.788534    5.9285005    16.452356    40.282506 
88884000    274.93785    327.03225    286.09194   -12.595183    5.8535568    40.940313    40.281886 
88888000    279.22394    328.64555    276.86747    -12.52189    7.1238067    51.778077    40.282908 
88892000    273.34004    302.22704    291.29971   -11.978934    6.8559107    10.927332    40.282163 
88896000    269.04612    300.95054    281.20566   -11.505805    6.4976216    19.744879    40.282332 
88900000    280.02763    324.93633    277.97304   -11.882125    6.9457848     46.96329    40.279788 
88904000    280.08431    323.21059    280.28779   -12.303073    6.0964368    42.922798    40.276897 
88908000    280.31844    337.47974    290.33969   -13.281884    5.5449187     47.14005    40.273084 
88912000    274.31573    306.47886    283.44314    -11.44704    6.3042203    23.035719    40.271416 
88916000    275.67163    326.14817    290.81834   -11.449712    6.3754795    35.329828    40.268292 
88920000    265.47016    306.79952    270.17256   -10.596103    7.7457685     36.62696    40.264197 
88924000    278.66833    336.71331    279.79677   -11.497948    6.3383169     56.91654    40.269505 
88928000    271.35569    318.97073    271.86137   -11.443991    7.8728646    47.109358     40.26824 
88932000    263.98416    302.21189    272.79638   -10.738917    7.8161739     29.41551    40.270953 
88936000    276.20643    316.50981     277.0093   -10.616668    8.5464226    39.500509     40.27067 
88940000    272.24231    332.06193    282.79033   -12.191767     7.858373    49.271596    40.274959 
88944000    276.02712    322.98254    292.60803    -11.28257    6.5194302    30.374509    40.274924 
88948000    278.77896    319.66751    299.83033   -12.604419    6.5531673    19.837181    40.271693 
88952000    276.97979    326.77296    281.72807   -12.216933     7.932473    45.044887    40.269402 
88956000    275.83748    328.85812     288.4616   -12.553122    7.9408059    40.396512    40.269927 
88960000    274.57482    313.49552    300.79287   -11.167169    7.4474456    12.702654    40.270702 
88964000    275.68626    317.06932    275.16315   -11.992242    8.6512858    41.906162    40.273173 
88968000    271.70204    321.03243    271.82293   -10.691603    9.0868844    49.209504     40.27523 
88972000    270.10889    317.59148    287.54128   -11.801574    8.5192287    30.050194    40.274744 
88976000    271.78152    316.34186    274.88609   -11.623426    9.1651077     41.45577    40.273752 
88980000    269.26348    310.98189     285.5821   -12.140393    8.4951485    25.399785    40.278348 
88984000    267.25452    313.97595    257.91228   -11.883163    10.805972    56.063669    40.276587 
88988000    278.41013    313.36664    292.76535   -11.888017    8.1045734    20.601287     40.27751 
88992000     276.2483    318.62068    301.99591   -11.906667    8.0071589    16.624762    40.278142 
88996000    280.53045    334.57186    295.66296   -11.944944    7.3224521    38.908895    40.275966 
89000000    270.65736    307.60449    282.54339   -9.9911241    7.7075983    25.061094    40.273905 
89004000    268.76139    308.66954    281.14654   -10.968942    8.5237837    27.522997    40.272018 
89008000    275.59909    337.28929    290.72564    -11.72006    7.6980354    46.563649    40.269041 
89012000    275.66898    319.58787    292.25993   -11.425126    7.6679899    27.327938    40.271161 
89016000    265.81768    299.18217    274.19725     -8.65193    8.9289251    24.984924    40.272433 
89020000    267.29706     299.5682    281.77957   -9.4866935    8.7527959    17.788627    40.267574 
89024000    275.89496    346.54898    283.11812   -11.016799     9.296979    63.430858    40.267569 
89028000    280.41679    331.47722     296.3765   -10.991884    8.1576691    35.100718    40.269518 
89032000    261.95967    301.13774    264.29209   -10.273376     9.053114    36.845653    40.270055 
89036000    265.20979    324.95272    266.64469   -12.832161     9.499503    58.308036    40.271164 
89040000    266.68918      318.665      269.477   -12.074711    9.4713326       49.188    40.272283 
89044000    265.32639    312.57888    281.68067   -11.875293    8.8439687    30.898206    40.271693 
89048000    269.35898    339.03747    273.66506   -12.121215     8.902357    65.372414    40.278766 
89052000    265.98867    325.97891     268.6572   -11.113195    8.9133345    57.321711    40.279735 
89056000    277.03091    333.42506    285.51266   -10.714891    8.8897948    47.912402     40.28027 
89060000    267.28262    316.34831    279.26814   -9.7590906    8.3540229    37.080165    40.278945 
89064000    281.82408    348.55043    283.67871   -12.612105    7.1341594    64.871721    40.283554 
89068000    266.89769    317.74149      284.236   -10.605965    8.2013879    33.505488    40.278883 
89072000    269.88074    322.20129    276.78104   -11.319334    8.6677909    45.420255    40.281089 
89076000    268.63033    317.56217    284.55779   -11.807324    8.7898745    33.004387    40.278794 
89080000    267.50419    310.01748    260.19016   -11.455488    9.9037546    49.827326    40.276857 
89084000    271.41011    324.93336    283.34484   -11.654835    8.9368097    41.588512    40.277069 
89088000    266.66383    320.45893    280.15215   -11.645237    7.8276802     40.30678    40.273859 
89092000    275.75005    334.84892    272.28745   -13.331378    9.0132938    62.561475     40.27395 
89096000    274.26333    340.15726    269.76278   -12.821294    10.110171    70.394481    40.271274 
89100000    269.66407    322.19522    282.98849   -12.001549    9.3060802    39.206727    40.271848 
89104000    267.79622    314.30865    270.14642   -12.377493     9.921669    44.162224    40.271606 
89108000    275.47416    318.31355    292.29926   -11.820776    7.5581701    26.014288    40.268876 
89112000    275.89501    319.14416    291.28089   -12.481315     7.995856    27.863272      40.2678 
89116000    273.48125    319.49609    293.18387   -12.629146    7.7744568    26.312214    40.265091 
89120000    273.41186    334.62154    279.71869     -12.1333    8.8043434    54.902849    40.268992 
89124000     275.0485     332.9877    288.82633   -12.295611    8.0476379     44.16137     40.26379 
89128000    275.32165    320.41107    277.79482   -11.146444    8.1559383    42.616248    40.261829 
89132000      268.733    306.16899    294.03815   -10.441673    7.2140106    12.130848    40.261648 
89136000    273.45489    320.88375    286.08151   -12.501255    8.2184204    34.802247    40.257566 
89140000    269.65637     307.0165    294.14452    -11.29014    7.8607225    12.871983    40.260234 
89144000    270.92865    315.67744    291.39831   -12.068149    7.8582313    24.279129    40.260062 
89148000    279.93183    344.25153    276.15844   -12.066547    7.9397948     68.09309    40.264038 
89152000    269.86188    326.10834    272.88166    -11.88406    8.2367968     53.22668    40.259681 
89156000    278.55557    327.52078    280.28222    -12.31521     8.075256    47.238556    40.258882 
89160000    267.76145     299.2571    271.41815    -10.88906    9.5005929    27.838952    40.259378 
89164000     269.6409    330.38161    274.89156   -11.483944    8.3475556    55.490048    40.263658 
89168000    279.98679    335.61575    287.77802   -12.854288    7.4035837    47.837728    40.259863 
89172000    270.52932    309.28474    298.30919   -10.315306    7.8757867    10.975552    40.259093 
89176000    271.96463    319.56305    293.10187   -11.201465    8.9902119    26.461181    40.257094 
89180000    273.19473    335.60325    281.34121   -13.221752    9.3147146    54.262043    40.257252 
89184000    277.89901    314.18101    298.60004   -10.758922    8.0489565    15.580975    40.254336 
89188000    267.38412    294.99226    287.72424    -10.28205    7.3722008    7.2680169    40.256449 
89192000    263.00397    317.00443    256.65999    -11.37361    10.007913    60.344438    40.257997 
89196000    282.88251    360.45676    284.86883   -13.344378    7.9489855    75.587932    40.258362 
89200000    277.18712    339.72701    281.29773   -12.530823    8.5448978    58.429281    40.260604 
89204000     278.6919    349.05509    286.44498   -12.572166    8.0100697    62.610111    40.262863 
89208000    280.04622     327.3091    290.15422   -12.797761    7.7960692    37.154878    40.263095 
89212000     267.5248    301.78004    271.76551   -11.506712    9.1649453     30.01453    40.266147 
89216000    274.20283    321.74266    288.36946   -12.491966    8.3262701    33.373194    40.265499 
89220000    270.87806    312.95634    282.54162    -11.74201    8.1881466    30.414726    40.263256 
89224000    270.85571    332.06771    279.63861    -12.77549    8.7020606      52.4291    40.261066 
89228000    272.96261    303.15338    305.05221   -10.684749    7.4508588   -1.8988327    40.264144 
89232000    270.11341    315.79473    289.78927   -10.968498    8.5092331    26.005461    40.264426 
89236000    278.18533    353.89807    277.94686   -12.633933     9.911294    75.951202    40.264258 
89240000     266.7853    305.28581    283.21799   -10.100996    9.2941681    22.067826    40.265591 
89244000     273.2003    317.28816      286.561    -10.88098     9.323214    30.727157    40.263397 
89248000    273.88713    322.68361    281.49144   -12.390489    9.6586859    41.192164    40.261993 
89252000    272.07736    307.49552    285.16845   -11.485782    9.1264092    22.327073    40.263129 
89256000     276.6874     317.4814    308.41201   -11.748985    8.2495134    9.0693953    40.264771 
89260000    268.65459    318.54814    260.91346   -12.542525    10.066638    57.634683    40.263351 
89264000    260.39308    319.89121    266.11177   -11.795511    9.5195466    53.779442     40.26328 
89268000    271.16102    330.82967      274.365   -12.640275    9.4699853    56.464675     40.26214 
89272000    274.72129    347.01518    272.55569   -13.254756    9.2891173    74.459496    40.263493 
89276000    265.67924    305.34009    285.08689   -12.158216    9.0965365    20.253208     40.26189 
89280000    273.88809    312.39084    293.03013   -10.913401    9.6658282    19.360716    40.266901 
89284000    268.46608    305.36417    271.93504    -10.71984    9.3525886    33.429133    40.264032 
89288000    274.77956    338.20559    282.17041   -12.341582    9.1662084    56.035181    40.269044 
89292000    265.48736    311.85571    266.54942   -11.594912    10.558998    45.306284    40.266965 
89296000    273.80504    319.03298     284.7188   -10.332894    9.4536916    34.314177    40.265962 
89300000    266.78016    329.50948    259.81517   -11.009544    10.705406    69.694309    40.266281 
89304000    264.74497    324.00004    265.23669   -11.546584    10.375104    58.763351    40.265418 
89308000    267.25458    318.83489    263.74275   -10.115507    10.997407     55.09214    40.265123 
89312000    276.25697    316.26111    300.17758   -11.284171    8.6500209    16.083525     40.26031 
89316000    268.66635     294.2196    276.73797   -10.527838     9.760407    17.481632    40.252478 
89320000    270.52268    330.65217    284.36351   -12.222021    8.7385818    46.288659    40.250129 
89324000    279.74773    331.28888    298.02461   -11.992463    8.4396156    33.264273    40.247162 
89328000    281.56035    339.62175    289.83883   -13.792415    9.3765646    49.782925    40.246132 
89332000    274.89222    327.57124    274.87526   -11.583712    10.194615    52.695971    40.246517 
89336000    277.83302    316.75576    303.56058   -10.867733    8.8072819    13.195179    40.247018 
89340000    265.47918     309.6165    287.88791   -11.651313    8.3963095    21.728587    40.250275 
89344000    282.77531    326.76402    311.46014   -12.823973    7.2505875    15.303874    40.251765 
89348000    274.65235    335.44783    271.55368   -13.039163    10.185882    63.894151    40.255205 
89352000    280.67507    341.08796    273.07604   -12.181288    9.0839742    68.011919     40.26004 
89356000    269.04159    311.97979    263.00197   -12.115874     9.253959    48.977825    40.262297 
89360000    275.24037    315.37336      283.435   -11.479606    9.0240273    31.938363    40.258604 
89364000    267.10133    292.87617    280.52253   -9.8887793    8.6833802    12.353638    40.259078 
89368000    275.55677    328.14019    273.04102   -13.548023    8.3653326    55.099165    40.263217 
89372000    270.68004    335.38939     258.6145   -13.812749    8.8849269    76.774885    40.262077 
89376000    272.85805    304.51378     286.2846   -12.332686     7.608819    18.229184    40.259189 
89380000    266.98003     297.1791     281.3389   -11.049254     8.887962    15.840197    40.263001 
89384000     273.5264    315.10161    289.04391   -11.627383    9.0166975      26.0577    40.255248 
89388000    265.35817    302.49379    272.62844   -11.320219    9.7468703    29.865351    40.258745 
89392000    271.78458    309.61778    269.38213   -13.043895    10.309549    40.235649    40.256453 
89396000    269.58969    318.82077    272.34536   -11.311231    8.7311489    46.475404    40.257286 
89400000    271.21894    308.78129    275.45721   -11.436521    8.4552706    33.324077     40.26037 
89404000    270.51771    311.16891    258.09866   -11.494208    9.9102645    53.070243    40.257932 
89408000    285.89813    325.08832    295.40401   -11.135289    8.7796002    29.684309    40.255089 
89412000    283.24483    343.75653    283.48694   -13.691967    8.7092198     60.26959    40.254615 
89416000    273.66887    328.91128    267.23773   -12.520202     9.121138     61.67355    40.256012 
89420000    281.26597    338.91027     280.1955   -13.979639    8.9124674    58.714766    40.258579 
89424000    272.07642    294.89859    267.53312   -11.219357    9.4628759    27.365467    40.258034 
89428000    270.55342     312.9458    282.30986   -11.596206    9.7408032    30.635938    40.255371 
89432000    276.43224    343.68094    275.30996   -12.813015    8.9539451     68.37098    40.254817 
89436000    281.03142    333.58701    285.24363   -11.857942    9.3034294    48.343382    40.254241 
89440000    275.32757    320.87084    285.88067   -12.203526    7.6887886    34.990173    40.255511 
89444000    280.43817    332.53706    275.50429   -12.800942    8.5444287    57.032763     40.25672 
89448000    274.78837    312.46497    287.99788   -13.013936    8.3923802    24.467097    40.260467 
89452000    278.72608    330.45189     276.0872   -14.426088    8.2940865    54.364693    40.258771 
89456000    278.77984    348.55462    265.70113   -14.402334    8.7332292    82.853487    40.263655 
89460000    277.20927    332.41285    275.05173   -14.471876    9.3617429    57.361121    40.261939 
89464000    281.19339    335.76073    284.75958   -14.327761    8.6200015    51.001146    40.265497 
89468000    279.02822    327.48193    278.63359   -13.786253    8.6060333    48.848336    40.265464 
89472000    274.74999    313.81318    281.31889   -13.239492    9.2431008    32.494296    40.267029 
89476000    280.62571    337.72319    291.48591   -13.057824    8.7866916    46.237284    40.272107 
89480000    279.30482      345.789    267.58402    -13.41627    9.7857299     78.20498    40.273388 
89484000    272.40952    322.25989    272.92077   -11.388073    9.1559781    49.339122    40.272024 
89488000    270.05147    302.60469    271.92725   -12.925296    10.038814    30.677436    40.267257 
89492000    270.41222    312.69926    262.33329   -12.148601    9.4959893    50.365966    40.266845 
89496000    278.55893    333.07522    289.34501   -12.440121    8.9479174    43.730207    40.267182 
89500000    270.96793    321.79633    272.43916   -12.215996    8.7326981    49.357176    40.264947 
89504000    275.62891    328.31367    293.87937   -13.316254    9.1074796    34.434296    40.261976 
89508000    276.73492    326.14628    294.65975   -13.207919     9.260663    31.486528    40.258679 
89512000    267.84919    328.14721    282.01973   -13.836993    9.3637697    46.127473    40.257121 
89516000    267.03937    320.41954    264.17254   -12.794686    10.134958    56.247005    40.257794 
89520000    266.87132    340.22122    262.04573   -13.024702    9.8917501    78.175496    40.259945 
89524000    264.47937    330.11337    268.34914   -12.167762    9.5465648    61.764228     40.26105 
89528000    269.09095     310.5456    281.38131   -12.211594    8.3425737    29.164283     40.26396 
89532000    270.14479    337.42444    280.89937   -13.722062    9.5388238    56.525064     40.26324 
89536000    273.80337    298.78764    282.82231   -11.770175    8.3594781    15.965323     40.26296 
89540000    271.84041    335.14509    270.66446   -12.656538    8.8926226    64.480629    40.266239 
89544000    270.45796    339.23839    253.52895    -13.20323    10.543898    85.709435    40.266907 
89548000    273.31956    340.40406    273.80795   -14.763106    9.4847358     66.59611    40.269837 
89552000    273.76427    325.72884    269.18097   -12.550805      9.63731    56.547877    40.270089 
89556000    278.25824     335.9809    279.53362    -14.10602    9.1841354    56.447275    40.273828 
89560000    276.56347    325.88917    287.17624   -13.490066    8.7087204    38.712935    40.273395 
89564000    270.92598    322.82138    275.97122   -14.245135    9.5135627     46.85016    40.276957 
89568000    273.25263    324.32095    278.20516   -13.230509    8.4239424    46.115786    40.274582 
89572000    272.45146    287.37721    293.25008   -11.722179      9.25447    -5.872868    40.271921 
89576000    272.91503    331.64445    285.99861   -12.856762    9.2381971     45.64584    40.267006 
89580000    268.01668    294.91715    296.45322   -11.770754    8.5028204   -1.5360619    40.262376 
89584000    273.87708    336.54046    264.16001   -13.338513    9.4280724     72.38045    40.260983 
89588000    263.37191    315.42152    260.04907   -12.566907    9.3042663    55.372453    40.260872 
89592000    278.49134    348.79912    271.05525   -14.096205    9.2612659    77.743871    40.264332 
89596000    279.89873    321.02736    273.13089     -12.7742    10.045481     47.89647    40.267366 
89600000    275.10104    316.42512    278.01441   -13.338618    8.7807528    38.410715    40.264891 
89604000      271.512    337.31031    257.26625   -13.766628     8.948653    80.044058    40.261525 
89608000    272.02665    311.58011    276.61421    -12.98241    8.9316412    34.965895    40.264016 
89612000    272.33699    318.61503    268.82888    -13.34591    8.9244368    49.786152     40.26519 
89616000    267.91733     314.2504    274.15698   -11.743493    9.2665685    40.093421    40.263091 
89620000    281.54484     330.3545    304.90962   -13.713507    7.7646272    25.444884    40.262805 
89624000    280.86454    316.70159    294.52392   -13.573181    7.9159947    22.177672    40.260159 
89628000    269.84636    322.64308    281.12841     -13.8855    8.5523115    41.514667    40.256609 
89632000    280.42946    315.23359    289.98109   -13.349978     7.356257    25.252494    40.255215 
89636000    271.87431     309.0944    274.30679   -11.320314    9.7689673    34.787613    40.259723 
89640000     279.3916    327.31966    266.86279   -12.658028    9.4612157    60.456873    40.262816 
89644000     277.2524    320.76409    281.48645   -12.578025    10.591188    39.277645    40.260425 
89648000     272.3993    326.05984    270.77688   -13.331233    10.000971    55.282957    40.262171 
89652000    272.08573    302.35738    273.72316   -11.941749    9.4181144    28.634217    40.262711 
89656000    290.50575    356.82821    286.73987   -14.405772    8.8571294    70.088335    40.267433 
89660000    279.61592    328.39682    281.53905   -13.340172    9.0921007    46.857765    40.268141 
89664000    284.85087    346.50791    302.23336   -14.454113    7.6861569    44.274559    40.270339 
89668000    271.61431    335.52027    267.81127   -14.311594    8.0552886    67.708996    40.267764 
89672000    269.89439    317.02538    274.20243   -13.575578    8.5093379    42.822943    40.267026 
89676000    277.55323    326.12817    276.78136   -14.778313    8.1499164    49.346808    40.272425 
89680000    279.00674    320.81634    295.42568   -14.089763    7.8188145     25.39066    40.272729 
89684000    290.91212    341.65082    293.13349   -14.067025    7.4869167    48.517327    40.275199 
89688000    271.39639    306.39741    277.68542   -13.681346    8.7366796     28.71199    40.276002 
89692000    277.19972    330.05365    283.08264   -15.553827    6.6634579    46.971006    40.273551 
89696000    277.48997    334.37568    273.71539   -13.562176    8.1230611    60.660297    40.276111 
89700000    282.04837    337.68814     284.1473   -13.801054     8.651272    53.540835    40.274177 
89704000    279.65049     320.8041    282.14604   -14.382475    9.1520482    38.658054    40.269755 
89708000    271.53305    320.04732    274.89544   -13.996679    7.7761904    45.151882    40.270463 
89712000    276.66952    329.04118    277.94404    -13.87749    9.6820039    51.097139    40.271174 
89716000     275.3111    332.78307     277.6739   -15.483051    7.6051248    55.109168    40.275159 
89720000    270.03095    327.50948    255.14947   -14.528655     9.526086    72.360012     40.27383 
89724000    276.19891    310.32909    274.62186   -11.333791    9.6668567    35.707225    40.277883 
89728000    277.38609    329.06377    272.96737   -13.856393    8.0013024    56.096397    40.278335 
89732000    285.22194    308.86167    304.55729   -12.923325    7.0675544    4.3043876    40.279305 
89736000    278.54754    323.82452    269.90972   -13.534056    9.5546424    53.914801    40.276325 
89740000    268.81605    324.91339    265.60675   -13.966135    8.7422616    59.306645     40.28018 
89744000    278.83813    318.54965    283.87698    -14.30334    9.0469921    34.672663    40.279985 
89748000    274.64324    307.04203    275.58981   -12.916503    9.3246812    31.452219     40.27922 
89752000    275.26464    314.43946    289.97078   -12.991104    8.9437886     24.46868    40.277852 
89756000    284.28681    329.91099    303.41928   -14.778174    8.0056976    26.491709    40.279021 
89760000    282.74512    306.12022    291.02685   -12.736737    8.4640987    15.093377    40.279683 
89764000    279.11648    313.72136    287.03622    -14.76397    8.8656056     26.68514    40.276647 
89768000    278.14334    317.52331    287.43095   -14.098106    8.8520452    30.092358     40.27583 
89772000    266.35638    295.84647     266.2092   -13.130107    9.3078356    29.637274    40.272042 
89776000    277.78886    312.04462    286.27602   -13.745756    7.5266645    25.768596    40.271809 
89780000    280.65662    319.49985    271.77426   -14.165379    9.5129213    47.725597     40.27155 
89784000    282.04526    331.66856    283.89828   -13.846665    9.0815602    47.770278     40.27573 
89788000    281.18961    322.45785    293.82017   -13.915151    7.8607416    28.637678    40.273072 
89792000    271.52834     309.3339    275.99537   -14.185139    8.1578183    33.338528    40.269351 
89796000    278.49175    315.78234    282.27857   -14.719266    8.9563476     33.50377    40.270888 
89800000    281.37122    332.35921    273.89687   -15.197207    8.5250388    58.462337    40.271119 
89804000    273.56876    311.93807     265.4051   -15.313315     9.070483    46.532967    40.273765 
89808000    274.55492    333.79342    263.87767   -15.500653    9.5041688    69.915752    40.278449 
89812000    283.93841    315.70623    291.00127   -14.392489    8.1183604    24.704958    40.278678 
89816000     279.4572    321.74272    269.57335   -13.471166     9.248715    52.169374    40.280268 
89820000    283.95906    332.10961    268.24078   -15.867096     8.120401    63.868831    40.280529 
89824000    284.11196    322.28542    294.61701   -15.051267    7.2790577    27.668411    40.279612 
89828000    282.07017    320.02713    289.72954   -15.153846    7.0252643    30.297594    40.281013 
89832000    288.81411    327.26464    300.32423   -15.229885    7.7149602    26.940408    40.279958 
89836000    271.56999      306.776    275.75825   -14.318783    9.7651491    31.017749    40.282216 
89840000    278.93958    310.12946    271.55795   -15.977791    9.6265115    38.571504    40.282885 
89844000    274.63693    338.95872    280.64084   -16.152707    9.3992307    58.317885     40.28419 
89848000    283.00787     320.6429    285.84406   -14.581179    9.4659777    34.798839    40.282308 
89852000    274.64741    305.63895    278.19508   -15.181124    8.9463833    27.443872    40.279696 
89856000    269.19737    301.79582    281.98133   -14.262706    8.7868781    19.814487    40.276652 
89860000    286.46302    314.49367    302.55359   -14.682975    8.7682577    11.940073    40.275712 
89864000    281.71299    349.50402    290.43925   -17.055413    8.1176593    59.064776    40.274547 
89868000    275.08033    331.00375    270.85777   -15.302631    8.7687538    60.145974    40.283553 
89872000    265.03772    307.22585    253.26717    -14.90827    9.9919093    53.958676    40.287634 
89876000      279.086    331.83436    275.66245   -14.343244     10.10489    56.171913    40.286778 
89880000    276.78434    320.41309    296.48748   -15.475626    8.8299981    23.925617    40.285663 
89884000    270.25961    318.18479    261.68134   -15.765859    10.578442    56.503449    40.285254 
89888000    280.14227    312.19698    290.56329   -14.263093    8.4334863    21.633688    40.279202 
89892000    281.46351    314.46657    298.51787   -14.208547    8.9128112    15.948706     40.28073 
89896000    271.77719    323.92973    253.93202   -15.413943    9.5562944    69.997708    40.280528 
89900000    280.76798    330.08056    269.48099   -15.187765    9.4796451    60.599565    40.280937 
89904000    278.80773    319.13108    254.87268   -15.026594    10.025686    64.258406    40.278713 
89908000    285.13142    345.10119    271.47444   -17.079057    9.9704142    73.626751     40.27624 
89912000    282.34164    358.84598    271.78203   -18.165119    9.4845562    87.063943     40.27789 
89916000    272.46926    309.44726    278.91197   -15.148648    10.147131    30.535296    40.274309 
89920000    286.16582    331.01477    308.94826   -15.783134    7.6064052     22.06651    40.273181 
89924000    278.66853     319.1149    293.50657   -14.262147    9.2319904    25.608333    40.276316 
89928000    277.00383    312.80504    283.05919   -14.208484    9.0262981    29.745849    40.276904 
89932000    277.32007    312.01831    280.80454   -13.575669     10.18679    31.213766    40.277584 
89936000    273.90241    305.52616    294.31377   -14.863337    8.5934172    11.212386    40.278814 
89940000    272.06873    308.09501    277.65026    -14.04001    9.7768912    30.444752    40.280743 
89944000    277.30307    323.28154    299.52043   -15.881975    8.8672588    23.761108    40.279964 
89948000     281.7569    307.96701    300.58035   -14.863433     8.680712    7.3866602    40.273992 
89952000    284.76702    323.44497    301.54913   -15.293762    9.1954343    21.895833    40.273251 
89956000    267.13541    311.76742    256.92844   -14.204015    10.915094    54.838982    40.274538 
89960000    272.06341     314.0984    280.28214    -13.82732    10.195805    33.816263    40.277038 
89964000    277.12874    329.54986    293.03851   -15.230642    9.9738903    36.511355    40.272547 
89968000    281.65233    338.85548    269.30886   -15.702056     11.38919    69.546613    40.270859 
89972000    279.86566    301.39978    293.93351   -13.173086    9.8730044    7.4662668    40.270747 
89976000    268.20658    316.20248    263.85912   -14.911602    11.633703    52.343359    40.270453 
89980000    278.09268    320.80744    295.94639   -14.163239    10.921072    24.861047    40.267601 
89984000    266.31265    299.49427    283.08531   -13.410926    11.500102    16.408965    40.266067 
89988000    275.48193    313.20422    297.85925   -14.989719    11.121396    15.344969    40.267614 
89992000    278.86717    339.36857    272.38779   -15.468879     11.75283    66.980779    40.266474 
89996000    276.29527    327.65323    284.14075   -14.686658    10.969348    43.512482    40.268417 
90000000    270.82463    329.89433    261.38842   -15.480495    10.524922    68.505913    40.270253 
90004000    272.32378    326.54164    266.53397   -13.157948    10.806454    60.007676    40.270683 
90008000    271.89913    324.13826    280.90591   -12.930216    10.256843    43.232357    40.269711 
90012000    275.63302    325.91319    283.57328    -13.83261    10.304146    42.339905    40.266281 
90016000    270.72609    311.03584    272.87477   -12.974767    10.425076    38.161067    40.272167 
90020000    276.71994    332.05013    292.92068   -13.690015    9.9384056    39.129445    40.270576 
90024000    270.77754    315.94236    294.88056   -12.460789     9.542147    21.061803    40.265157 
90028000    272.87177    328.91415    280.62073   -13.806629    9.5613268    48.293423    40.263528 
90032000    269.68554     316.4782    287.08129   -12.877014     10.73959    29.396912    40.265928 
90036000    279.61594    328.34689    287.70454   -12.805699    10.267057    40.642352    40.268046 
90040000    274.33193    331.51322    280.80601   -12.366416    9.9208586    50.707209    40.268614 
90044000    274.11471    324.24709    284.35912     -12.7656    8.7451222    39.887963    40.267004 
90048000    272.06482    314.59716    286.31402   -12.138836    8.3993241    28.283133    40.266133 
90052000    274.26068    334.10157    281.99653   -13.170497    9.3535958    52.105043    40.268007 
90056000    271.91364    322.22746     287.7795   -11.806855    10.716102    34.447959    40.267112 
90060000    258.10196    310.83239    261.56653   -13.386954    10.604438    49.265862    40.270833 
90064000     271.0567    319.66329    288.91986   -11.817553    9.4331912     30.74343    40.267884 
90068000    269.01761    306.66385    276.40597   -11.620305    8.6653448    30.257876    40.266659 
90072000    274.95506      333.254    265.14615   -13.123484    8.9235171    68.107845    40.270477 
90076000    275.80592    315.74942    291.92403   -12.093414    9.1170901    23.825395    40.273878 
90080000    271.43091    302.82761    294.20624    -11.51962    9.0394992    8.6213684    40.273431 
90084000    268.31339    322.74353    273.56182   -13.867306    10.436217    49.181708    40.270671 
90088000    269.80361    317.45279    270.28848   -13.147226    10.218184    47.164308    40.268623 
90092000    273.46299    319.12279    264.42505   -14.799759    9.6932406    54.697737    40.270124 
90096000    264.57826    308.35696    270.97723   -14.149816    10.809295    37.379738    40.271517 
90100000    269.47455    308.90144    281.49825   -12.865479    10.122661    27.403183     40.26998 
90104000    283.75158    330.87942    305.26428   -13.744972    8.8055031    25.615142    40.268909 
90108000    266.56746    316.44595    285.17151   -12.919681    9.4946287    31.274442     40.26961 
90112000    276.49897      325.157    284.56604    -13.11714    9.5824833    40.590955    40.271101 
90116000    271.77942    299.62773    283.83447   -11.563187    10.693282    15.793256      40.2701 
90120000    277.46008    350.32231    281.73347   -14.043843    11.074121    68.588838    40.273082 
90124000     267.1748    304.94776    272.45504   -13.038921    10.793655    32.492718    40.275992 
90128000    275.36962    313.87853    277.36938   -12.202924    10.838686    36.509151    40.277922 
90132000    272.84734    319.71471    287.15462   -11.760325    10.050661    32.560085    40.278641 
90136000    264.55633    310.17813    269.48796   -11.602266    10.556407    40.690172    40.275663 
90140000    274.17459     308.1677    293.39456   -12.253064    9.0551843    14.773145    40.275031 
90144000     278.1285    328.00214    295.29765   -13.499386      8.07588    32.704489    40.272444 
90148000    276.66849    335.53735    272.12362   -12.263222    8.7523375    63.413736    40.271674 
90152000    264.54142    330.59507    273.59093   -13.922597    9.7324597    57.004136    40.273802 
90156000    273.76428    303.67077    289.40455   -12.255343    9.0438092    14.266223    40.270673 
90160000    266.53096    306.43299    284.22904   -12.289466    9.1472949    22.203955    40.271381 
90164000    278.42792     336.5042    292.88697    -12.75135    8.9814313    43.617228    40.270345 
90168000     277.6871    340.63616    269.87702   -14.511484    9.8243429    70.759148    40.271045 
90172000    280.14651    313.46667    291.13379   -12.957425    8.1917818    22.332885     40.26653 
90176000    267.65506    298.02047    283.80327   -11.694708    9.5056608    14.217199    40.264381 
90180000    276.94239     323.6215    289.37482   -13.923442    9.7890012    34.246688    40.261778 
90184000    279.05988    339.53771    277.64347   -14.128328    9.2665341    61.894237    40.259363 
90188000      276.281    314.91196    289.90058   -13.689345     10.77332    25.011383    40.261024 
90192000    273.70268    313.05579     270.5713   -14.001495    12.210456    42.484497     40.26112 
90196000    271.15329    330.38305    274.33917   -13.374323    10.991444    56.043877    40.267453 
90200000    275.40482    315.78295    295.65833    -13.21718    9.2518788    20.124627    40.262664 
90204000    272.22859    324.50439    284.30931   -13.896475    10.423207    40.195088    40.258892 
90208000    275.79809    327.28841    297.94163   -14.383112    9.3511715    29.346772    40.264162 
90212000    263.75556    278.59563     288.5087   -10.379983    10.894321   -9.9130684    40.264699 
90216000    276.56785    340.44385    288.28199   -13.171308    9.7134503    52.161859    40.264873 
90220000    273.21494    314.65656    283.21511   -13.046372    10.566519    31.441456    40.262794 
90224000     268.9363    306.38111    278.82762   -12.314591    11.209638    27.553495    40.263417 
90228000     263.9887    318.32497    258.35778   -11.686216    13.030242    59.967184    40.262923 
90232000    267.05588    313.98224    278.31841   -13.689498     10.80361    35.663832    40.265116 
90236000    274.84753    324.85781     292.0242   -13.795928    10.978139    32.833602    40.262584 
90240000    273.39228    318.22437    289.56049   -12.560602    10.030257    28.663878     40.26053 
90244000    270.64328    308.02804    295.96361   -12.343891    9.3726498    12.064425    40.261901 
90248000    269.91914    305.89897    285.98936   -12.058215    9.2199566    19.909611    40.257275 
90252000    279.11055    342.97457    273.76384   -13.616858    10.808161    69.210735    40.258296 
90256000    277.97317     342.6161    283.97551    -15.07882    10.286541    58.640591     40.25635 
90260000    270.84327    320.61112    282.81145   -13.338159    11.033626    37.799669    40.256185 
90264000    272.28833    306.70326    280.11317    -13.04644     11.00892    26.590087    40.251215 
90268000    275.72769    323.27543    290.53378   -13.608662    11.224894    32.741657    40.248035 
90272000    267.81437    335.54527     265.5786   -13.652168    12.397584    69.966667    40.248394 
90276000    261.68625    330.08315    257.62381   -14.462584     12.57128    72.459341    40.249445 
90280000    269.13292     329.9831    276.98743    -13.26215    10.435998    52.995667    40.249252 
90284000    272.57752    329.97582    288.69016   -14.540365    10.096667    41.285656    40.247871 
90288000    277.93141    320.59292    302.18477   -13.506772    10.431993    18.408151    40.245864 
90292000    269.29018    321.80211    263.00787   -14.331236    11.698614    58.794239    40.242628 
90296000    274.15515    318.69524    275.99937    -14.54334    11.200795    42.695865    40.240371 
90300000    276.25701    322.97377    298.10723   -15.212167    9.8602054    24.866538    40.241504 
90304000    276.14927    314.19915    286.95219   -13.781694    10.566232    27.246961     40.24395 
90308000    276.75851    326.12438    286.89745    -16.34537    11.784016    39.226929    40.243985 
90312000    273.24999    329.55208    286.89545   -14.849839    10.900261    42.656633    40.243895 
90316000    270.13666    325.26271    270.34733   -13.373945    12.434483    54.915385    40.244831 
90320000    279.27173    333.93188    294.21704   -14.728332    10.458978    39.714837    40.243687 
90324000    259.95127    293.92978    273.07785   -12.138374    10.946291     20.85193     40.24279 
90328000    278.61412    337.34839    303.23915    -15.19007    9.7842229    34.109241    40.244281 
90332000    270.43347    298.21752    293.33331   -13.753174    10.850227    4.8842116    40.242081 
90336000    274.78601    320.28345    285.47416    -14.63541    10.227537     34.80929      40.2387 
90340000    280.73909    333.94243    285.09314   -14.511283    10.008424    48.849291    40.240606 
90344000    266.79801    300.52592    272.21477   -13.287932    10.555152    28.311152    40.240885 
90348000    269.17018    301.40454    281.55797   -13.265251    10.889248    19.846566    40.240023 
90352000    275.46611      320.038    294.49887   -14.868254    9.9399551    25.539129    40.239657 
90356000    264.16751    308.62125    265.44957   -13.802082    11.160968    43.171681    40.241336 
90360000    275.66273    344.22408    264.74806   -16.486292    12.698401     79.47602    40.241499 
90364000    278.44413    322.14262    297.06844   -14.012828     10.13593     25.07418    40.240612 
90368000    277.57449    319.16909    299.73702   -14.410805    9.4798533    19.432071    40.239745 
90372000    283.71818    333.78189    307.84386   -14.339346    9.9911457    25.938033    40.237877 
90376000    271.69506    338.31275    274.27363   -15.665274    11.635493    64.039115    40.239045 
90380000    273.99735    320.93388    291.32078   -14.952568    11.129635    29.613096    40.241073 
90384000    264.93172    298.86501    283.59403   -14.181952    12.060765     15.27098    40.240734 
90388000    279.15663    323.80043    300.08523   -15.412933    11.591284    23.715198     40.24299 
90392000    275.02506    310.96813     295.1999   -14.671383    11.633533    15.768235    40.242183 
90396000    271.72482    330.43032    273.86316   -14.197253     12.08533    56.567156    40.243937 
90400000    268.15846    300.39798    279.88454   -12.979768    10.789612    20.513448    40.240003 
90404000    279.61388     342.5832    278.16572   -15.396618    10.495962    64.417484      40.2394 
90408000    277.45323     342.4483    284.09271   -15.460709    10.274505    58.355586    40.240768 
90412000    276.72663    325.56747    285.13302    -14.52031    11.637483    40.434451    40.240046 
90416000    270.50556     319.9005    293.39892   -14.593504    9.5558923     26.50158    40.239509 
90420000    277.26391    329.87391    274.33341    -15.65851    10.190438    55.540492    40.241577 
90424000    279.10639     334.4808    291.97803    -15.33474    9.9903624    42.502777    40.248343 
90428000     273.8021    330.09538    273.31782    -16.07286    11.966134    56.777555    40.251187 
90432000    282.12631    323.63283    288.04818   -15.381642     10.08924    35.584656    40.251882 
90436000     274.4697    317.68054    263.26722   -14.466402    11.345494    54.413321    40.255701 
90440000    277.54853    337.89273    267.88606   -15.920076    11.267993    70.006666    40.256715 
90444000    274.86519    340.70741    273.39651   -16.738025    10.647625    67.310903    40.255653 
90448000     287.4357    331.70065    289.95784   -16.229917    9.6869552    41.742808    40.255124 
90452000    266.30197    309.85306    272.10098   -15.285998    11.348342    37.752086    40.253328 
90456000    279.06352    308.18431    304.46369   -14.995847    9.0688884    3.7206121    40.251516 
90460000    288.42192    341.85598     315.9334   -15.920949    8.7989739    25.922582    40.250495 
90464000    282.77818    336.23962     284.1353   -15.782153    10.353035    52.104315    40.247436 
90468000    273.38442    331.31173    262.79893   -15.886388    11.004373    68.512798    40.247467 
90472000    285.47514    349.63826    290.53645   -16.572294    10.665316    59.101808    40.247869 
90476000    278.62311    328.65638    275.34484   -15.865344    9.8922025    53.311538     40.24728 
90480000    267.75564    315.37268    261.79057    -16.27137     12.46504    53.582109    40.248327 
90484000    278.94834    318.73376    278.07679   -15.073803    11.768318    40.656971    40.250719 
90488000    276.32099    301.08379    283.78627   -13.137858    10.156373    17.297519    40.251453 
90492000    271.60757    313.19995    276.56275   -13.664525    11.633147    36.637193    40.252978 
90496000    289.22169    356.36349    291.38617   -16.996233    10.535952    64.977324    40.251219 
90500000    274.56253    330.47392    282.73009   -15.460002    10.320199    47.743828    40.252368 
90504000    272.19364    322.27716    270.39348   -15.584163    11.958739    51.883672    40.252785 
90508000    280.69703    334.06208    294.65011   -15.374494    10.357082     39.41197    40.253509 
90512000    276.69549    331.47395    283.40985   -15.673761    9.9504062    48.064097    40.251359 
90516000      268.188    313.88442    280.50248   -15.195704     11.23592    33.381939    40.249923 
90520000     265.7107    296.05484    272.18811   -14.980149     11.02121     23.86673    40.248452 
90524000    270.25106      308.155    281.57704   -14.828223    10.848406     26.57796    40.248782 
90528000     271.1627    300.57656    297.81458   -14.017079     10.26446    2.7619847    40.249066 
90532000    278.26981    316.17275      291.705   -16.060271    10.334674    24.467751    40.249171 
90536000    267.92191    310.40852    279.41546   -15.770097    12.247428    30.993067    40.250732 
90540000    266.96528    302.29669    266.04486   -14.294481    11.957027    36.251828    40.254612 
90544000    281.10391    330.78445    279.50869   -17.427183     10.68329    51.275756    40.251177 
90548000    282.25108    305.83333    285.24749   -15.956612    10.612144     20.58584    40.252064 
90552000    271.69266    310.72472    271.68533   -16.048706    11.259379    39.039387    40.252335 
90556000    286.17045    346.87548    302.02324   -16.869582    10.764796    44.852238    40.250753 
90560000    271.64826    304.05864    275.85309   -13.404917    11.087449    28.205545     40.25403 
90564000    273.34724    319.65899    272.89681   -15.227218    11.157313    46.762182    40.254671 
90568000    275.88155     325.7511    286.08321   -16.125998    10.709282    39.667895     40.25532 
90572000    272.82222     323.9155    269.07713   -16.132643    11.342923    54.838377    40.255065 
90576000    283.59119    329.28402    298.74981   -16.179868    10.364163     30.53421    40.252107 
90580000    274.41138    330.68781    282.59311    -16.81723    11.924795    48.094694      40.2523 
90584000     277.2075    322.46774    295.87894   -15.568967    10.198087    26.588795     40.25476 
90588000    269.20196    326.33531    260.84209    -15.37726    13.283464    65.493227    40.255325 
90592000     271.6386    322.87845    265.69314   -14.028939    12.943778    57.185301    40.257509 
90596000    273.60913    315.62182    279.19501   -13.912658    12.512289    36.426812    40.258524 
90600000    273.00159     319.9068    288.32598   -14.435235    11.123933    31.580821    40.256124 
90604000     265.7017    325.53415    269.06691   -15.502743      12.6225    56.467244    40.253089 
90608000    275.07243    325.90081    276.79594   -16.278755    11.958624    49.104873    40.255268 
90612000    276.95007     310.7148    289.17104   -15.018303    12.134366    21.543758    40.253982 
90616000    274.92215    320.48418    272.64284   -15.521768     11.88243    47.841346    40.256153 
90620000    278.28189    325.73195    281.80482   -16.346195    11.492068    43.927135    40.255379 
90624000    269.85488    309.15902    263.44959   -13.905978    13.118741    45.709431    40.251936 
90628000    268.42473    298.30475     290.3936   -14.300814    11.653765    7.9111429    40.248823 
90632000    268.50995    324.44206    257.65561   -15.791739    12.914432    66.786453     40.25013 
90636000    279.14641    318.45798    319.80194   -15.372362    10.771883   -1.3439583    40.249223 
90640000    270.96548    310.47769    286.29193   -15.326908    11.730592    24.185762    40.250036 
90644000    267.88722    307.98193    278.28579   -14.441252    12.586532    29.696143    40.251373 
90648000    288.46294    346.94562    298.10652    -17.71994    11.657491    48.839098    40.251108 
90652000    264.63737    316.32182    270.47431   -14.731879    11.989918    45.847515    40.246192 
90656000    270.77533    300.58403    274.40254   -16.538977    11.806531    26.181489    40.246164 
90660000    269.82288    316.41544     270.5645   -16.503364    11.875947    45.850942    40.244765 
90664000    263.84213     287.5588    281.48639    -14.77007    9.8791237    6.0724038    40.244377 
90668000    275.10549    323.40877    274.41718   -15.226393    11.436445    48.991584    40.241881 
90672000    273.00699    329.12559    259.41328   -16.081192    11.567671     69.71231    40.242656 
90676000    274.73192    317.72505    302.00929   -15.156032    9.5010155    15.715753    40.243515 
90680000    266.17168     301.2671    288.43413   -15.441808    12.031141    12.832966    40.245649 
90684000     268.9383    323.99296    256.72964    -15.59117    13.424192    67.263323     40.24647 
90688000    272.02279    298.43592    295.62306   -13.740103    11.823932    2.8128641     40.24444 
90692000    280.62436    329.33905    304.88458   -16.286794    11.726639    24.454472    40.243615 
90696000    272.90878    317.60193    275.65689   -14.967953    12.332995    41.945041    40.240823 
90700000    280.36428    320.85023    284.83121   -16.357474    10.920912    36.019019    40.240763 
90704000    278.96126    332.42556    288.71337   -17.601317    11.866816    43.712194    40.242588 
90708000    275.16077    320.92027     283.4677   -16.814386    12.211597    37.452568    40.245006 
90712000    277.41276    335.97718     280.1523   -17.475016    12.542302    55.824879    40.243836 
90716000    273.56358    301.48633    265.31193   -16.923975    13.409106    36.174397    40.241722 
90720000    274.95517    317.77783    285.55228   -16.323792    12.264961    32.225548    40.243272 
90724000    271.39248    315.25554    267.32032   -15.905199    13.324215     47.93522    40.242369 
90728000    283.44515    333.26294    284.91268   -16.753369     11.75468    48.350261    40.240572 
90732000    276.62173    303.88129    281.40344   -16.518448    11.473707    22.477856    40.241511 
90736000    266.07358    317.34761    256.56712   -17.667549    12.856309    60.780491    40.243345 
90740000    276.21393    331.92809    280.49883   -17.486422    11.650575    51.429262    40.244301 
90744000    275.25702    310.51671    294.43933   -15.650583    11.162619    16.077379    40.244264 
90748000    271.54122    317.55097    272.29489    -17.13797     11.85036    45.256082    40.247374 
90752000    273.47139    321.42136    294.16476   -16.983126     11.24889    27.256598    40.247594 
90756000    287.74307    343.00998    283.86248   -16.741985    11.728275    59.147498    40.245807 
90760000    277.82699     333.7568    282.91784   -16.483317    12.070992    50.838957    40.246665 
90764000    275.23532    344.14285    278.19518   -16.742128      12.3583    65.947671    40.249152 
90768000    278.79149    312.24263    284.32995   -14.819553    12.070734    27.912688    40.246714 
90772000    272.01312    306.99674    275.67879   -16.281192     12.80512     31.31795    40.246009 
90776000    284.93374    349.36511    294.11513   -17.141707    11.428992    55.249975    40.249421 
90780000    283.75327    341.87492    286.92276   -18.184571    12.643791    54.952152    40.249009 
90784000    273.12909    327.92764    264.68806   -16.600633    13.960781    63.239584    40.252331 
90788000    270.94608    311.06074    292.54631   -15.963482    11.956698    18.514423    40.250698 
90792000    277.19715    333.69779    259.16337    -15.92256    13.621508    74.534416    40.253573 
90796000    280.01732    329.31942    274.44077   -17.140136     13.09215    54.878652    40.252857 
90800000    272.88564    325.07463    282.51197   -17.177002     12.06612    42.562651    40.252754 
90804000    283.63082    326.79863    287.98922    -17.05985    11.845797    38.809413    40.253679 
90808000    278.68442    303.22298    301.86296   -16.546284    11.762769    1.3600216     40.25145 
90812000    277.40284    342.40237     269.7698   -17.859518    13.140885    72.632572    40.251464 
90816000    273.55127      315.451    286.62896     -16.2342    12.135258    28.822032    40.250919 
90820000    275.38418    335.56845    263.17754   -17.700601    13.975238    72.390906    40.253194 
90824000    268.81518    319.26009    286.13459   -16.440663    13.296818    33.125495     40.24935 
90828000    271.87163    319.89923    284.87038   -16.461377    12.463834    35.028854    40.249747 
90832000    280.48511    310.45593    293.33231   -16.042321    10.977484    17.123621    40.250502 
90836000    270.27992     309.9874     271.9219   -16.194245    11.574925    38.065498      40.2502 
90840000    278.89205    326.75624    283.82249   -17.814598     11.65915    42.933742    40.248686 
90844000    273.03196    319.33101    281.32012   -17.123247    12.590936    38.010887    40.245758 
90848000    266.09265    287.23585     257.7431   -15.620859    13.597245    29.492746    40.247358 
90852000    272.99842    319.68036    281.25136   -17.588666    11.415344    38.429001    40.244558 
90856000     272.7045    298.23194    278.95978   -17.037992    12.286156    19.272167    40.241809 
90860000    272.16312    308.67916    284.54501   -16.768474    11.459721    24.134152    40.241617 
90864000    285.54613    349.48578    279.25218   -17.601583    12.566725    70.233596    40.240933 
90868000     284.5793    333.70967    296.51148   -17.820581    11.825947    37.198194    40.241122 
90872000    273.31421    306.09608    274.58801   -16.142629    12.885079    31.508066    40.241248 
90876000    273.68602    306.75877      285.371   -15.456382    11.019002    21.387768    40.245043 
90880000    276.15858    318.30615    292.80477   -16.150733    11.508501    25.501374    40.244755 
90884000     280.6795    324.03422    277.98143   -17.131149    12.375601    46.052783    40.241239 
90888000    269.25384    302.29348    261.11682   -17.188486    12.400021    41.176652    40.239953 
90892000    289.02179    323.90529    299.63422   -17.232173    11.066984    24.271074    40.234712 
90896000    270.54834    319.59328    259.24592   -18.117363    13.123665    60.347355    40.233901 
90900000    273.00604    307.29796    287.64854   -18.063039    10.839465    19.649419    40.233508 
90904000    284.81696    330.98096    283.21097   -18.434742    12.048869    47.769998    40.233162 
90908000    274.89252    319.90771     273.5954   -18.162705    11.672876    46.312308    40.234769 
90912000    280.07325      317.267    283.55655   -18.665494    11.172678     33.71045    40.233393 
90916000    274.70101    306.63148    276.11689   -17.310075    13.609647    30.514594    40.234943 
90920000    282.09547    315.46912    285.64237    -17.90277    12.094712     29.82675    40.234939 
90924000    270.58281    307.76067     258.7393   -17.410948    12.781191    49.021368    40.235828 
90928000    287.13324    330.25158    272.60236   -18.644575    12.243177    57.649218    40.234398 
90932000    273.69301    312.91397    263.11342   -17.182916    11.547732    49.800554    40.232704 
90936000     281.5368     317.3979    269.36299   -18.894823    11.540488    48.034912    40.231159 
90940000    272.79699    302.64614    258.06027   -17.772312    11.969893    44.585867    40.234512 
90944000     277.7248    301.67457    278.17308   -16.742208    10.535177    23.501498    40.233992 
90948000    276.57741    318.00733    275.47459   -18.157098    11.333532    42.532744    40.233137 
90952000    283.06475    337.80692    266.01111   -18.734464     11.64194    71.795815    40.236209 
90956000    279.55844    331.00642    261.03101   -18.425937    11.908274    69.975415    40.235941 
90960000    277.09032    321.70901     269.0405   -18.231189    12.320661    52.668513    40.236064 
90964000     276.8444    323.48855    263.06117   -19.781604      12.5973    60.427378    40.233773 
90968000    283.97689    341.88217    271.21559     -19.9815    11.509554     70.66658     40.23246 
90972000    284.85837    334.61488    290.27963   -19.804034    9.4274711    44.335242    40.230875 
90976000    282.39117    300.34375    282.45009   -16.195829    11.310391     17.89366     40.22999 
90980000    283.89988    322.67028    283.51532   -17.723266    10.799284    39.154958    40.232632 
90984000    285.10026    350.12777    271.99779   -18.959955    11.771597    78.129976     40.23073 
90988000    277.64961    321.23654    272.75745   -17.215791    12.153871    48.479091    40.232395 
90992000    275.09514    311.14655    275.31655   -17.709824    11.912891    35.829998    40.228261 
90996000      277.923    297.41279    299.39107   -16.052193    11.154475    -1.978279    40.226359 
91000000    271.50038    308.09412    266.65922   -16.256865     12.08136    41.434894      40.2228 
91004000    274.90216    303.62647    276.81462   -16.643801    12.092962    26.811846    40.220907 
91008000    274.80071    307.11248    290.44635   -17.168663    11.318485    16.666129    40.219541 
91012000    279.95829     313.4143    288.24481   -17.310207    11.712253    25.169487    40.217519 
91016000     267.0575    302.69229    280.22374   -16.977659    12.330838    22.468553    40.214394 
91020000    282.84099    323.60008    297.60334   -17.813646    13.139615    25.996748    40.214875 
91024000    277.59566    318.56901    294.91267   -17.395879    13.527134    23.656344    40.214451 
91028000    283.71647    328.90783     290.8699   -18.297541    13.512555    38.037935    40.215276 
91032000    275.02709    310.27916    301.49829   -16.697006     12.07286    8.7808711    40.214261 
91036000    271.56273    314.02875    273.84713   -17.005385    13.530083    40.181623    40.213873 
91040000    273.13511     323.2539     283.9009   -16.551083    13.508095       39.353    40.213194 
91044000    268.08014    293.41123    290.49073   -14.748599    12.447288    2.9204998    40.212125 
91048000    271.09161    314.58157    291.85321   -15.395421    12.166443    22.728369    40.209737 
91052000    269.03328    322.20133    264.11265   -16.090356    12.867659    58.088679    40.210907 
91056000    266.48909    330.62894    265.38332   -16.331018    13.210404    65.245615    40.207203 
91060000    277.94889    343.95781     274.6612   -18.449597    11.338454    69.296609    40.208208 
91064000    282.47917    334.12693    282.87177    -17.21374    12.627986    51.255155    40.208968 
91068000    278.32708    318.71697    312.02376   -16.505589    10.529537    6.6932081    40.209069 
91072000    289.44868    355.10761    309.23043   -18.918414    11.055991    45.877178    40.209071 
91076000    270.44069     305.1767    273.21515   -17.789363    13.246776    31.961554     40.21144 
91080000    277.57553    334.80832     277.2102   -17.792465    13.270965    57.598119    40.211211 
91084000    280.99918    321.38775    284.36753   -16.629788    12.198229    37.020225    40.208812 
91088000    269.09965    312.93917    268.74728   -16.370705    13.705619    44.191894    40.211649 
91092000    270.25595    307.03581    278.68889   -16.611701    11.755566    28.346927    40.213002 
91096000    276.73867    321.99327    274.86178   -18.410002    12.451668    47.131498    40.215476 
91100000     273.0368    314.96605    269.68986   -17.874975    13.070643    45.276189     40.21211 
91104000    275.21676    308.15308    270.32258   -17.346009     12.80484    37.830505     40.20904 
91108000    282.63243    352.91271    283.98422   -19.483714    11.858688    68.928494    40.208416 
91112000    266.73464    305.75945    249.88598   -16.957915    13.822973    55.873471     40.20995 
91116000    275.38546    302.85912    286.57193   -17.117847    11.898457    16.287186    40.211059 
91120000    282.88936    335.29085    291.25099   -17.946445    12.191232    44.039868      40.2124 
91124000    277.50034    314.16155    297.46013   -17.546643    12.772766    16.701422      40.2098 
91128000      271.178    307.24343    260.29316   -16.783785    13.677883    46.950274    40.205871 
91132000    282.30399    317.50941    300.56837   -17.111698     11.16941    16.941042    40.203435 
91136000    282.48851    317.63041    297.73838    -17.59152    11.579059    19.892029    40.201004 
91140000    273.43659    330.09186    270.94306   -17.484542     13.66426    59.148808    40.199736 
91144000     273.4498    322.01222     275.2121   -17.257358    13.415467    46.800121    40.197453 
91148000    268.76394    301.17249    274.36123   -15.097269    13.269564    26.811253    40.196544 
91152000    272.90594    326.55019     278.7851   -17.366584     13.48766    47.765087    40.196489 
91156000     274.2451    310.00167    298.99903   -16.404796    11.626241    11.002648    40.196684 
91160000    263.26399      297.702    277.96613   -15.453852    12.790889    19.735873    40.196598 
91164000    277.96026    333.94967    284.21729   -17.178716    13.227462    49.732386    40.195557 
91168000    274.07733    317.03747     273.7785   -16.698973    13.010139    43.258966    40.192516 
91172000    273.06668    316.40192    269.89327   -16.951401    12.959979    46.508648    40.191572 
91176000    283.10847    322.97975    284.87804   -16.894826    11.383255    38.101706    40.190609 
91180000    271.81872    294.58714    274.83534   -16.618311    11.081652    19.751801    40.189044 
91184000    273.31895     290.4536    273.87737   -16.074766    11.786037    16.576233     40.18944 
91188000    273.45733    312.47289    274.90347   -18.177393    12.397319    37.569425    40.189043 
91192000    277.13323    310.74417    282.66437   -16.339281    12.605634    28.079797    40.190852 
91196000    277.84813     320.3266    274.97845   -15.727579    12.188897     45.34815    40.192586 
91200000    274.19087    300.47204    270.04318   -15.409017    11.870002     30.42886    40.191958 
91204000    275.56204    313.77171    279.74363   -15.731286    10.693859    34.028083    40.193744 
91208000    281.45476    319.98412    288.48739   -17.115673    10.911289    31.496732    40.192332 
91212000    272.65345    336.28145    267.51569   -17.771413    12.051193     68.76576    40.190614 
91216000    283.09027    311.63332    291.04563   -17.095751    11.158087    20.587684    40.192563 
91220000    275.89513    311.12587    278.67077   -16.970437    10.989935      32.4551    40.193105 
91224000    280.74359    308.43753    278.39008   -17.177542    11.476254    30.047449    40.194417 
91228000    278.94341    315.23862    286.78036    -16.13682    11.853383    28.458253    40.192609 
91232000    279.00532    332.81602    290.69422   -16.864528     10.56632    42.121799     40.19455 
91236000    283.36519     356.0565    279.58385   -18.249637    11.624458    76.472656    40.197379 
91240000    284.50208    328.60721    279.85008   -16.735184    10.539822    48.757128    40.196551 
91244000    270.83168     306.2279    288.71913   -15.613595    10.834764    17.508764    40.194556 
91248000     276.0561    312.84439    284.54433   -17.041585    11.623492    28.300065    40.196395 
91252000    284.32594    328.79303    274.27453   -16.888388    12.784323    54.518497    40.196093 
91256000    269.93266    315.42318    278.41444   -17.501388     11.09894    37.008736    40.196964 
91260000    271.62426    303.16768    287.47476   -16.020171    11.303247     15.69292    40.196135 
91264000    284.08569    321.71591    289.68904   -18.373971    11.637696    32.026862    40.193062 
91268000    276.15534    316.41265    279.48407   -17.488536    12.348333    36.928583    40.193907 
91272000    279.05917    308.95733    276.89862   -16.862091    12.499633    32.058704    40.194089 
91276000    273.80182    305.03898    260.44263   -16.899705    12.402343    44.596341    40.192929 
91280000    279.12492    307.39418    296.56701   -18.352482    10.764791    10.827169    40.193978 
91284000    277.32984    297.26793     291.9017   -16.242257    12.187069    5.3662305    40.197164 
91288000    275.69176    311.73824    276.38093   -17.731478    11.515979    35.357307     40.19707 
91292000    279.41424    334.52927    271.55256   -18.832947     12.27087    62.976706     40.19856 
91296000    277.43201      323.127    278.64137   -17.630472    12.160217    44.485634    40.197799 
91300000    276.64807    331.45461    279.13408   -17.799489    13.171331    52.320533    40.201204 
91304000    285.84285    336.63194    297.95287   -18.166367    11.003308    38.679071    40.199407 
91308000    285.58589    321.76505    301.31259   -18.208212     10.20911     20.45246    40.196598 
91312000    289.52972    355.86413    275.59749   -19.919181     11.28864     80.26664    40.196275 
91316000    268.92249      301.572     281.4662   -17.631539    12.179646    20.105809     40.19419 
91320000    274.65655    319.00825    280.56036   -17.181343    11.733387    38.447892    40.194315 
91324000    277.99984    330.46738    284.52403   -18.611265     12.00705    45.943355    40.196474 
91328000     277.8565     328.0791    288.01662   -18.524163    11.695897    40.062479    40.196456 
91332000     276.2931    323.12388    283.45331   -17.164533    11.672069    39.670574    40.196783 
91336000    277.70625    317.31744    272.24657   -18.192002    12.825243    45.070871    40.196734 
91340000    273.43881    323.85514    271.96484   -17.697423    13.142603    51.890304    40.199078 
91344000     273.9153    328.41357    275.53969   -17.352566     12.78788    52.873886    40.199522 
91348000    284.29827    332.55558    290.44108   -17.330106    11.063977    42.114502    40.195882 
91352000    271.43588    302.12073    255.50612   -17.076689    12.687066    46.614617    40.196349 
91356000    280.49897    322.75269    307.40641   -17.517204     11.79497    15.346282    40.195662 
91360000    277.16556    333.20252    279.16353   -18.044841    14.005465    54.038988    40.197284 
91364000    268.06092    281.50581      270.995   -16.411654     13.73823    10.510814    40.198603 
91368000    278.13534    319.43994    281.84607   -17.303822    12.250245    37.593867    40.199593 
91372000    276.61772    312.63972    279.08119   -17.423062    13.410213    33.558538    40.201839 
91376000     269.4372    301.20172    269.84822   -17.315729    13.729309    31.353495    40.201055 
91380000    282.92809    331.72109    292.61095   -17.800331    12.106327    39.110147    40.201834 
91384000    284.32399    333.32132    282.39217   -17.192475    12.844582     50.92915    40.200843 
91388000    272.71723    284.22301    293.19347   -15.989149    13.009774   -8.9704533     40.20239 
91392000    277.61196    324.90668    300.25228   -18.683106    12.350934    24.654396    40.201908 
91396000    272.56291    306.40028    275.90684   -17.316921    12.778602    30.493443    40.201187 
91400000    265.89843    295.67898    276.13441   -16.136015    13.090378    19.544572    40.199589 
91404000    275.54618    317.75933    274.05046    -16.08517    13.371218    43.708866    40.198896 
91408000    275.97277    302.12204    299.61061   -15.707773     12.21907     2.511433    40.197017 
91412000    277.06623    333.92342    270.69463   -19.434238     13.98469    63.228793    40.196265 
91416000    277.81403    303.28043    284.48662   -17.040401    13.060807    18.793814    40.192187 
91420000    274.79926    309.59436    291.04643   -16.954263    13.876219    18.547931    40.191521 
91424000    273.84467    312.05469     266.2116   -17.603995    14.834314    45.843086    40.193637 
91428000    274.66952    319.64034    272.42326   -17.405597    13.668167    47.217079    40.194682 
91432000    279.81374    325.41236    300.89265   -18.895833    12.460571    24.519713    40.196094 
91436000    274.37931    315.32233    281.53924   -18.360652    13.062768    33.783085    40.193567 
91440000        276.4    309.70821    292.51926   -18.476985    12.529001    17.188948    40.191874 
91444000    269.80548    320.35111     254.5852   -18.106657     14.50369    65.765916    40.193298 
91448000    275.15474     320.8888    276.78467   -18.139885    12.499454    44.104132    40.191236 
91452000    261.65762    293.32101    250.57094   -16.662271    14.630616    42.750076    40.187484 
91456000    272.20049    310.87165    271.57519   -18.497802    13.633204     39.29646    40.187065 
91460000    280.59394    326.70817    271.04139   -18.444778    13.834134    55.666785    40.184217 
91464000    277.84356    305.66277    289.39867    -16.66475     11.95448    16.264103    40.182456 
91468000    281.70283    320.47311    286.97753   -17.959103    12.108809    33.495588    40.178769 
91472000    273.96594     324.0843    270.62452   -17.620432    13.310146     53.45978    40.178248 
91476000    273.56705    312.13882    278.67296   -17.969423    12.047287    33.465865    40.179764 
91480000     287.4534    333.95067    295.85979   -18.882318    12.571343     38.09088    40.178191 
91484000    274.99444    305.76764    267.02649   -16.158134    12.639949    38.741148    40.179138 
91488000    268.27359    315.27482    273.18314    -18.07779    13.453903    42.091676    40.180962 
91492000    280.66569    315.65423    276.99708   -17.175205    13.760899    38.657146    40.177794 
91496000    276.02558    325.35766    289.38238     -19.6148    13.378868     35.97528    40.178292 
91500000    272.08865    318.80345    247.88127   -18.952335    15.220855    70.922174    40.179105 
91504000    283.88494    328.66117    276.18246   -20.171665    13.848563    52.478709    40.179609 
91508000    278.26616    325.54358     281.4589   -18.992748     11.75308    44.084682    40.178397 
91512000    283.30825    320.42457    287.21842   -18.573481    11.942722    33.206159     40.18089 
91516000    281.08281    311.43929    290.75822   -18.267255    11.563202    20.681074    40.181314 
91520000    288.19011    332.69128     274.3188   -20.673667    11.639905    58.372475    40.179344 
91524000    290.33958    353.57022    265.29113   -19.893937    12.909992    88.279094    40.178492 
91528000    280.92091    327.33062    286.61908    -19.20235     11.84096    40.711538     40.18157 
91532000     278.0894    336.03572    258.87761   -20.250073    13.806193    77.158105    40.183505 
91536000    275.41955    325.18803     289.8767   -19.129413    12.879722    35.311334    40.186951 
91540000    278.87616    329.85745    261.30889   -17.686551     12.81493    68.548555    40.188655 
91544000    280.87174     327.5931    275.16396   -18.693828    11.675729     52.42914    40.188942 
91548000    274.03688     317.3248    278.06516   -18.246401    11.446304    39.259643    40.187581 
91552000    277.94943    334.26663    264.84393   -18.677297    13.575876    69.422697    40.187532 
91556000    279.65733    320.12443    303.59953   -18.177786    11.994055    16.524904    40.185765 
91560000    291.18762    337.65309    291.89041   -18.781967    12.260459    45.762685    40.184706 
91564000    272.47099    292.40233    275.57198    -15.97183    11.447253    16.830351    40.184437 
91568000    283.86614    338.18029    248.32001   -19.000293    13.101484    89.860279    40.186833 
91572000    284.07256    334.46671    293.51216   -18.965994    12.356815    40.954545    40.186483 
91576000    277.89992    309.79168    274.50173   -17.432298    13.148596    35.289948    40.182638 
91580000    273.98069    305.95681    275.88591   -16.936918    12.477221    30.070901    40.184157 
91584000    286.30674    347.50226    280.27486   -19.390067     12.62759    67.227408    40.183513 
91588000    281.23257    338.99768    266.51311   -19.682086    12.970146    72.484575    40.182454 
91592000    278.29779    313.40325    288.35557   -18.821339    11.653198    25.047685    40.183981 
91596000    278.08258     313.1651    278.54094   -18.109852    12.638081    34.624168    40.183018 
91600000    283.92293    346.25196    254.81476   -19.810152    13.293337    91.437193    40.180676 
91604000    280.93705    309.33342    292.27971   -18.169878    11.747296    17.053707    40.180571 
91608000     279.3443     315.2173    281.76921   -18.745832    11.608126    33.448087    40.182063 
91612000    279.87763    312.85845    270.23838    -19.62414     12.55001    42.620068    40.180025 
91616000    277.36528    311.68624    289.61526   -18.697036    12.077299    22.070982    40.179547 
91620000    273.79448     312.6888    273.43318   -18.481205    12.475574     39.25562     40.17946 
91624000    277.54518    306.92418    287.50291   -19.188909    13.001684    19.421267    40.177487 
91628000     276.3635    318.14828    280.61233   -20.003513    13.488984    37.535947    40.176391 
91632000     282.7902    322.09897    284.10506   -18.945127    14.278859    37.993909    40.175211 
91636000    278.05764    327.79129    260.52539   -18.237604    13.785067    67.265903     40.17368 
91640000    282.77597     317.4127    294.55404   -17.143352    13.324221    22.858658    40.173708 
91644000    286.07662     324.3955    292.57278   -19.611014    12.417855    31.822719    40.172918 
91648000    281.87326    321.32931    286.28789   -18.946307    13.619692    35.041419     40.17273 
91652000    291.67711    335.02937    316.37724   -19.331538    11.592457    18.652123    40.173978 
91656000    276.46036     310.6796    275.82743   -17.858565    13.209036    34.852169    40.175318 
91660000    279.96302    317.43669    274.19058   -20.669548    14.636507    43.246103    40.172582 
91664000    275.42497     323.4221    262.92153   -19.670099    14.934196    60.500562    40.167757 
91668000    284.51339    340.58503     295.0458   -20.925255    13.323317    45.539222     40.16765 
91672000    277.36695    304.83669    285.11301   -20.013834    14.465984     19.72368    40.165906 
91676000    277.05703    334.92884    274.06297   -19.278689    14.937964    60.865865    40.166004 
91680000    275.90972    310.77126    285.16826   -17.714233    13.780704    25.603001    40.164894 
91684000    271.10513    291.85753    286.79244   -16.802011    14.350154    5.0650846    40.162059 
91688000     276.6886    328.72545    283.90404   -20.129206    14.504265    44.821407    40.162902 
91692000    275.02322    357.57858    250.71278   -19.799375    15.500764    106.86579    40.161836 
91696000    270.43471    302.56405    268.77502   -17.975802    14.078254    33.789029     40.16314 
91700000    272.56497    320.90466    266.89932   -18.877757    14.505736    54.005342     40.16588 
91704000    275.98926    310.78227    294.84395     -18.4819    13.561636     15.93832    40.167513 
91708000    278.97165    311.25212    278.80347   -18.253869    14.830761    32.448657    40.169268 
91712000    284.06085    345.10256    278.14728   -19.984988    14.476685    66.955278    40.172197 
91716000    281.68835     355.7602    275.81054    -20.47231    14.806237    79.949661    40.172764 
91720000    263.23562    292.17105    256.83823   -18.008121    14.569469    35.332815    40.173573 
91724000    274.59753    293.11641    278.75769   -18.240435    14.386356    14.358721    40.171609 
91728000    273.97497    321.04134    268.61103   -18.629873    15.019314    52.430303    40.173408 
91732000    279.82755    334.86133    280.92253   -19.885857    14.195105    53.938799    40.171515 
91736000     274.9619    311.13852    269.39363   -19.675809    15.377641    41.744885    40.173508 
91740000    268.55256    308.28037    274.69032   -18.337686    15.351188    33.590047    40.173697 
91744000    279.87932    332.28704    295.40156    -18.87836    14.930247    36.885473    40.170589 
91748000    262.71914    304.58776    262.83096    -18.75837    15.799025    41.756796    40.167279 
91752000    275.61917    311.52886    284.23333   -19.436903    14.989536    27.295524      40.1665 
91756000    268.85944    323.97894    265.31742   -19.272393    15.994745    58.661527    40.165073 
91760000    279.52901    331.37686    276.96216   -19.741347    14.422016    54.414702    40.163029 
91764000    267.56111    293.07802    279.86194   -18.188519    15.255957    13.216082    40.163763 
91768000    277.37513    339.36154     290.9862   -20.504232    14.676377     48.37534    40.166734 
91772000    268.37583    291.01257    294.73177   -17.188156     15.09304   -3.7192007    40.165644 
91776000    266.53353    292.83218    285.84523   -16.996996    14.919051    6.9869401    40.166881 
91780000    270.16506     303.0724    274.14272   -18.966032    16.720912    28.929678    40.167625 
91784000    282.66446    329.80459    296.50877    -19.66899    14.642771    33.295828    40.167563 
91788000    276.39196    320.77043     276.7561    -18.46149    15.959191    44.014331    40.167648 
91792000    275.38241    325.86752    285.82458   -18.954906    14.830709    40.042943    40.168376 
91796000    264.19585    299.68333    260.40019   -19.964564     17.01121    39.283147    40.168669 
91800000    279.60474     314.3121    277.35488   -19.365649    15.848686    36.957213    40.167931 
91804000    272.29033    297.53931    282.07354   -18.848411    16.730494     15.46577    40.169317 
91808000    278.82927    330.09402    273.20373    -22.17544    17.193012    56.890291    40.169459 
91812000    272.92419    295.37699    281.52575   -19.894819     16.11818    13.851248     40.17123 
91816000    279.16227     337.4384    267.50963   -20.744993     16.11085    69.928776    40.169861 
91820000    263.76783    319.20987     262.5353   -20.084603    16.459675    56.674572    40.166871 
91824000    276.00699    325.19745    265.04872   -19.831859    17.812478    60.148724    40.167742 
91828000    266.72045    295.87887    294.11437   -18.441994    15.705257    1.7645042     40.16587 
91832000    269.82273    323.09419    284.88374   -19.605515    15.400154    38.210447     40.16421 
91836000    285.18129    320.45989    299.50923    -19.63736    14.148724    20.950663    40.163122 
91840000     277.1331    324.74142    297.14236   -19.198502    15.096674    27.599056     40.16271 
91844000    273.41335    323.30142    279.21901    -19.48157     16.60417    44.082414    40.161134 
91848000    271.82299    306.72838    274.42302   -18.837582    15.490627    32.305365    40.163832 
91852000    272.92372    331.36813    282.99741   -19.980791    15.976029    48.370718     40.16358 
91856000    278.54217    332.86545    288.25436   -18.993807    15.046891    44.611093    40.162964 
91860000    273.86691    332.57592     281.8474   -19.676588    16.202515     50.72852    40.163318 
91864000     272.0883    313.57863    289.16082   -20.072638    15.887232    24.417813    40.160696 
91868000    263.97408    307.05481    259.90143   -20.293365    16.350306     47.15338    40.162075 
91872000    270.78064    319.89672    266.13074   -20.531169    16.592569    53.765974    40.163166 
91876000    261.19018     289.7643     258.6958   -18.481993    14.938746      31.0685    40.161027 
91880000    270.43066    305.00416    261.36266   -20.223258    15.860193    43.641494    40.164711 
91884000    282.64834    336.61936    304.98858   -22.028569    14.710568    31.630778    40.166837 
91888000     271.1691    302.78963    276.40122   -19.518417    16.091315    26.388409    40.166682 
91892000    268.38558    315.15072    269.63271   -19.805919    15.020779    45.518018    40.167079 
91896000    288.58739     353.5981    294.71243   -22.597001    13.784787    58.885672    40.166695 
91900000    281.96755    345.77519    272.33008   -20.049654    14.948893    73.445113    40.167121 
91904000    278.83966    323.23329     279.2775   -19.400549    14.664181    43.955791    40.166903 
91908000    279.44105    335.38033    287.09649   -21.034298    14.461131    48.283841    40.168839 
91912000    285.35278    337.93337     286.6481   -21.655079    14.390399     51.28527    40.169941 
91916000    277.16077    313.79899    280.67788   -20.841009    16.375782    33.121109    40.168506 
91920000    284.49667     338.2531     287.4076   -21.798723    15.231838    50.845499    40.166044 
91924000    283.61427    337.70211     274.1386    -19.77178    15.661673    63.563511    40.166315 
91928000    271.77372    315.23679    272.06672   -19.772451    15.936191    43.170068    40.167651 
91932000    265.89133    292.46249    271.85221   -19.014181    15.222023    20.610284    40.169328 
91936000    279.49559    325.98622    269.90124   -21.307047    15.913672    56.084975     40.16945 
91940000    277.83938    323.65728    284.44157   -21.221486    15.498464    39.215715    40.171933 
91944000    288.62764    318.65608    318.82896   -21.460461    12.811887  -0.17287771    40.168327 
91948000    275.16362    307.57326    282.58208   -18.812111    15.589503    24.991176    40.166353 
91952000    283.41294    313.83891    287.69953   -21.334933    15.432698    26.139379    40.164334 
91956000    277.90072    331.10057    281.19145    -21.37583    15.517078    49.909122    40.164205 
91960000    280.10839    329.24117    295.31923   -22.603284    16.284288    33.921939    40.162927 
91964000    276.67495    313.31913    273.63611    -21.02738    16.040944    39.683023    40.163449 
91968000    276.39357    306.72639    282.20245   -22.085794    15.454281    24.523944    40.163123 
91972000    272.12987     321.1961     268.3167   -21.622517     16.32309    52.879395    40.161062 
91976000    272.11987    309.76495    276.22139   -20.954701    16.291365    33.543558     40.16048 
91980000    287.18265    338.07705    289.40762   -21.659632    16.149634    48.669425    40.159696 
91984000    284.17942    339.08791    297.06322   -22.399724    16.290169    42.024689    40.158624 
91988000    276.84702    313.23473    279.31011   -20.344134    16.615887    33.924618     40.15607 
91992000    277.98486    332.65279    289.85192   -21.397801    15.424791    42.800866    40.158568 
91996000    276.15741    314.20292    274.60062    -20.86486    16.643109    39.602307    40.157529 
92000000    280.43068    332.23971    282.78051   -21.871498    15.805805    49.459202    40.156964 
92004000    279.99532    330.24084    270.22801   -21.165299    17.245642     60.01283    40.155704 
92008000    279.47517    318.89789    276.70087    -21.34308     17.47851     42.19702    40.153594 
92012000    273.08217    321.58353    266.08958   -21.995675    18.461454    55.493945    40.153762 
92016000    274.40203    329.60836    271.09736   -22.846668    18.370369    58.511007    40.155729 
92020000    273.43452    317.15514     266.3447   -22.667877    17.585946    50.810444    40.156491 
92024000     278.0673    322.16281     274.5986   -21.587827    17.642646    47.564213    40.156091 
92028000    267.55765    317.61838    278.10322   -21.200203    16.974106    39.515157    40.156247 
92032000    273.85086    318.55877    287.59666   -21.805636    16.837662    30.962113    40.159337 
92036000    274.17723    310.72982     281.2332   -19.606865    17.117679    29.496617    40.158676 
92040000    270.51348    314.54215    277.92939   -20.120602    17.186906    36.612759    40.158995 
92044000    272.35072     307.8159    288.75074   -20.088138    15.759016    19.065168    40.158781 
92048000    273.82774    319.38535    281.73366   -21.374827     15.38202    37.651684    40.159196 
92052000    279.75859    347.87189    262.37028   -21.349034    16.821044    85.501613    40.159561 
92056000     281.7761    325.25521    272.05527   -21.309175    15.925958    53.199941    40.160548 
92060000    286.41778    330.96188    276.49673   -21.033772    16.859859     54.46515    40.159407 
92064000    289.21245    332.15422     301.9809    -21.83785    16.037892    30.173317    40.159148 
92068000    281.96848    317.94983    294.40835   -21.738192    15.041622    23.541484    40.159211 
92072000    272.68116    319.97249    257.58118   -21.330543    17.350329    62.391312    40.160893 
92076000    277.64311    306.06077    283.14557   -20.792772    16.238429    22.915204    40.158908 
92080000     274.4877    313.74814    275.55917   -20.153724    16.224425    38.188971    40.158512 
92084000    280.27607    340.65214    275.26626   -21.978454    15.206071    65.385882    40.160218 
92088000    289.76944     329.3103    306.44936   -22.126334    13.757393    22.860945    40.160701 
92092000    275.47699    326.28631    272.37775   -22.562007    15.194397    53.908566    40.158827 
92096000    282.23353     321.7866    292.51098   -21.588836    13.748073    29.275621    40.160817 
92100000    283.21599     319.1294    283.67437   -21.596945    14.426949    35.455031    40.161357 
92104000    278.46808    329.75667    272.89077     -20.3515    15.029084    56.865905    40.159671 
92108000    275.67989     325.2702    287.92484   -20.140553    15.328243    37.345355    40.158436 
92112000    274.56951    321.47934    273.77704   -20.647777    15.878479    47.702296    40.157445 
92116000    278.76966    323.00683    279.01882   -20.292922    17.498713    43.988006    40.156738 
92120000    272.08044     323.4533      263.429   -21.141267    18.082652    60.024295    40.157912 
92124000    267.24165    298.50701    279.95975   -19.266041    16.762468    18.547256    40.157072 
92128000    275.43184    342.67524    271.28256   -21.177148    16.974041    71.392683    40.159617 
92132000    270.06258    321.71791    273.72782    -20.61073    16.415948    47.990094    40.159654 
92136000    271.44634     312.3783    274.92326   -19.292962    16.459482    37.455044    40.155799 
92140000    273.90393    325.09216    266.27917   -19.774329    16.919097     58.81299    40.156604 
92144000    271.99794    326.79513    276.09417   -20.858765    16.196527    50.700959    40.158515 
92148000    275.51019    311.19434    291.10057    -21.08159    16.053972    20.093773    40.155994 
92152000    278.34269    339.87662    291.55935   -22.578657    15.770247    48.317276    40.158616 
92156000    263.42457    310.06087    264.15546   -21.615379    17.896966    45.905405    40.159782 
92160000    276.26714    305.18914    295.96445    -19.81214    16.033088    9.2246981    40.158008 
92164000    270.05809    310.01855    284.70481    -19.64317    17.233708    25.313733    40.156489 
92168000    276.65341    337.80026    293.98646    -20.91391    16.756104    43.813803    40.153508 
92172000    272.14478    310.37655    280.81427   -18.653433    17.446625    29.562278    40.152925 
92176000    277.34805    303.85015    299.45838   -19.793392     16.89956    4.3917701    40.149664 
92180000    278.11403    333.70788    272.24756   -20.247536    17.903847    61.460328    40.149975 
92184000    276.75361    331.32916    281.01191   -21.427073    17.047346    50.317244    40.149141 
92188000    267.01275    307.49565    283.13067   -21.525284    17.455499    24.364981    40.149177 
92192000    271.61169    316.89675     283.2829   -21.502515    17.751532    33.613845    40.148824 
92196000    268.55424     307.1587    287.65495   -19.990627    16.840988    19.503745    40.148544 
92200000    275.31742    305.65176    278.55585   -20.167707    16.952381    27.095906    40.146395 
92204000    278.97031    339.51946    291.93674   -21.510113    16.033098    47.582719    40.148448 
92208000     274.4719     348.0614    283.51815   -22.225198    16.937629     64.54325    40.150058 
92212000    265.51817     310.0291    266.62324   -21.112397    17.452154    43.405857    40.152084 
92216000     275.9071    342.18602     272.4812   -20.810886    17.396677    69.704824    40.150218 
92220000    280.58988    321.44478     298.5718   -20.439089    15.729982    22.872985    40.150762 
92224000    277.44368     330.7806     284.3902   -20.427968    17.276723    46.390407     40.15136 
92228000    275.93757     332.8838    297.20568   -21.010917    17.736265    35.678112    40.153034 
92232000    274.71959    314.69515    298.13295   -19.835309    17.514352      16.5622    40.155813 
92236000    272.20965     324.4759    280.88005   -20.902012    18.231137     43.59585    40.156889 
92240000    265.53022    305.38386    254.99211   -19.106082    17.382109    50.391754     40.15547 
92244000    273.65541    340.44432    266.88256   -21.893182    17.694937    73.561762    40.156253 
92248000    274.33824    364.58528    266.18569   -22.042033    17.390502    98.399586    40.155606 
92252000    270.38478    317.22954    278.33262   -19.488319    17.452537    38.896929    40.155565 
92256000    271.59029    308.15914    290.90182   -18.478521    17.073676    17.257319    40.155801 
92260000     263.1625    304.97905    273.04928   -19.264368    18.112265     31.92977    40.156603 
92264000    274.86611    325.67335    303.04591    -20.31735    16.421149     22.62744    40.156256 
92268000    265.27029    309.09139    282.10411   -18.745802    17.751566    26.987277    40.155335 
92272000    266.68675    314.12961    257.60479   -19.323036    18.211341    56.524813    40.155322 
92276000    274.65754    332.02348    290.42205    -20.95649    17.544029    41.601423    40.154469 
92280000    273.02861    310.68974    289.19195   -19.810484    17.610026    21.497796    40.157473 
92284000    275.36667    338.49442    283.51085   -21.672711     17.73218    54.983562    40.158211 
92288000    272.25507    330.42997    266.50865   -20.346541     18.47797    63.921317    40.159418 
92292000    270.97321    325.03704    268.23954   -19.072302    18.261351    56.797498    40.160983 
92296000    261.32329     296.6475    275.83138   -17.290725    17.238447    20.816123    40.160492 
92300000    276.08946    352.87709    290.95619   -20.250347    15.652545    61.920897     40.15983 
92304000    268.81636    317.65904    274.64407   -18.794248    17.468374    43.014977    40.161584 
92308000    273.23702    319.99471     286.9208    -19.49621     16.46357    33.073905    40.164661 
92312000    264.70207    318.04757    259.77769   -19.158757    17.378784     58.26988    40.162502 
92316000    271.26105    311.04505    289.18821   -18.883235    16.825011    21.856837    40.161795 
92320000    259.30362    293.24107    267.84602   -17.249157    17.987183    25.395051    40.163189 
92324000    273.29811    338.31598    285.47747   -19.013323    16.445611    52.838512    40.165432 
92328000    271.19882    323.59019    286.70087   -18.282443     16.61087    36.889323    40.167422 
92332000    267.85156    311.07864    292.45285   -18.879073    16.960499    18.625794    40.165453 
92336000    271.09224    332.61301    289.43379   -18.939249    16.870574     43.17922    40.164788 
92340000    274.59999    334.61934    283.65664   -19.034281    17.014568    50.962706    40.163589 
92344000    277.65275    346.81453     277.2191   -21.381565    17.671659    69.595425    40.165341 
92348000     276.5261     328.2819    303.12528   -20.313173    16.423872    25.156622    40.164794 
92352000    274.65585    328.22881    272.99444   -20.726929    18.116256    55.234368    40.165837 
92356000    269.42076    316.30776    288.24893    -18.73402    17.170774    28.058824     40.16495 
92360000    270.05436    314.14446    280.39598    -18.56595    16.283531    33.748481    40.163496 
92364000    270.51386    317.20063    274.85974   -18.470029    17.121439     42.34089    40.163007 
92368000    275.23262    329.53578    280.09263   -18.836061    18.728088    49.443148    40.162554 
92372000    265.96144    323.40835    256.42307   -18.220787    18.048498    66.985279    40.162318 
92376000    270.73905    323.95612    287.98752   -20.110766    17.431542    35.968599    40.163519 
92380000    272.32179    328.53165    283.14175   -18.181964    16.609584    45.389899    40.161677 
92384000    269.00101    325.55935    274.44376   -18.730543    17.972135    51.115587    40.160186 
92388000    267.51028    312.83738    283.54261    -18.88485    17.436854    29.294776    40.159727 
92392000     276.9224    337.85683    286.09994   -21.547698    16.552593    51.756893    40.156237 
92396000    282.20714    368.42442    293.16059    -21.34585    17.212315    75.263829    40.155343 
92400000    279.55397    333.98702    298.21355    -19.39052    15.942876    35.773475    40.158088 
92404000    271.76879    324.78116    278.23297   -20.691631    15.993455     46.54819    40.158633 
92408000    280.71306    325.28212    293.88669   -19.229512    16.201668    31.395436    40.155915 
92412000    277.91182    342.54929    269.72001   -20.426112    17.290187    72.829281    40.155586 
92416000    263.97105    319.40705     277.4582   -19.336683    17.448703    41.948848    40.155077 
92420000    265.84411    318.10459    261.79898   -18.102968    18.606652    56.305611    40.155021 
92424000    271.18039     322.2011    296.09693   -18.669532    16.469082    26.104166    40.156236 
92428000    273.66147     316.5215    298.92154   -19.191774    16.100409    17.599954    40.157905 
92432000    272.37773    319.36087    296.31733    -19.77864    17.314653    23.043544    40.157136 
92436000    279.78972    328.89462    300.08508   -19.502204    16.324699    28.809541    40.158541 
92440000    271.44336    303.88399    292.55857   -18.851251    16.467015    11.325413    40.158341 
92444000    270.28112    334.91211    286.02387   -20.282443    16.825033    48.888243    40.158061 
92448000    272.12867    322.92257    293.60831   -19.801741    16.630888    29.314268    40.158873 
92452000    274.68448    309.45424    280.82558   -18.583691    17.162108    28.628662    40.159472 
92456000    265.80957    319.32289    269.55199   -18.485929    18.058278    49.770894    40.159066 
92460000    272.27597    304.56873    286.86969   -18.670657    17.299642    17.699041    40.160397 
92464000    267.11241    318.08156    288.56676   -19.849735    16.169591    29.514803    40.158998 
92468000    268.82073    309.97979    284.04869   -17.869348    16.672131    25.931103    40.160234 
92472000     270.2251    306.56495    290.01643   -18.622008    17.544769    16.548517    40.158182 
92476000      268.369    314.82185    276.11764   -16.951842    16.930961    38.704209    40.156202 
92480000      272.231    320.34263    290.99977   -18.693374    16.064266    29.342863     40.15691 
92484000    274.94972    332.47972    301.69947   -18.614561    15.917621    30.780248    40.156588 
92488000    267.58784    293.60306    280.56293   -16.818062    16.438183    13.040131    40.156052 
92492000    274.45529    301.47307    298.07811   -17.032866    14.878317    3.3949596    40.152055 
92496000    277.24346    347.52927    281.09383   -19.781082    15.589338    66.435441    40.151702 
92500000    260.29085    307.85392    267.15221   -17.770894    15.093042    40.701718    40.151676 
92504000    273.66315    331.58256    281.09395   -19.240147    16.222398    50.488613    40.152453 
92508000    264.37234    313.44481    267.38892   -17.939967    16.558715    46.055885    40.151535 
92512000    267.34685    322.21377    273.43994   -18.384684    16.782479    48.773827    40.152344 
92516000    272.43617    332.54642    290.29623   -19.225225    15.369715    42.250188    40.149786 
92520000    262.80257    316.10455    269.60587   -17.931118     17.09065    46.498684    40.151355 
92524000    274.49428    319.22791    284.97918   -17.853925    16.183213    34.248732    40.149297 
92528000    275.02279     334.6517     279.5186   -18.803599    16.502826    55.133094    40.148772 
92532000    262.49068    298.56469    293.32043   -16.942836    16.690918    5.2442604    40.148868 
92536000    264.78259    319.59429     272.5254   -18.430261    17.748062     47.06889    40.149258 
92540000     266.7612    336.10234    275.81265   -18.711548    17.372644    60.289693     40.15103 
92544000    261.30197    285.85003    272.58753    -17.37926    18.234983    13.262507     40.15387 
92548000    266.59438     314.3184    278.60549   -19.045879    17.342475    35.712913    40.154244 
92552000    263.91593     321.8045    266.97406   -18.740319    18.042583    54.830445    40.153281 
92556000    262.88847    320.68437     277.0945     -17.8149    17.841913     43.58987    40.155159 
92560000    267.88708    299.13466    295.53035   -18.495528    17.275792    3.6043094    40.154604 
92564000    265.54532    319.70763    265.88461   -19.858967    17.967567    53.823019    40.153222 
92568000    271.25919    316.93199    261.66929   -19.033384    18.408766    55.262695    40.153697 
92572000    272.01338    313.56847    310.15799   -18.272491    17.139755    3.4104792    40.153759 
92576000    261.21387      309.038    253.38082   -19.696015     18.99831    55.657176    40.153613 
92580000    261.84479    307.86856    274.88736   -19.338598    18.002798    32.981198    40.150934 
92584000    270.96186    341.54186    279.24548   -20.125757     18.16657    62.296381    40.152437 
92588000    264.90478    312.83156    264.67228   -20.135157    18.711949    48.159282     40.15369 
92592000    276.06558    308.19498    291.04244   -19.555137    16.975627    17.152539    40.152535 
92596000     264.6456     312.6968    271.32289   -20.123864    17.863457     41.37391    40.154434 
92600000    277.93979    355.31616    296.81291   -21.121369    17.209376    58.503252    40.153485 
92604000     273.6393    324.85542    293.50303   -20.062336    18.288881    31.352392    40.152129 
92608000    270.29633    313.43943    279.29746   -20.019674    17.698759    34.141976    40.151035 
92612000    266.67264    311.95992    291.90298   -19.903943    17.896021    20.056944    40.151146 
92616000    269.66263     339.9373     276.5719   -20.606534    18.474561    63.365393    40.153018 
92620000    267.13806    310.32155    282.68174    -19.15188    18.252976    27.639806    40.152821 
92624000    268.31336    306.44222    290.16799   -19.608011     18.13512    16.274229    40.149495 
92628000     271.7539    328.61815    289.89989   -20.569582    18.199027    38.718256     40.14923 
92632000    262.84554    309.84129      280.967   -19.318567    18.599072    28.874286    40.148921 
92636000     265.5856    320.65685    285.34409   -19.338216    17.754176    35.312755    40.147997 
92640000    267.79911      320.228    272.14354   -20.329034    18.350808     48.08446    40.148749 
92644000    268.98966    348.92111     277.2811   -21.611273    18.636911    71.640005    40.148745 
92648000    264.75008    323.64819    270.71656    -19.38986    19.875891    52.931631    40.145106 
92652000    268.47255    312.11419    280.94369   -18.813906    18.621458    31.170499    40.147441 
92656000    276.38812    355.55403    280.54839   -21.662492    18.400583    75.005635    40.150048 
92660000    267.10452    338.43417    280.78583   -20.804199    17.906823    57.648338    40.147789 
92664000    267.52562    311.63691    273.98951   -19.159268    18.350493    37.647407    40.146034 
92668000    259.36091    301.16623    268.34537   -20.423518    18.103299    32.820861    40.144688 
92672000    269.66033    315.66728    280.11002   -19.698804    18.671149    35.557266    40.141727 
92676000    260.76385    308.13652    259.03175   -20.175148    19.102579    49.104769    40.141887 
92680000    271.97474    302.04364    284.43564   -19.560533    18.730098       17.608    40.140265 
92684000    265.79885    305.69131     274.3582    -20.05782    20.394975    31.333113    40.139804 
92688000    272.28963    339.69355    275.78462   -20.818819    19.993869    63.908935    40.142394 
92692000    271.35663    323.57111    271.03849   -20.896488    19.832739    52.532625    40.143455 
92696000     264.4524    314.51961    262.29821   -21.258247    19.870825    52.221396    40.145942 
92700000    282.51375    339.58323    278.53534   -22.158264    19.482223    61.047885    40.145329 
92704000    269.64185    357.49992    270.91879   -24.664671    20.069869    86.581131    40.145117 
92708000    259.77933    294.17266    275.25465   -20.107976    19.044409    18.918012    40.145912 
92712000    277.62641    325.80439    289.94091   -22.054211    18.759581    35.863478    40.145316 
92716000    269.93874     324.6608    271.09905    -20.86915    20.195963    53.561757    40.144625 
92720000    280.13578    353.66565    280.12406   -22.936856    19.358126    73.541588    40.145546 
92724000    266.83543    324.37672    271.35227   -20.884536    19.652578     53.02445      40.1437 
92728000    274.26306     329.4268    283.86678   -21.574968    19.534239    45.560022    40.144852 
92732000    274.33007    328.27437    282.60669   -21.127024    18.847293    45.667688    40.143215 
92736000    266.87005    317.39676    279.68306   -20.313033    18.742929    37.713704    40.142801 
92740000    262.05527    311.58352    262.63935   -21.724586    19.726448    48.944176    40.142843 
92744000    263.23117    302.60658    279.57292   -20.571697    19.108031    23.033667     40.14229 
92748000    270.01199    328.46029    288.56377   -22.051409    17.564887    39.896518    40.142606 
92752000    262.32782    307.01092    294.59387   -19.972622    18.037643    12.417048    40.142463 
92756000    267.13709    324.19349    269.67532   -20.646711    18.991242    54.518163    40.140061 
92760000     268.3876    315.99417    283.05471   -20.237088    17.717087    32.939459    40.142683 
92764000    266.59529    317.47068    287.49963   -20.802175    18.213826    29.971052    40.140474 
92768000    260.59164    298.80444    277.23891   -19.184477    18.513455     21.56553    40.139082 
92772000     272.4599    347.83111    276.64947   -22.261606     18.88319    71.181642    40.141613 
92776000    272.45893    350.98043    281.19141   -20.448285    17.625162     69.78902    40.140855 
92780000    270.79593    326.52074     288.8944   -21.220229    17.906611    37.626343    40.139235 
92784000    263.53828    317.16972    283.35962   -20.341657    19.252172    33.810102    40.140742 
92788000    260.79378    301.96594    274.56164    -19.84966     19.23374    27.404304    40.140477 
92792000    258.41751    309.59178    265.62084   -20.064578    20.051924    43.970934     40.14096 
92796000    273.78617    347.58877    276.68958   -20.007584    19.842843    70.899198    40.138831 
92800000    267.98909    338.88371    273.59844   -21.064094    18.466541    65.285274    40.141838 
92804000    270.26221    331.74962    291.39725   -21.210247    19.233547    40.352367    40.141755 
92808000    267.88883     323.2793    290.12431   -20.810714    19.227658    33.154983    40.139914 
92812000    275.72666    351.54105    279.74328   -21.956088    19.584876    71.797771    40.139514 
92816000    267.89195    326.74674    270.81372   -20.649304    19.134541    55.933029    40.139155 
92820000    258.86827    301.37989    278.64619   -18.552123    18.973988    22.733706    40.137018 
92824000    272.37204    332.12951    288.47001   -21.122831    18.911336    43.659503    40.138173 
92828000    266.90291     318.2743    283.93606   -21.350208    19.176762    34.338245    40.137457 
92832000    256.40008    315.08444    258.58017   -20.162247    20.677803    56.504262    40.137131 
92836000     261.8688    306.52852    269.56406   -20.103336    20.588589    36.964464    40.137282 
92840000     273.6381    333.90769    282.17185   -20.006021    19.558731     51.73584    40.137385 
92844000    270.48452    301.38619    284.49011   -19.126694     18.94879    16.896084     40.13782 
92848000    259.87649    332.84397    270.04949   -21.366648    19.197248    62.794478    40.138821 
92852000     270.3768    316.96645    294.03338   -21.476559    19.633092    22.933071    40.140065 
92856000    272.27025    335.56361    285.30006   -21.683773    20.337136    50.263553    40.140982 
92860000    259.98074    301.47988    277.64281   -19.625254    19.514744    23.837065    40.141363 
92864000    277.98158    342.54942    315.51647   -21.711752    17.803962    27.032951    40.142685 
92868000      265.971    320.54911    287.54071   -20.484201    19.378814    33.008407    40.141146 
92872000    263.66103    323.23874    281.57254   -19.842562    19.573868    41.666206     40.14242 
92876000    264.68781    312.56725    274.93725   -19.406999    20.362347    37.629993    40.143536 
92880000     255.6801    299.32374    269.80592   -19.058756     19.80445    29.517813    40.141997 
92884000     261.3035    308.68395     278.5643   -21.441278    19.436242    30.119651     40.14089 
92888000    268.33151    329.05372    258.69395   -21.422747    20.343978    70.359775    40.142705 
92892000    259.55608    306.86885    265.75756   -20.980318    19.782766    41.111288    40.143175 
92896000    275.93546    345.80179    276.44279   -22.080465    18.428069    69.358998    40.143011 
92900000    264.36866    309.45042    297.78988   -20.163585    18.155879    11.660538    40.143778 
92904000    270.69227    318.84074    278.85103   -21.435782     18.12638    39.989707       40.143 
92908000     259.6144    306.57765    266.19632   -20.882008    19.046703    40.381323    40.142669 
92912000    268.40022    322.16105    278.69322    -20.95911    19.296843     43.46783     40.14364 
92916000    272.21956    334.58839    285.57251   -20.927077    17.962864    49.015879    40.143384 
92920000    262.64729     305.8495     294.0283   -20.708858    17.517557    11.821197    40.145364 
92924000    265.79514    324.66235    269.07132   -20.506386    18.824704    55.591026    40.146414 
92928000    262.46447    320.50987    258.16791   -20.059242    18.037475     62.34196     40.14733 
92932000    266.90334    320.08731    261.31953   -20.463938    19.046987    58.767779    40.147304 
92936000    266.92181    318.32848    282.25833   -20.261691    18.368808    36.070143    40.148846 
92940000    274.00909    321.18753     315.7959   -20.255418     16.72312    5.3916249    40.149834 
92944000    274.61589    320.64433    294.01626   -20.007322    18.102152    26.628061    40.150173 
92948000    273.16134    334.06514    289.33108   -21.553417    18.737304    44.734064    40.149815 
92952000    267.95143    309.60412    276.49874   -20.547902    19.269324    33.105387     40.14983 
92956000    270.68909    308.09749    285.31905   -20.087513    17.784484    22.778435    40.151007 
92960000    264.37139    302.98509    279.04338   -19.803171    19.033534    23.941709    40.150951 
92964000    271.45804    313.79672    290.81204   -20.285957    17.897939    22.984674    40.153489 
92968000    272.46546    318.34543    287.36127   -20.046363    16.844311    30.984161    40.152544 
92972000    275.91032    329.22122    297.37891   -21.136619    17.167374    31.842308    40.152069 
92976000    279.16698    340.41682    281.58375   -21.851765    17.604171    58.833071    40.153827 
92980000    275.10688    328.04319    287.31862   -21.115565    17.621922     40.72457    40.155153 
92984000     276.1023    331.22737    287.11061   -21.206912    17.521504    44.116756    40.155067 
92988000    264.27986    297.70246    260.16905   -20.180954    18.632041    37.533411    40.156315 
92992000    275.27956    315.45517     283.2947   -20.188789    17.920994    32.160475    40.158061 
92996000    267.51881     317.5766    274.89921   -20.382406    18.039909    42.677392    40.156136 
93000000    273.44514    310.11751    298.02893   -20.655612    17.640624    12.088586    40.155826 
93004000    265.47291    309.01086    272.85695   -19.701762    18.347556    36.153913    40.155898 
93008000    277.33221    338.12683    274.41176   -21.266799    18.318796    63.715076    40.154566 
93012000    281.40697    340.36859     281.6355   -22.390397    17.819843    58.733097    40.155226 
93016000    276.36969    329.22735    298.56275   -22.409745    17.394712    30.664603    40.153115 
93020000    282.19335    322.82319    293.49878   -21.648319    16.493083    29.324414    40.150132 
93024000    272.24194    307.59241    281.31449   -21.862569    17.497111    26.277927    40.150941 
93028000    265.97161    300.04259    269.44955   -21.184904     18.74433    30.593042    40.150881 
93032000    272.18078    311.95182    282.07697     -21.7103    18.530437    29.874857    40.150823 
93036000    276.20419    324.94863    262.17979   -21.822284    18.392541     62.76884    40.151817 
93040000    277.48101     350.9835    265.77577   -23.475668    17.518373    85.207727    40.154687 
93044000    267.89313    302.30433    283.38191   -22.470562    17.254047     18.92242    40.155072 
93048000    283.77428    344.20609    304.17683   -24.641047     17.40144    40.029261    40.155862 
93052000    272.96328    302.23323    293.83286   -22.134639    17.184972     8.400371     40.15336 
93056000    276.48595    325.54181    271.18935   -23.136283    18.149984     54.35246    40.154344 
93060000    272.34766     316.0164    274.83586   -22.679395    17.632096    41.180534    40.151418 
93064000    271.95787    321.89551    264.74257   -22.832933    18.867962    57.152939    40.153835 
93068000    264.82578    305.48737      247.564   -21.975765    18.863275    57.923372    40.153029 
93072000    278.80824    313.83115    287.03652   -22.092133    17.520967    26.794638    40.152655 
93076000    267.87413    310.51652    263.68806   -21.265264     18.25372    46.828464    40.153792 
93080000    280.13798    304.84491    300.50954   -22.242178    17.346379    4.3353765     40.15449 
93084000    277.42729    311.11827    280.72765   -23.254175    19.048558    30.390616    40.150977 
93088000    282.65118    311.82531    302.35287   -22.468359    17.455776    9.4724418    40.152286 
93092000    266.87993    304.63199    280.53538   -21.597639     17.35471     24.09661    40.149317 
93096000    277.33961    339.67024    251.77319    -22.52048    18.827051    87.897056    40.149208 
93100000    281.01781    332.12911    284.37812   -22.095035    18.651192    47.750982    40.151331 
93104000     280.5331    331.56003    295.49748   -21.961844    17.695262    36.062549    40.150063 
93108000    271.55323    288.81172    308.27814   -19.591855    16.276611   -19.466419    40.146155 
93112000    262.77811    318.99588    264.22639   -21.642424    18.501331    54.769484    40.145802 
93116000     284.1465    331.65021    277.77118   -21.684032    17.664728    53.879029    40.145093 
93120000     273.3006    311.90702     280.5858   -21.609435    17.780715    31.321222    40.146621 
93124000    271.54735    302.09886    298.10982   -22.080734    16.476246     3.989042    40.144173 
93128000    274.48407    329.16821    278.32534   -22.771359    17.004466    50.842873    40.143786 
93132000    270.90429    303.25566    275.67852   -22.093087    17.549857    27.577143    40.144314 
93136000    275.40189    294.12368    290.04767   -19.974226    16.989171    4.0760151    40.144387 
93140000    279.76202      329.632    279.25165   -21.948883    17.389014     50.38035    40.147489 
93144000    282.45295    334.63217    296.86175   -22.851901    16.525862     37.77042    40.146517 
93148000    279.47586      341.797    275.96253    -23.33573     17.08633    65.834466    40.146689 
93152000    279.66539    350.64121    243.58708   -23.245923    18.611592    107.05413    40.150009 
93156000    274.45951    334.60935    266.49881   -22.788059    18.104153    68.110546    40.149159 
93160000    275.52692    307.51204    286.47527   -22.794352    18.126628    21.036774    40.147724 
93164000    276.06283    327.81196     255.4214   -24.290988    18.406392     72.39056    40.145255 
93168000    278.82472    307.08081    306.76951    -22.28864    17.253768   0.31129617    40.145081 
93172000    281.02252    322.88198    288.12568   -23.956451      17.3311    34.756299    40.144906 
93176000    279.61034    322.34447    279.60452   -23.897207    17.485174    42.739947    40.148358 
93180000    272.47404     315.5327    281.01214   -23.027285    17.506073    34.520563    40.147944 
93184000    278.21941    328.76221    282.06105   -23.484248    17.462306    46.701158    40.147553 
93188000    280.01369     317.9984    287.87571   -22.070067    18.159187    30.122694    40.150072 
93192000    268.04226    317.69549    243.66579   -22.256251    19.487304      74.0297    40.149933 
93196000    285.88433     330.0533    304.45883   -22.024064     17.04792    25.594467    40.148199 
93200000    279.60898    319.44779    270.13331   -21.793136    17.691419    49.314481    40.150505 
93204000    282.63969    357.24707    271.91284   -23.836524    17.654298    85.334228    40.152757 
93208000    280.03235    301.17009    289.71025   -22.257208    16.886794    11.459846    40.153582 
93212000    271.57048    307.39433     262.7209    -21.81545      19.1041     44.67343    40.152453 
93216000    276.28076    332.65738    278.25355   -23.082128    17.481336    54.403833    40.153533 
93220000    271.19659    303.25797    287.52382   -21.951922    16.814502    15.734148    40.153159 
93224000    276.61269    319.75338    289.32607   -21.367425     15.73271    30.427311    40.154182 
93228000    279.93863    316.20318    286.04329   -21.964599    16.372831    30.159887    40.153583 
93232000    283.33418    327.25054    290.12269    -21.48999    16.576096     37.12785    40.154347 
93236000    274.49406    321.60154    284.09183    -22.56545    16.728326    37.509715    40.155894 
93240000    273.02594    316.63754    265.34048   -22.238471    17.732806    51.297061    40.155271 
93244000    269.79369     316.4185    271.86033    -22.55819    17.827527    44.558167    40.155933 
93248000    268.26855    318.96951    256.93091   -23.137708    20.014876    62.038605    40.157039 
93252000    280.59767    321.07661    307.90692   -21.488723    16.234107    13.169685    40.157392 
93256000    279.26682    313.85556    289.77303   -21.868161    18.079468    24.082529    40.156397 
93260000     268.1726    322.61273    273.12348   -22.132395    19.024743    49.489251    40.156862 
93264000    278.59183    335.96574    279.15748   -22.251939    18.737161    56.808265    40.157389 
93268000    284.67025    328.02483    293.34573   -22.380816     16.93876      34.6791    40.157552 
93272000     271.8599    327.03508    278.14372   -21.850496    17.724828    48.891359    40.157932 
93276000    260.63607    304.89502    264.26754   -19.991684    17.891271    40.627479     40.15607 
93280000    279.30832     324.8502    292.20565   -22.807999    17.337855    32.644545    40.158893 
93284000    284.18739    325.26987    309.37159   -22.406337    16.171765    15.898288    40.157078 
93288000      277.229    346.42217    275.35772    -23.60008    18.719709    71.064451    40.156861 
93292000    279.61134    314.22622    295.88122   -20.764185    17.689691    18.344998    40.155712 
93296000    278.00839    326.00363    276.91545   -22.571859    18.788464    49.088181    40.157084 
93300000    273.88778    296.27566    285.29381   -21.335349       17.667    10.981853    40.159701 
93304000    276.07084    318.34543    273.40098   -23.125789    19.391401     44.94445    40.157187 
93308000     274.8161    313.90354    292.88213   -22.547521    19.010475    21.021413    40.155762 
93312000    274.16862    319.95784    286.38993   -22.348734    17.926597    33.567908    40.157738 
93316000    271.26484    305.82274    292.31109   -21.947137    17.820296    13.511653    40.157536 
93320000    269.57757    328.30323     273.1775   -23.174684     18.69391    55.125731    40.160237 
93324000    269.54314     318.5425    281.16835   -22.345189    17.380936    37.374159    40.160071 
93328000    277.45023    338.56933    295.08544   -22.381991    17.873515    43.483887    40.160854 
93332000    276.21981    345.25233    281.34019   -23.061583    18.783777    63.912143    40.160689 
93336000    266.53438    313.38888    272.21132   -21.487445    18.588492    41.177561    40.157177 
93340000    274.29267    312.65229    280.78838   -21.207555    18.351638    31.863911    40.158299 
93344000    267.19256    310.26695    273.97216   -20.101126    17.779524    36.294783     40.15712 
93348000     274.1827    332.26959    289.49829   -21.170831    17.635664    42.771298     40.15529 
93352000    275.06985    327.27932    289.61748   -20.622941    17.852148    37.661846    40.157944 
93356000    267.79145    315.00071     266.9637   -21.612227    18.712889    48.037013    40.158505 
93360000    286.17085    356.51057    289.24555   -22.126142    18.249668    67.265019    40.156653 
93364000    282.78262    338.41995    293.17384   -22.815109    18.091129    45.246104    40.158253 
93368000    272.15969    331.69577    273.03146   -22.228233      19.0257    58.664304    40.159899 
93372000    273.34249    330.31667    277.89208   -22.318431    18.535683    52.424595    40.158834 
93376000    272.19834    323.15682    283.99253   -21.867974    19.206646     39.16429    40.158417 
93380000    267.85098    306.41785    266.89317   -20.573316    19.549207    39.524685    40.159804 
93384000    269.73385    316.33664    277.60766   -20.913517    18.062169    38.728983    40.160616 
93388000    268.82163    310.75436    265.13935   -20.973455    18.285743    45.615012    40.159001 
93392000    272.40048     328.2794    268.64995   -21.897062    18.289815    59.629454    40.159817 
93396000    267.64522    303.71112    277.14181   -20.048427    18.931547    26.569319    40.160969 
93400000    278.87852    329.06018    288.29433   -20.453738    17.355351    40.765851    40.162994 
93404000    269.96921    299.43884    281.82135   -18.498352    17.707961    17.617485    40.164826 
93408000     271.6728    306.18314    303.64716   -19.935883     15.84296    2.5359834    40.165171 
93412000    270.42299    327.03126    276.72155   -20.504849    17.008492    50.309706    40.165072 
93416000    278.01676    328.68469    283.36306   -20.569803    16.052013    45.321632    40.167227 
93420000    270.11548    311.99058    276.10911   -20.879459    18.764471    35.881471    40.165319 
93424000    271.96511    322.95826    279.02491   -21.897687    16.928965     43.93335    40.165302 
93428000    276.06991    327.96806    284.45411   -21.936163    17.133817    43.513944     40.16491 
93432000    267.09364    312.86868    269.29536   -21.627831     18.43811    43.573322    40.166103 
93436000    277.71213    314.63583    266.74944   -21.786861    18.061471    47.886385    40.167834 
93440000    281.51168    335.84648    288.15145   -23.196896    17.097357    47.695036    40.167123 
93444000    278.47067    340.65065    270.10893   -22.727665    17.489426    70.541718    40.164763 
93448000    280.04694      335.816     288.8854   -23.529571    17.726582    46.930602    40.163151 
93452000    273.42656    313.91747    280.77197   -21.508694    17.022383    33.145499    40.164316 
93456000    280.55484    335.65224    279.14898   -22.902386    18.260391    56.503267     40.16111 
93460000    275.20785    305.64727    294.74163   -21.658431    17.642679    10.905631    40.161135 
93464000    260.70315    307.79059    268.06459    -20.76647    20.585307    39.726002    40.161629 
93468000    264.44111     307.6004    265.21653   -22.455505    19.868188    42.383875    40.162406 
93472000    278.17383     348.1101    267.10319   -23.781621     19.88136    81.006915    40.159832 
93476000    269.05104    310.53898    268.43868   -21.806847    18.801439    42.100301    40.159326 
93480000    266.22664    309.98776     256.5427   -21.693751    19.666897    53.445064    40.160504 
93484000    279.73028    327.64152     280.6626   -22.534664    18.142291    46.978927    40.159853 
93488000    277.34422    344.97398    282.24506   -22.930857    19.231608    62.728921    40.158355 
93492000     279.2616    331.72214    290.74015   -22.064265     18.38906    40.981989    40.158313 
93496000    271.70156    322.42394    276.30069   -22.619116    18.162956    46.123246    40.160346 
93500000    271.57992    318.58617    267.72107   -22.709268    18.042355      50.8651    40.159027 
93504000    276.83343    319.50276    283.18033   -21.967146    17.120899     36.32243    40.159275 
93508000    274.24402     327.4093    278.39956   -22.727962    18.461205     49.00974    40.160946 
93512000    270.52809    322.42544    281.39252   -22.189269    17.878517    41.032915    40.161125 
93516000    275.52413     323.0215    276.62347   -21.666119    18.652324    46.398034    40.160962 
93520000    262.30329    309.80014    258.92597   -21.776191    20.560969     50.87417    40.159895 
93524000    277.62531    328.65345    266.98907   -21.591822    19.356555     61.66438    40.160169 
93528000    281.16879    311.55022    304.06722   -20.898227    17.801272    7.4830014     40.15971 
93532000    277.29544     349.3833    258.01952   -23.035518    19.142508     91.36378    40.157432 
93536000    274.46652    327.50901    270.91205   -21.571702     18.97298    56.596961    40.160564 
93540000    277.25509    332.07704    269.81521   -22.729681    19.054942    62.261827    40.160831 
93544000    266.37213    307.91082    260.10309   -21.799555    19.631129    47.807728    40.162247 
93548000    270.91292    309.50031    273.07819    -21.35098    19.377615    36.422119     40.16296 
93552000    269.41513    297.13808    285.16988   -20.560126    17.590273    11.968204    40.161532 
93556000    278.37703    333.34627    263.68585   -22.421507    19.547941    69.660425    40.162187 
93560000    271.83063    316.94196    290.13523   -22.556428    18.188844    26.806727    40.162256 
93564000    268.66398    321.48952    261.31884   -22.382102    19.844977    60.170682    40.161243 
93568000    279.10366     348.6923    274.81251   -23.388737    18.637439    73.879791    40.163299 
93572000    271.75256    297.10769    281.48484   -19.941903    17.543501    15.622847    40.163453 
93576000    272.67234    307.59995    308.86679   -21.057143    15.876285   -1.2668381    40.166133 
93580000    285.10916     362.7317    277.46692   -24.093646    17.987598    85.264787    40.166465 
93584000    272.26941    321.38377    282.50413   -21.947439    18.303746    38.879641    40.164113 
93588000      270.963    308.05934    274.88204   -22.172448     18.26151    33.177301    40.165304 
93592000    262.10185    292.24088    272.57283   -19.075627    18.055938    19.668048    40.166598 
93596000     264.8135    307.93393    280.46017    -22.03462    18.030994    27.473762      40.1656 
93600000    267.19505    328.55021    261.67067   -21.766776    19.235128    66.879532    40.167341 
93604000    268.76682    338.08587    253.77462   -23.590791     19.15337    84.311248    40.165479 
93608000    267.69192     310.0729    287.13621   -21.786298    18.966551    22.936698    40.165973 
93612000     265.9278     307.9999    263.73755   -20.947718    18.849094    44.262352    40.168172 
93616000    285.51725    329.74989    276.71394   -22.174855    17.902842    53.035951    40.168813 
93620000    276.12951    328.06063     268.6956   -23.186473    17.832322    59.365027    40.171089 
93624000    279.62576    337.77558    271.64971   -23.762855    18.744679    66.125871    40.172104 
93628000    283.72736    315.31583    279.72308   -23.290626    16.836967    35.592749    40.172934 
93632000    279.50308    322.29332    282.22719   -22.013236    16.590774     40.06613    40.172099 
93636000    288.21074    316.50631    297.98694   -22.861271    15.432764    18.519366    40.170589 
93640000    279.27702    313.86058    277.31479   -22.323665    16.892294    36.545799    40.169452 
93644000    281.42277    307.75931    279.75421   -21.764493    16.850937    28.005101    40.169403 
93648000    274.47483    317.60688    281.44623   -21.707095    17.769442     36.16065    40.170241 
93652000    280.08247    308.15584     295.7276   -21.735187    16.284537    12.428239    40.171705 
93656000    287.36125    320.59546    311.67964   -21.766764    14.948088     8.915816    40.170194 
93660000    278.91865    326.44263    283.70031   -23.060263    16.935961     42.74232    40.170591 
93664000     267.5151    286.89033    266.94368   -20.021686    16.879668    19.946642    40.169067 
93668000    278.84159    332.21991     287.4275   -23.818166    17.180122    44.792416    40.169926 
93672000    274.13591    306.62653    268.00177   -22.143648    16.451587    38.624762    40.171623 
93676000    273.94188    321.04507    270.71306   -22.039016    16.592489    50.332009    40.171322 
93680000    278.09826    322.22581    279.00187   -22.898128    16.646228    43.223937    40.170754 
93684000    276.23485    315.71926    287.10091   -22.883691    17.132301    28.618348    40.169395 
93688000    270.04644    309.07458    280.09295   -20.755651    16.394991     28.98163    40.167609 
93692000    260.50605    291.04389    268.81592   -20.848319    18.330088    22.227978    40.168333 
93696000    264.33349    303.86442    262.19999   -21.157899    18.270788    41.664427    40.168326 
93700000    263.58762    303.79983    264.66329   -21.410826    17.243364    39.136544    40.168347 
93704000    274.06646     301.7107    285.39931    -20.68106    17.179058    16.311393    40.168634 
93708000    271.06425    289.49672    294.51407   -19.977553    15.539857   -5.0173486    40.166715 
93712000    272.19628    316.86656    272.65581   -21.047963    16.506346    44.210742    40.167114 
93716000    279.13557    311.73549    306.57137   -20.508545    16.576859    5.1641235    40.166328 
93720000    274.11145    315.56473    274.60511   -21.988121    18.587682    40.959616    40.165937 
93724000     277.3381    311.33508    282.96736   -21.094039    18.391511    28.367721    40.166521 
93728000    286.60568    338.23176    307.51717   -22.766004    16.929021    30.714586    40.166351 
93732000    272.84137    318.84469     275.2147   -23.214333     17.82876    43.629989    40.166706 
93736000    273.14213    307.92826    277.75562   -22.461413    16.537062    30.172636    40.166747 
93740000    272.31035    306.27384    285.09287   -21.168372    17.481355     21.18097    40.164075 
93744000    279.56507     336.9511    284.70131   -23.089314    18.442177    52.249793     40.16287 
93748000    276.37578    314.61042    283.55229   -21.396256    17.999243    31.058127    40.161641 
93752000    275.68636    325.74617    275.13067    -24.76359    18.931595    50.615502    40.162372 
93756000    270.20094    298.35433    274.47852     -21.4598    19.196543    23.875806    40.162732 
93760000    278.24027    325.71675    287.23726   -22.791784    18.415207    38.479487    40.163179 
93764000    276.63926    325.00589    287.14737   -21.917205    18.301698    37.858518    40.162877 
93768000    273.11848    317.33824    285.46386   -21.980851    17.965977    31.874378    40.164475 
93772000    273.15282    317.65148    280.90402   -22.177636    18.167304    36.747464    40.165544 
93776000    279.39577    329.40072    275.98079    -22.54789    18.563312    53.419924    40.166307 
93780000    274.90271     320.8527    283.32967   -22.972648    17.230191    37.523029    40.165469 
93784000    277.18589    345.26894    269.02393   -23.923531    18.924858    76.245009    40.166435 
93788000    262.18406    300.11875    263.76421     -20.4601    17.927333    36.354544    40.168102 
93792000    277.21625    323.74561    281.76694   -22.658568    17.975312    41.978672    40.165741 
93796000    273.53171    339.11631    277.67231   -21.063528    18.338707    61.444002    40.166512 
93800000    283.25524    347.60751    285.18004   -21.913691    18.179182    62.427471    40.165873 
93804000    275.77049     318.3816    297.37836   -21.374167    17.443752    21.003236    40.163827 
93808000    278.28058    333.22492    280.96519   -21.077015    18.082014    52.259723    40.163886 
93812000    278.27891    335.10492    284.36838    -22.10875    17.806618    50.736539     40.16295 
93816000    285.12612    355.22001     303.9578   -24.905877    16.614817    51.262213    40.161854 
93820000    275.61252    344.04516    263.00891    -23.67615    18.582512    81.036251    40.162897 
93824000    274.49776    315.58199    272.80639    -23.84425    18.166436    42.775604    40.166144 
93828000    274.96018    333.64926    276.48447    -23.18923    17.513416    57.164797    40.162461 
93832000    272.80618    311.02807     281.3396   -20.985706    18.772494    29.688467    40.162333 
93836000    271.44803    301.30034     286.6977   -22.014094      18.6287    14.602643     40.16339 
93840000    279.01466    330.94973    284.58191   -23.318929    18.739696    46.367817    40.165164 
93844000    270.31997    348.94205    259.99361   -24.423219    19.885344    88.948431    40.165367 
93848000    276.16522    322.00498    284.27183   -23.336399    18.389843    37.733152     40.16502 
93852000    279.44831    341.82324    282.58885   -23.340259    18.334954    59.234392    40.166124 
93856000    273.97993    312.72245    291.43784   -21.296655    16.774404    21.284617    40.165717 
93860000    281.96468    326.02141    299.87654   -21.013365    16.315835    26.144871    40.166708 
93864000    274.81978    325.77532     275.6687   -22.375478    17.871456    50.106619    40.167631 
93868000    279.88714      318.845    298.56442   -21.732267    17.075014    20.280574    40.165962 
93872000    274.81306    345.60419    260.16334   -22.571455    19.153519    85.440854     40.16587 
93876000    273.44124    315.18839    279.82491   -21.190026    17.450145    35.363479    40.165241 
93880000    283.99786    337.90931    293.68925   -22.237048     17.11089    44.220062    40.163863 
93884000    269.30043    324.72801    286.41386   -22.305256    18.870093    38.314155    40.163338 
93888000    274.85306    323.42534    278.15912    -21.34894    18.530828    45.266217    40.166811 
93892000    276.50066    308.89147    313.68809   -22.036841    17.969927   -4.7966147    40.167851 
93896000    276.63905    330.54413    300.46428   -23.518375      18.1418    30.079849    40.167692 
93900000    274.65709    348.55952    275.76949   -22.857968     18.36799    72.790031    40.166864 
93904000     273.7197    345.91092    282.23201     -22.6654    18.721316    63.678912    40.165473 
93908000    268.10443    318.44963    287.79815   -21.426005    18.053009    30.651475    40.165239 
93912000    276.31175    306.27444    296.61442   -20.725136    18.079956    9.6600251    40.164683 
93916000    268.02737    337.55065    270.00889   -21.828785    18.683686    67.541753    40.163417 
93920000    272.30554    299.31663    295.07432   -20.401608    19.404169    4.2423117    40.162116 
93924000    268.23606    307.52686    286.29793   -20.024676     18.35315    21.228927    40.163709 
93928000    267.63318    309.50785    274.82365   -20.312024    18.658588    34.684206    40.162029 
93932000      272.201     326.5822      270.271   -20.976508    18.411046    56.311199     40.16044 
93936000    266.82426    330.25245    252.57324   -23.027854    20.383883    77.679205    40.162159 
93940000    281.41351    331.85662    295.56492   -22.283452    17.913903    36.291695    40.161401 
93944000     267.0002    321.24379    269.92758   -22.047643    18.041635    51.316205    40.161082 
93948000    275.86292    338.08955       274.28   -22.286803    18.957341    63.809552    40.163127 
93952000    271.59402    304.76745    271.60955   -21.867437    18.385062    33.157904    40.162975 
93956000      282.049    344.61793    281.95061   -24.556343    18.446532    62.667316    40.162814 
93960000    274.14925    311.74726    275.98474   -23.532279    18.077932    35.762517    40.161541 
93964000    280.15629    323.16266    292.02329   -23.692649    19.043111    31.139367     40.16026 
93968000    277.11089    306.98271    309.28053   -22.003018    18.022068   -2.2978131    40.159922 
93972000    278.12008    325.85918    304.09933   -22.002892    16.774009    21.759852    40.161617 
93976000    276.40475    342.98458     286.9583   -21.603309     18.32777    56.026275    40.161035 
93980000    283.43106    347.63523    286.84141     -22.8752    17.895059    60.793823    40.160878 
93984000     272.1055    323.40947    282.52768   -22.301095    19.807426    40.881792    40.161769 
93988000    272.70123    312.02472     279.8074   -21.067433    19.173237    32.217319    40.161179 
93992000    272.03706    306.12872    294.11687   -21.357024    19.211664    12.011848    40.157843 
93996000    266.02859    322.81711    271.41274   -22.150204    20.131076    51.404373    40.158559 
94000000    267.32045    326.56301    259.71494   -22.081681    20.253368    66.848065    40.158403 
94004000    268.19538    317.14511    271.82484    -21.93099    18.662288    45.320272    40.157639 
94008000    260.95248    304.66194    261.66384   -23.105307    20.246567    42.998103    40.156261 
94012000    276.91058    327.06749    297.17599   -21.948136    18.333464    29.891502    40.156141 
94016000    278.52166    339.88086    286.69422   -22.846084    19.372721    53.186641    40.157772 
94020000    268.23545    334.04608    264.73364   -20.794494    19.988622    69.312446    40.158091 
94024000    260.88462    296.92303    263.57367   -20.657459    20.306264    33.349363    40.157439 
94028000     268.8578    315.30576    267.99937   -20.878002    21.235591    47.306394    40.157275 
94032000     270.1793    322.92984    275.15337    -23.39806    20.031359     47.77647    40.156154 
94036000    266.81402    299.57855    275.54535   -21.794438    20.288306      24.0332    40.155361 
94040000    270.84586    310.04875    309.24082   -22.199803    18.388812   0.80792386    40.152711 
94044000    269.62334    334.89058    273.98828   -22.653346    19.218866    60.902302    40.154251 
94048000    271.85285    333.79285    267.05459   -23.099831    21.242643    66.738265    40.153599 
94052000    269.06681    321.71069    288.96968   -21.998539    20.464751    32.741015    40.153945 
94056000    262.79016    320.16853    267.79947   -21.438387    20.955563    52.369057    40.153536 
94060000    270.77323    315.44011    289.74487   -21.616961    19.979034    25.695249    40.152216 
94064000    262.14799    305.37392    267.37785   -22.268223    21.669373    37.996073    40.152397 
94068000    267.86107    313.48808     290.9405   -21.880831    20.377191    22.547577    40.151308 
94072000     276.4358    315.45959    301.14267   -22.621316    19.983964    14.316924    40.150829 
94076000    268.74765    311.72052    305.72589   -21.772851    20.057614    5.9946256    40.150388 
94080000    277.44994    352.14915    292.65035   -23.683489    20.226265    59.498798    40.150824 
94084000    267.85928    325.99239    275.47612   -22.463434    20.733074    50.516272    40.151066 
94088000     273.5722    321.07384    276.37691   -22.456559    18.909086     44.69693    40.150205 
94092000    264.52356    331.66909    248.30879   -22.227714     21.11679    83.360305     40.15218 
94096000    282.83599    353.61366    290.13391   -22.798574    18.974225    63.479748    40.153308 
94100000    271.07981    327.82037    280.98562   -22.533298    20.137243    46.834749    40.152689 
94104000    268.51998    303.22794    268.92392   -22.117521    20.550375    34.304014    40.153075 
94108000    262.82595    306.16195    267.92961   -22.278453    20.661525    38.232345    40.154367 
94112000    268.16388     300.4836      277.985   -21.301571    19.764635    22.498593    40.153365 
94116000    265.74279    309.17419    265.29027   -23.774237    19.850928    43.883917    40.151834 
94120000     270.7052    314.64362    275.79655   -23.360036    20.107037    38.847066    40.150107 
94124000     260.1772    299.90484    253.37664   -21.621658     20.37343    46.528196    40.152135 
94128000    271.61056    314.46589    287.22008   -23.426056    18.800854    27.245807    40.150027 
94132000    258.23621    296.16942     265.9534   -21.755144    20.039549    30.216013    40.147717 
94136000    283.65328    330.16874    302.17191   -22.385607    17.266418    27.996828     40.14813 
94140000     278.5238    331.71987    310.47964   -23.582658    17.462168    21.240231    40.149379 
94144000    278.94145    331.97021    289.22974    -23.99134    19.538596    42.740474    40.149314 
94148000    271.22129    315.78505      279.065    -23.64856    19.649828    36.720053    40.150778 
94152000     277.2465    313.08742    290.04547   -23.583256    18.972873    23.041941    40.151474 
94156000    265.39865    308.08948    252.74795   -23.501819     20.53349    55.341535    40.151581 
94160000    275.00484    320.42132    291.97836   -23.284876    18.412529    28.442963    40.151691 
94164000    277.08639     319.0899    292.37199   -23.217486    18.765968    26.717911    40.151296 
94168000    274.72377    312.33365    277.34635     -24.7336    19.996071    34.987302    40.152517 
94172000    274.48296    330.71132    275.08329   -24.220004    19.399171    55.628028    40.153417 
94176000     265.9792    312.36469    265.73685   -22.394352    19.845213    46.627835    40.152256 
94180000    268.46464    304.24821    267.77318   -21.191915    19.201153    36.475033    40.152271 
94184000     282.9069    324.86839    306.71751   -23.510986    17.543389    18.150877    40.154847 
94188000    272.95413    323.41886    271.71788   -24.103247    19.437205    51.700979    40.154176 
94192000    271.22787    315.21591    261.93011   -23.749463     19.37797    53.285802     40.15435 
94196000     268.7335    301.76845    271.46164   -23.330506    19.074676    30.306807    40.152353 
94200000    276.91311    332.29656    291.84339   -25.394619     18.10457    40.453172    40.153177 
94204000    276.04825     318.6732    288.02016   -23.892392    18.631644    30.653038    40.152277 
94208000    279.42383    319.41668    295.14034   -23.171344    17.340988    24.276343    40.153796 
94212000    271.69794     327.3664    271.72114   -22.500996    18.539269    55.645258    40.152087 
94216000    281.24368    314.98245    291.78736   -22.989297    18.219386     23.19509    40.150859 
94220000    271.35069    316.71961    260.12951   -22.657101     19.97836    56.590101    40.150921 
94224000    274.27328    335.70672    274.98731   -22.822596    18.494154    60.719413    40.151422 
94228000     277.0861    344.06251    252.15581   -23.992008    19.828891    91.906704    40.152273 
94232000    268.47572    303.24502    285.13628   -20.722318    18.298318    18.108743    40.150803 
94236000    270.61225    326.34099    252.20774    -22.77674    20.012495     74.13325    40.152589 
94240000    279.10412    332.00456    290.38315   -23.425251    18.723254    41.621413    40.151218 
94244000    275.29477     316.6007    272.48534   -21.983401    20.086616    44.115356    40.151549 
94248000    274.99465    312.48045    276.00829   -22.046083    18.176268    36.472154    40.152259 
94252000    276.79514    311.44024    299.40373   -21.547269    18.054642    12.036518    40.150531 
94256000    268.77817    305.78098    259.36125   -21.902461    19.691751    46.419729     40.15153 
94260000    272.45162    313.88219    285.64266   -22.712752    18.542478    28.239529    40.151823 
94264000    279.30873    296.89878    300.30967   -21.750409    17.187788   -3.4108838    40.151766 
94268000     271.0224     305.8754    266.71662   -23.211475    19.079245    39.158787     40.15144 
94272000    277.94244    310.63803    275.92831   -23.836614     18.82513    34.709721    40.151985 
94276000    268.31623    298.13292    285.06071   -22.756065    18.087253    13.072204    40.152175 
94280000    284.46842    349.82557     286.8349   -24.938951    18.836958    62.990665     40.15227 
94284000    263.32488    314.86412    255.63471   -23.618793    20.144597    59.229415    40.153406 
94288000    273.87191    310.06882    264.78803   -22.148977    19.785817    45.280799    40.153976 
94292000    278.17956    323.10363    286.50349   -23.019647    18.175399    36.600135     40.15321 
94296000    274.03271    319.14884    263.76049   -22.166508    19.490834    55.388348    40.153503 
94300000    267.36373    299.30605     270.6314     -22.2655    19.421966    28.674641     40.15353 
94304000    277.41543    324.70202    286.91748   -23.960111    19.265484     37.78453    40.154238 
94308000    286.60443    343.59219    299.49067   -25.343053    18.006286    44.101517    40.154201 
94312000    278.42649     331.3501    267.52095    -24.52599    19.993468     63.82915    40.151977 
94316000    265.13213     312.2087    265.64923   -23.880469    20.039648    46.559469    40.150858 
94320000    277.42947    325.55057    287.90808   -23.671572    18.770136    37.642492    40.150909 
94324000    272.76272    323.35116    277.88441   -24.663842    19.530437    45.466752    40.150945 
94328000    271.08917    321.31202    282.09017   -24.130408    19.813716    39.221854    40.150978 
94332000    270.25265     304.5098    283.50434   -22.018432    20.170944    21.005465    40.151964 
94336000    278.61819    324.35663    290.60592   -23.435688    19.546994     33.75071    40.151281 
94340000    265.57807    289.44069    279.28262   -21.523514    20.197639    10.158068    40.150839 
94344000     279.3343    344.31006    279.79376   -25.230754    19.548052    64.516297    40.152244 
94348000    268.37997    305.84843    273.74583   -23.376167    19.342766    32.102595    40.152073 
94352000    270.70532    304.89349    291.51654   -23.803219    19.294384    13.376944    40.154512 
94356000    280.93467    324.85271    274.76456   -24.552003    20.222765    50.088144    40.152512 
94360000    272.57795    349.91853    267.89948   -25.183785    20.447776    82.019045    40.152207 
94364000    275.74749    326.66222    271.36531   -24.736693    21.162755    55.296911    40.152598 
94368000    272.44091    317.05441    252.99917   -23.476506    20.863551    64.055246    40.153899 
94372000    276.47116    305.83211    300.13045   -23.230746    19.052158    5.7016644    40.152481 
94376000     279.2529    321.47239    274.40219   -24.172364    19.413762    47.070194    40.150575 
94380000    273.31164    321.81312    279.77715   -25.510648     20.77128    42.035962    40.148465 
94384000    279.24564    316.12324    277.04167   -25.028698    19.909557    39.081572    40.145977 
94388000    276.66032    326.74499    277.69094   -25.548948    20.097095    49.054043    40.144265 
94392000    273.53948    311.97042    287.37485   -24.259433    20.654262    24.595574    40.143084 
94396000    270.58915    325.31047    260.27989   -24.302086    21.413316    65.030575    40.143413 
94400000    277.45244    326.60511     294.9005   -23.577264    19.391152    31.704603    40.144003 
94404000    277.78924    327.40427    271.79734   -24.597411    20.020741     55.60693    40.143052 
94408000    283.22771    375.30799    281.42771   -26.197875    20.315804     93.88028    40.144164 
94412000    278.40508    317.78836    298.44241   -24.771374    19.064177     19.34595    40.145416 
94416000    270.41889    310.54236    280.50266   -23.077013    20.473106    30.039706    40.144233 
94420000    283.24579    326.00127    297.68603   -24.316518    18.740889    28.315238    40.143776 
94424000    269.56857    305.02985     272.0901    -24.73861     20.41141    32.939751    40.143099 
94428000    272.25173    303.29777     285.2086   -23.488799    19.542694    18.089163    40.142976 
94432000    272.29696    315.57904     313.2517   -24.123196    19.780377    2.3273351    40.142705 
94436000    272.06907    315.90499    275.86983   -24.335667     20.39755    40.035155     40.14322 
94440000    268.61251    340.01483    257.61796   -24.367159    20.316164    82.396875    40.141882 
94444000    274.01662    352.26774    281.17611   -24.162558    20.835568     71.09163    40.142033 
94448000    270.31355    324.17487    274.76159   -24.059427    20.645723    49.413285    40.142117 
94452000    268.28937    302.25547     283.5273   -23.208938    21.376755    18.728166    40.142192 
94456000    275.89109    348.55696    269.24724   -25.446593    20.768544    79.309719    40.145388 
94460000    268.20665    319.07885     257.5752   -22.694972    20.822738    61.503653    40.146895 
94464000    260.94669    308.66321    262.79482   -22.651949    20.485647    45.868388    40.147262 
94468000    264.26319    304.69276    261.50389   -22.804231    19.927838    43.188867    40.149145 
94472000    267.63051    308.80066    280.76376   -23.340586    20.799151      28.0369    40.147818 
94476000    278.11839    329.97858    283.22236   -24.154557    20.110707    46.756224     40.14832 
94480000    273.52071    314.50698    290.36911   -23.497603    19.156526     24.13787    40.149002 
94484000     271.2008    300.54253    287.78058   -23.738618    20.059469    12.761945     40.14942 
94488000    275.00438    331.75528      276.738   -25.877659    19.788652    55.017284    40.151524 
94492000    268.04193    329.98043    261.74593   -24.386762    20.731509    68.234503    40.149545 
94496000     281.9221    339.65917    297.30582   -25.715497     19.15107    42.353351    40.150071 
94500000    273.07858    312.87709    297.13963   -23.365594    19.795021    15.737454    40.150793 
94504000    265.05621    307.01577    284.63728   -22.625386    19.910164    22.378489     40.15117 
94508000    278.49216    329.27217    283.53902   -25.010592    20.461656    45.733153    40.150231 
94512000      269.839    321.16103     270.2404    -23.91326    21.831927    50.920631    40.151188 
94516000    274.70635    312.24436    277.20177   -23.585999    20.196497     35.04259    40.151097 
94520000    273.47722      311.097    283.68501   -23.153308    19.935055    27.411991    40.152796 
94524000    268.87101    306.33124    284.10028   -23.197342    19.472564    22.230959    40.152916 
94528000    270.88467    303.10196    276.06786   -21.930928    20.089619    27.034101    40.152053 
94532000     276.6798    343.51694    287.02849    -24.47961    21.387757    56.488446    40.151227 
94536000    274.37866    306.37112    301.29648   -22.805104    19.963362    5.0746359    40.152719 
94540000    276.03423    322.25894    279.78859    -24.78906    19.888656    42.470355    40.153955 
94544000    276.30703    348.56173    273.44056   -25.412899    20.060108     75.12117    40.154278 
94548000    270.02474    293.57271     277.1148   -22.208974    20.576273    16.457919    40.153307 
94552000    269.59414    307.74514    278.99616   -22.739694    20.203213    28.748979    40.153573 
94556000    265.62837    304.92116    282.36999   -23.246459    19.273242    22.551168    40.151968 
94560000    274.73114     324.1912    271.98154   -23.447976    20.960843    52.209659    40.152706 
94564000    271.40616    312.64291    289.98395   -23.300712    21.363429    22.658953    40.153254 
94568000     270.4444     329.7169    259.95444   -23.620973    22.372559    69.762467    40.154553 
94572000    274.65866    326.51515     279.6805   -23.620996    21.271145    46.834651    40.153961 
94576000    270.98828     302.4086    293.27378   -22.598792    20.804885     9.134819    40.155103 
94580000    273.53035    319.94287    276.73312   -23.634369    21.285662    43.209751    40.154816 
94584000    276.01857    316.37482    291.17705   -23.187215     20.44419    25.197772    40.156382 
94588000    276.76408    321.91062    293.76027   -22.668725    19.825402    28.150352    40.156416 
94592000     271.7152    333.52402    272.53038   -23.493903    20.962012    60.993635    40.156113 
94596000     273.2374    334.23182    282.09691   -23.843328    20.423905    52.134916    40.157231 
94600000    274.88433    313.94717    290.63424   -21.922844    19.999326    23.312934    40.158975 
94604000    278.52974    339.71726    287.80177   -23.166828     19.98456    51.915489    40.159159 
94608000    271.66617    327.87146    288.09499   -23.879002    20.004191    39.776471    40.159277 
94612000    266.27316    319.55337    276.29689   -23.560607    19.281734    43.256477    40.157997 
94616000    273.74924    315.30975    275.33259    -23.00373    20.779808     39.97716    40.156335 
94620000    275.19839    346.74908    273.48397    -23.93282    20.693711    73.265102     40.15655 
94624000    277.22797    351.22711    277.35413   -24.030138    20.523998    73.872976    40.157843 
94628000    267.90037    313.62678    266.19594   -22.324824    21.547069    47.430833    40.157851 
94632000     263.4693     307.6943    285.22522   -21.931591    20.752374    22.469086    40.158021 
94636000    272.00228    313.99082    272.36498   -22.957912    21.603632    41.625835    40.157629 
94640000     261.7297    301.18153    276.80627   -22.668532    20.389085    24.375262    40.157272 
94644000    284.10532    352.62163    290.37072   -24.277418    20.121094    62.250913    40.158237 
94648000     269.2075    331.26868     281.0442   -25.130831    21.037032    50.224475    40.158547 
94652000    272.84508    316.15463      270.595   -23.743554    20.997799    45.559636    40.157531 
94656000    267.57602    320.50566    270.15607   -24.638511    21.012016    50.349583    40.155573 
94660000    274.44775     310.1517    274.34357    -23.90479     20.52822    35.808124    40.155845 
94664000    269.51288    303.09965    268.79159   -24.619986    21.472323    34.308061    40.155881 
94668000    276.44189     323.9704    294.45332   -25.079044     20.31609    29.517083    40.156185 
94672000    269.76857     304.9751    281.75811    -23.33612    20.815728    23.216994    40.156201 
94676000    269.90375    313.93742    287.75202   -24.101958    19.734558    26.185405    40.157952 
94680000    265.96465    320.08348    269.90559   -23.656842    21.474579    50.177887    40.157056 
94684000     268.5778    312.43945    285.81588   -22.857206    20.406932    26.623567    40.157407 
94688000    275.11998    317.94721    293.95648   -23.245405    19.970501    23.990723    40.156905 
94692000     270.5387    327.75839    272.11316   -23.075654     21.59352    55.645237    40.156695 
94696000    276.33239    334.42445    302.86501   -24.373367    20.083299    31.559444    40.155902 
94700000    266.08724    301.01234    283.60687    -22.75482    20.483244    17.405474    40.156093 
94704000    270.21212    313.24475    281.87535          -24    21.361881    31.369404    40.155508 
94708000    278.59844    349.57746    279.54143   -24.361493    20.810408    70.036036    40.156885 
94712000    277.88796    345.70594     266.3609    -25.87218    21.279924    79.345033    40.158982 
94716000    263.50906    286.38842    276.22319   -21.466099    20.838325    10.165229    40.157822 
94720000    280.89451    341.81689     287.0273   -25.016392    20.937762    54.789582    40.158718 
94724000    263.63757    306.30763    261.93779   -22.514508    21.700242    44.369847    40.158315 
94728000    279.20808    326.18152    299.48856   -23.126059    19.863424    26.692955    40.157961 
94732000    270.40626    316.68688    296.16193   -23.496419    20.276785    20.524949    40.157585 
94736000    261.03157    302.12668    267.98396   -22.701675    20.372245    34.142726    40.157969 
94740000    271.82121    306.92197    283.46307   -24.785292    19.224432    23.458892    40.157217 
94744000     271.1612    315.14775    276.24517   -23.134112    20.075781    38.902578     40.15744 
94748000    278.11887    321.00852    278.11813   -24.167971    20.020222     42.89039    40.156554 
94752000     268.1287    296.21566    273.65421   -23.055144    20.349973    22.561447    40.156913 
94756000    275.10683    333.92829    264.22151     -25.1826    20.859303     69.70678    40.156563 
94760000    273.74429    317.92193    282.15219   -24.780245      19.6057    35.769741    40.156506 
94764000    273.82978    301.26705    301.47273   -23.507521    19.690673  -0.20568055    40.156286 
94768000    264.41847    307.24028    273.76571   -23.683557    19.913525    33.474565    40.155798 
94772000    272.82921    326.09936     263.1833   -26.085785    20.363387    62.916063    40.154945 
94776000    271.30857    315.58408    272.33675   -24.261736    20.851979    43.247326    40.153834 
94780000    278.93033    339.51506    283.60026   -25.143401    19.702292    55.914808    40.152717 
94784000    280.38526    329.50091    283.53099   -24.150439    20.527723    45.969913    40.151363 
94788000     270.4189     320.4745    268.53822   -24.938606    21.331392    51.936276    40.152195 
94792000     267.1657    293.10319    279.32859   -24.442751    20.585232    13.774602    40.153803 
94796000    278.19506    326.26222    297.25163    -26.66719     20.17257    29.010587    40.152929 
94800000    277.76543    329.24095    276.00151   -26.294271    21.780217    53.239444    40.152766 
94804000    276.26909    340.94785    278.96782   -25.998886    20.990136    61.980026    40.153764 
94808000    268.78767    307.30983     262.1292   -24.503196    21.608106    45.180632    40.154453 
94812000    270.25561    316.14006    276.08099   -23.835577    20.826633     40.05907    40.154061 
94816000    266.56196    339.74618    254.76254   -25.692966    22.835708    84.983639    40.154634 
94820000    265.55543    309.63363    274.18972   -23.652375    21.555888    35.443912     40.15495 
94824000    275.14093    316.46392    277.20153    -24.35461    20.530515    39.262395    40.152617 
94828000    275.34579    299.42354    295.34616   -22.121348    20.190736    4.0773796    40.151107 
94832000    269.50379    311.68616    284.15416   -22.789264    21.010238    27.532005    40.150114 
94836000     264.2943    309.46593    281.11621    -22.14748    21.494023    28.349715    40.150608 
94840000    265.21267    327.90432    268.15097   -24.589058    20.916451     59.75335    40.149099 
94844000    272.24582    315.78274    278.64905   -23.632654    21.660479    37.133688    40.148996 
94848000    276.35689    337.01656     289.3426   -24.279892    20.635921    47.673957    40.148844 
94852000    279.58964    334.76134    308.59983   -24.386932    20.130773    26.161509    40.149629 
94856000    269.54145    314.67095    287.78854   -23.763254    20.643167    26.882413    40.150275 
94860000    271.23415    332.06149    282.78866   -24.790105    21.124834    49.272832    40.148228 
94864000    269.16049    311.39163     273.6324   -24.569396    20.662484     37.75923    40.148775 
94868000    263.41817    303.02393    268.97004   -23.307209     22.02185    34.053882    40.147782 
94872000    275.35585    320.61479    286.38289   -24.256341    20.181181    34.231895    40.147598 
94876000    270.58094    319.19779    258.06863   -24.428103     21.86856    61.129155    40.146856 
94880000    273.97789    329.62001    292.15995   -24.511849    21.531462    37.460056    40.148292 
94884000    265.84385    328.98135    267.76456   -25.241771    21.269678    61.216784    40.146709 
94888000    272.08993    318.96446    286.27611   -25.747363    20.683795    32.688351    40.147731 
94892000    267.98114    322.01252    270.13154   -25.675101    21.170412    51.880971     40.14797 
94896000    271.08404    329.59868    276.61363   -25.322176    22.059163    52.985048    40.148951 
94900000    272.19347    331.63288    268.57593   -27.391473    21.810118    63.056943    40.149891 
94904000     271.9888    337.07439    275.08743   -26.907153    21.732035    61.986965    40.147744 
94908000    262.55468      302.415    289.86901   -24.503478    20.954331    12.545988    40.147443 
94912000    273.02634    316.24688    274.68696   -24.219704    22.191522    41.559922    40.147925 
94916000    272.66868    326.09967    294.12986   -24.266578    20.747092    31.969813    40.147724 
94920000    268.38054    306.71872    299.69008   -23.622897    21.659053    7.0286379    40.148219 
94924000    268.38862    311.47662     275.5093   -22.732758    22.336402    35.967313    40.148236 
94928000    267.39966     311.6865     283.0613   -24.048627    20.750486    28.625197    40.148463 
94932000    261.05382    320.34076    257.57752   -23.759191    22.588092    62.763233    40.149595 
94936000    264.71916    323.17181    270.16604   -22.968877     21.43169     53.00578    40.149561 
94940000    267.16383    297.24751    286.11622   -23.095712    21.485453    11.131292    40.147125 
94944000    270.78981    343.45947    281.25202   -25.215372    22.249134    62.207442      40.1494 
94948000    262.76711     325.4928    281.83824     -22.6062    22.234355    43.654557    40.149861 
94952000    272.59427    333.16761    282.27254   -24.816832      22.1799    50.895069    40.148608 
94956000    266.74661    321.77359    283.31721   -23.593256    22.883395    38.456386    40.147343 
94960000    263.50849    340.39304    251.63181   -24.279836    22.830079     88.76123    40.147287 
94964000     265.9939    310.11093    277.59272   -23.640741     21.82387    32.518207    40.146282 
94968000    267.42394    323.53727     280.8048   -23.510561    21.865993     42.73247    40.145198 
94972000    275.93246     311.5172    300.46984   -23.427116    20.734188    11.047356    40.144565 
94976000     267.5013    329.84222    262.41852   -23.508481    21.921983    67.423697    40.143821 
94980000    263.76469    319.53007    264.36921   -22.555921    22.829528    55.160861    40.144439 
94984000    262.86599    300.61562    262.30403   -22.446782     21.92072    38.311584    40.145739 
94988000    268.60865      331.452    265.43814   -24.097835    22.553359    66.013858    40.147095 
94992000    269.86595    315.67143    287.78386   -23.746023    21.418447    27.887577    40.146212 
94996000    275.07788    323.66196    284.45783   -24.058168    21.919105    39.204127    40.146205 
95000000    277.76862    331.34584    291.31755   -25.135938     20.97402    40.028285    40.146431 
95004000    277.44579    345.02204    294.56599   -25.042006    21.769713    50.456051    40.146501 
95008000    262.69013    316.31905    272.21032   -23.872397     22.21485    44.108728    40.146659 
95012000    270.76817    337.05054    274.70058    -26.64201    21.392511    62.349953    40.148948 
95016000    267.22629     300.8141    296.42988   -24.681208    21.131066    4.3842157    40.148599 
95020000    277.29726    313.31154    294.25678   -23.824874    21.357899    19.054761    40.149698 
95024000    265.23607    306.08446    263.57154   -23.307902    22.232345    42.512927    40.150575 
95028000    270.91321    323.76227    262.48447   -26.069948     22.42327    61.277794    40.151552 
95032000    260.96275    308.00938    267.48291   -24.240408    22.501529    40.526478    40.150864 
95036000    264.72521    320.10658    280.60694   -25.839802    21.457662    39.499642    40.150038 
95040000    273.43116    317.83143    297.16394   -25.280092    20.715502    20.667489    40.151472 
95044000    267.86529    317.01932    293.85991   -24.502558    21.756544    23.159405    40.151909 
95048000     275.1827    321.03927    295.25334   -24.621986    20.302168    25.785925    40.151835 
95052000    266.26352    316.36789    271.39922   -24.513082    21.823826    44.968671    40.150988 
95056000      275.788     315.7956    294.45223   -23.085429    21.974573    21.343368    40.151084 
95060000    267.37607    328.98385    255.23624   -23.911223    23.703999    73.747612    40.151019 
95064000    268.86662     308.8773    270.22338   -22.466183    23.324673    38.653914    40.151238 
95068000    267.07981    325.79955    278.65162   -24.939007    21.189645    47.147925    40.152429 
95072000    268.29538    303.28222    275.23474   -24.305666    22.581805    28.047481    40.151497 
95076000    268.94269    332.56353    275.86677   -26.967583    21.867636    56.696765     40.14991 
95080000    264.16714    308.98247    280.28471   -23.790068    22.247434    28.697759    40.147575 
95084000    276.48723     327.7964     289.3699   -25.397113    20.616882    38.426497    40.144826 
95088000    269.76777    339.15497    293.40734   -25.741604     20.88527    45.747628    40.144971 
95092000      264.059    303.45458    270.10175    -23.24812    22.300325    33.352837    40.145589 
95096000    268.96235    311.98407    285.07676   -25.111476    22.188394    26.907319    40.145863 
95100000    272.85044    322.29195    290.67462   -25.163206    21.987458     31.61734     40.14718 
95104000    270.93188    296.98112    270.51824   -24.211474    22.906672    26.462875    40.146196 
95108000     267.7599     317.0082    279.36707   -24.590788    21.981433     37.64113    40.145819 
95112000    270.68443    306.24364    277.47659   -24.877872    22.597383    28.767042    40.145742 
95116000    270.42906    318.75233    293.17184   -26.324805    22.244735    25.580489    40.146597 
95120000    269.87919    320.18605    277.33239   -25.880713    22.291472    42.853657    40.146177 
95124000    275.99093     323.3166    290.98242   -27.105145    22.014497    32.334182    40.145476 
95128000    276.22364    307.87052    290.73176   -25.605126    21.276291    17.138756    40.145998 
95132000    280.90725    324.05037    292.13917   -26.398171    21.667863    31.911201    40.147269 
95136000    272.50141    325.07592    274.70236   -28.165815    21.950371    50.373556    40.147543 
95140000    275.64358    319.48526    271.21427   -25.566051    22.693849    48.270997    40.145825 
95144000    276.16297    329.18892    283.90198    -26.67056    22.891746     45.28694    40.146922 
95148000    277.45205    336.02715    285.82174   -27.261894     21.96127    50.205411    40.146821 
95152000    279.75438    328.51904    281.87823    -26.14404    22.842975    46.640812    40.147557 
95156000    267.77056    305.00654    277.42365   -25.930742     22.11159    27.582897    40.148545 
95160000    269.48377    301.49206    284.08827   -24.815838    22.102358    17.403797    40.148491 
95164000    271.93531    316.61215    303.79736   -25.545896    21.858196    12.814781    40.148008 
95168000    265.03253    314.21639    274.84385   -25.834267    23.034466    39.372539    40.148286 
95172000    265.50011    294.67111    277.88461   -25.857791    23.238112    16.786494     40.14897 
95176000    260.82996    295.06847     286.1376   -24.905255    23.043965    8.9308641    40.147505 
95180000    273.10553    329.23943     288.8379   -26.879792    21.315628    40.401532      40.1465 
95184000    271.16566    328.84243    289.26135   -26.187633    21.336348    39.581078    40.149619 
95188000    279.46801    328.70336    288.79829   -26.447899    22.282447    39.905075    40.148739 
95192000    275.57671    317.25555    283.09946   -25.231303    22.185862    34.156092    40.148472 
95196000    269.92225    312.12537    276.26481   -24.397143    23.446739    35.860562    40.149853 
95200000    271.71703    294.48431    302.12802   -24.157809    21.091823   -7.6437064     40.15031 
95204000    268.09787    316.11476    276.11936   -25.449376    23.574394    39.995398    40.148973 
95208000    287.91614    344.58361    295.75848   -26.492557    22.096327    48.825123    40.150376 
95212000    267.41062    314.10577    260.10383   -25.442209    23.740414     54.00194    40.148121 
95216000    271.91627    328.56484    276.70922   -25.371788    23.198006    51.855614    40.147653 
95220000    273.33034    314.50622    299.08448   -25.179579    21.734854    15.421742    40.147945 
95224000    269.94136    331.76104    264.46677   -25.132922    22.818423    67.294271    40.147258 
95228000    275.84284    326.36729    291.83804   -25.990263    21.769147    34.529257    40.146297 
95232000    275.84716    319.28268    268.28316   -25.932897     23.50593    50.999519    40.145889 
95236000    274.28029    299.54908      282.859   -24.406128    22.080785    16.690077    40.145772 
95240000    275.79865    331.70421    283.33596   -26.014696     22.38792    48.368245    40.145174 
95244000    275.38871    338.57432    276.43743    -26.06008    23.363223    62.136884    40.145275 
95248000    269.75044    300.90598    294.12253   -24.469666    22.328751    6.7834516    40.145292 
95252000    267.10179    320.55788    275.23525   -26.112563     22.12131    45.322627      40.1436 
95256000    272.34162    323.48764    267.93051   -26.407624    22.857885    55.557133    40.144082 
95260000    279.88309    321.84155    298.20798   -25.892538    20.694746    23.633569    40.145538 
95264000    277.30228    313.67914    273.65836   -24.799581    22.459454    40.020789    40.144347 
95268000    264.54336    288.35725    278.08885   -23.096836    22.407262      10.2684    40.145922 
95272000    272.98924    316.89041    265.13128   -25.088541    22.700599    51.759125    40.145905 
95276000    273.07551    306.54507    283.74733   -25.352129    22.285566    22.797735    40.145927 
95280000    275.53376    317.76876    290.95538   -26.611343    21.603954    26.813379    40.145732 
95284000    277.40867    325.57859    282.63919   -25.606913    21.597958    42.939407    40.144295 
95288000    274.59322    327.78017    282.21661   -26.690018    21.581035    45.563561    40.144448 
95292000    282.67593     342.1886    280.31284   -26.971597    20.910198    61.875758    40.146406 
95296000    275.43127    339.50976    278.65644   -26.736764    21.702474    60.853322    40.145752 
95300000    273.59319    306.12466     292.5191    -24.81643    21.120706    13.605568    40.146113 
95304000    276.29213    335.43149    281.03724   -25.651608    22.414809     54.39425    40.145352 
95308000     279.8677    343.30194    282.98299   -27.821716    21.305019    60.318951    40.145545 
95312000      271.389    315.67434    280.55048   -25.567474    21.500666    35.123861    40.142624 
95316000    265.43268    307.99593    266.24465   -25.476672    22.704172    41.751275    40.141086 
95320000    275.06959    360.27276    273.42625   -27.183938    22.137256    86.846516    40.141487 
95324000     286.2323    337.20946    297.28281   -26.897584    20.931373    39.926649    40.140005 
95328000    270.75898    321.44085    280.70813   -25.197312    21.823197     40.73272    40.139499 
95332000    272.88467    313.09649    278.54155   -24.211853    21.424515    34.554946    40.138126 
95336000    283.88118    342.68038    277.47747   -25.466413    22.810481    65.202903    40.137416 
95340000    269.83254    330.78129    266.87858   -25.134751    22.892584    63.902712    40.137356 
95344000    272.41469    310.14584    284.26557   -24.535545    23.003828     25.88027    40.136188 
95348000    269.34332    318.51798    284.88787   -25.437192    23.177091    33.630111    40.136049 
95352000    270.81239    304.77269    298.33813   -25.064062     22.99857    6.4345519    40.135829 
95356000    269.59676    315.12473    286.57785   -25.071546    22.937949    28.546882    40.135744 
95360000    277.49177    327.84288    286.71867   -26.402097    22.773828    41.124205    40.136463 
95364000    266.24273    281.01633    280.99236   -24.475702    21.592287  0.023976296    40.137526 
95368000    272.52076    311.69735    284.20187   -25.570559    21.857321    27.495478    40.138346 
95372000    282.67628    355.13924    282.28293   -27.736617    21.606578    72.856313    40.138203 
95376000    266.55924    300.33774    275.48559   -25.201495    22.507075    24.852151    40.138789 
95380000    265.61469    290.87302    275.55666   -24.759733    22.978746    15.316359    40.138528 
95384000    277.01922    336.34589    277.66413   -27.111214     23.35631    58.681765    40.136057 
95388000    277.75269    332.73658    284.73435   -28.671791    22.482721    48.002231    40.136116 
95392000    277.76954    326.82294    298.01483   -25.807628    22.566743    28.808111    40.134433 
95396000    270.94636    304.91912     288.8287    -25.62092    23.626305    16.090425    40.134412 
95400000    263.69496    309.11458    266.89602   -27.353778    23.182997    42.218559    40.134829 
95404000    270.76232    319.68806    265.75784   -28.244707    23.419717    53.930222    40.136271 
95408000    266.83812    310.21203    264.35048   -27.641794    23.038058    45.861554    40.136359 
95412000    276.53518    337.02629    279.23365   -28.363811     23.08217    57.792639    40.134651 
95416000    267.85318      317.243    278.17831   -26.916849    23.433382    39.064693    40.134022 
95420000    274.93133    316.14723    283.40245   -26.501058    22.838574    32.744781    40.135468 
95424000    276.82875    328.33047    273.90366    -26.86567    22.782275    54.426805    40.134692 
95428000    278.73869    343.75356    279.37696   -26.740535    22.535824    64.376602    40.136846 
95432000    268.36579    304.22652    285.98157   -24.757052    22.197076    18.244951    40.137097 
95436000    276.52983    322.99584    280.58867     -25.0859    22.277142    42.407175    40.136476 
95440000    269.84952    309.29539    299.46849   -24.809992    22.353145     9.826899     40.13439 
95444000    269.85182    297.62564    288.87557   -24.296538    21.829583    8.7500788    40.133652 
95448000    271.38821    315.83078    260.89669   -24.364755     22.78098    54.934085    40.133532 
95452000      267.054    319.32933    254.38413   -25.814812     22.67107    64.945197    40.131577 
95456000    263.43255    296.89662      257.237   -24.219294    24.031077    39.659621    40.130742 
95460000    268.27335    312.00957    277.86605    -26.04739    23.508588     34.14352    40.131008 
95464000    273.64576    322.48366    291.66132   -24.962969    22.663355    30.822342    40.131075 
95468000    272.48457    318.40365    271.50079   -25.541405    23.127279    46.902867    40.129644 
95472000    282.20252     335.6221    281.06467   -26.576096     22.28917    54.557431    40.129212 
95476000    268.82002    300.39007    284.48151   -24.499358     21.99655    15.908565    40.128634 
95480000    271.17306     315.6122    287.35708   -25.589072    22.868969    28.255126     40.12777 
95484000    274.09578    321.86493    290.84976   -26.319216     22.42441    31.015164    40.126041 
95488000    278.66942    324.35279    272.14884   -25.361037      23.6879    52.203945    40.125575 
95492000    267.83667    323.39061    269.88919   -26.709738    24.062899    53.501422    40.125923 
95496000    266.07951    322.21901    279.56385     -27.1489    23.504941    42.655166    40.124832 
95500000    269.68235    319.17175    283.36917     -25.8977    23.297022    35.802573    40.124137 
95504000      274.351    327.74344    287.62746   -26.286505    23.063059    40.115975    40.124137 
95508000    280.72348    323.79471    294.16855    -25.87586    22.179979    29.626159     40.12361 
95512000     268.8996    314.95869    282.81543   -26.031996    22.833744    32.143261    40.122925 
95516000     274.2148    322.12457    284.87008   -25.560544    22.569414    37.254486    40.122907 
95520000    259.75849    330.65207    259.41323   -26.433363    25.389652    71.238834    40.120657 
95524000    275.76413    346.96164    271.85646    -27.22543    23.511056    75.105182    40.121015 
95528000    277.57302    331.90134    272.99966   -27.143639    23.631071    58.901678    40.121612 
95532000    275.31859    329.93781    263.70016   -27.485473    24.695569    66.237654    40.122587 
95536000    264.19954    311.27655    272.09166   -26.445164    22.782241    39.184891    40.122742 
95540000    263.99036    317.71756    273.39265   -26.415137    22.885044    44.324911    40.121182 
95544000    266.64982     312.6395     275.9224   -24.780973    23.107309    36.717107    40.120424 
95548000    274.64096    318.40033    274.72446   -26.003233    21.826734    43.675873    40.119938 
95552000    274.21429     329.5716    291.36571   -26.414161     21.97903     38.20589    40.118248 
95556000     269.8741    330.63793    263.01462   -25.557828     22.94392    67.623317     40.11707 
95560000    270.55786    347.29991    279.37028   -27.742465    23.548205    67.929623    40.119213 
95564000    269.06117    309.99453    286.58247   -25.766349    22.999742    23.412056    40.120944 
95568000    267.69437    332.36994    279.51677    -26.25777    23.440956    52.853165     40.11931 
95572000    267.62247    312.03047    275.25237   -25.316238    22.986891    36.778093    40.119794 
95576000    270.78516    317.97989    270.19226   -25.743446    23.214578    47.787633    40.120063 
95580000    272.24151    307.62942    294.04834   -25.318497    21.508318    13.581074    40.117417 
95584000    267.37111    307.87908    275.54484   -25.205947     22.96433    32.334238    40.117153 
95588000    270.67847    315.81641    290.85715   -25.320294    22.962603     24.95926    40.115778 
95592000    277.60515    337.71944    290.05993   -26.878609    22.980039    47.659512     40.11663 
95596000    265.74893    299.57385    268.66606   -24.894306    23.645001    30.907789    40.116205 
95600000    276.15865    322.22128    291.96351   -26.675042    23.007042    30.257774     40.11745 
95604000    267.10516    297.40505    268.49131   -24.536539     22.89497    28.913743    40.116813 
95608000    270.14269     321.0166    265.09442    -26.22292    23.680679    55.922188    40.118429 
95612000    270.94042    319.15537    280.46079    -25.16674    23.828945     38.69458    40.116216 
95616000    275.03333    323.13487    274.25727   -25.527908    23.086247    48.877596    40.116944 
95620000    274.97621    326.51676    296.90624   -25.960999    22.422848    29.610521     40.11672 
95624000    272.83234    303.92209     286.1949   -24.831873    21.645112    17.727194    40.115908 
95628000    280.25102     330.9496    303.61851   -25.780285    22.481904    27.331096    40.115076 
95632000    276.13678    337.14185     280.3281   -26.681374    23.122018     56.81375    40.114525 
95636000    276.02875    317.31911    280.83879   -26.191744    23.401381    36.480319    40.115408 
95640000    279.41661    310.41029    300.51081    -26.32725    22.080152    9.8994858    40.113293 
95644000    277.04595    319.87594    281.60294   -27.035758    22.921361    38.272994    40.112592 
95648000    276.01252    340.79997    252.85824   -28.489231    23.058847    87.941739    40.112683 
95652000    282.96911    324.02434    301.52901   -27.745326    21.897689    22.495331    40.112424 
95656000    272.04649     314.8769    280.98066   -26.682247     23.12052    33.896237    40.110548 
95660000    276.44173     331.9825    279.76763   -28.831254    24.353669    52.214873    40.109647 
95664000    275.00276    334.25047    282.88795   -28.695289     22.52411    51.362517    40.108706 
95668000     272.1233    327.27983    271.80828   -28.117054    22.811909    55.471549    40.107647 
95672000    265.50237    293.61929    291.85465   -26.824095    23.278661    1.7646431    40.105565 
95676000    276.24812    320.31635    289.55168   -28.061443    21.971173    30.764662    40.104218 
95680000    282.75513    323.53221    279.75327   -27.949407    23.992982    43.778933    40.104157 
95684000    274.50516    320.53851    282.91564   -28.480689    22.020404     37.62287    40.102441 
95688000    269.18124    303.72884    272.32935   -27.316663    22.403809    31.399491    40.101951 
95692000    277.37363     335.1263    274.28232   -27.999159    22.890871    60.843982     40.10249 
95696000    278.88438    323.10707     284.4424   -28.263229    22.937513    38.664666    40.101625 
95700000    274.68273    326.73245    274.16917   -28.020446    22.530668    52.563275    40.101139 
95704000    271.14985    310.66984    269.51406   -27.688613    23.804985    41.155784    40.100431 
95708000    280.88855    319.49004    286.25551   -25.954507    22.734832    33.234531    40.098737 
95712000    277.78361    330.00486    274.72271   -27.764483    23.663354    55.282145    40.099632 
95716000    276.11051    319.96061    281.34703   -26.755178    23.229318    38.613586    40.100104 
95720000    281.46689    330.37424    287.46817   -27.373917    22.802506    42.906066    40.100336 
95724000    276.69856    340.17699    271.07432   -28.654936    23.445781    69.102678    40.100997 
95728000    283.14485    348.19463    274.06564   -29.607109    22.915508    74.128985    40.102262 
95732000    276.52503    317.46241    269.80467   -28.477689    22.381161    47.657735     40.10314 
95736000    280.24052    328.33793    287.77069    -29.34688    22.413048    40.567241    40.101597 
95740000    275.32922    313.94431    269.10356   -25.813961    22.648241    44.840757    40.103744 
95744000    270.86425    308.79181    261.63865   -26.802076    23.817921    47.153161    40.102199 
95748000    286.78242     342.6222    292.78261   -29.526673    22.387736    49.839594    40.104273 
95752000    283.01399    325.17936    276.44652   -27.738417    22.884143    48.732842    40.104959 
95756000    284.22997    330.53332      284.519   -28.887128    23.528999    46.014315     40.10509 
95760000    282.20014    334.46799    281.28247   -29.182208    21.564667    53.185519    40.105241 
95764000    282.00048     305.4346     287.6456   -27.696519     21.99599    17.789003    40.103558 
95768000    272.52696    306.77699    294.51322   -26.250068    22.598463    12.263771    40.104281 
95772000    281.40074    323.69075    294.90483   -27.825614    22.071839    28.785917    40.103842 
95776000    273.29836    295.87291    278.98381   -24.634573     21.75249    16.889104    40.103824 
95780000    279.36977    333.80814    284.36076   -28.472804    21.684974    49.447386    40.104213 
95784000    279.86883    328.91166    287.24317    -27.43874    21.586947    41.668491    40.104599 
95788000    278.66982    326.88738    283.02282   -27.893457    23.015211    43.864562     40.10502 
95792000    271.26974    300.55903    281.18211   -25.581776    22.122293    19.376926    40.103494 
95796000     274.1612     333.3758    267.42246   -27.692181    23.024456    65.953342    40.103067 
95800000    274.20621    312.41668    277.28539   -26.270846    22.006645    35.131289    40.106013 
95804000    278.22977    320.70635    281.88468   -27.098276    20.470785    38.821672    40.105914 
95808000    274.10924    325.32313    268.18884   -27.343605    23.304388    57.134296     40.10597 
95812000     278.4902    336.56317     278.1057   -28.440532    21.507438    58.457475    40.106571 
95816000    283.96362    319.82539    297.16156   -27.088398    20.810084    22.663832    40.106149 
95820000    274.52022    317.69372    277.45448   -27.086937    22.076937    40.239238    40.107812 
95824000    271.06595    306.31844     277.4885   -26.016864    23.208611    28.829945     40.10679 
95828000    278.52372    323.26158    274.40785   -27.478207    22.773701    48.853738    40.106415 
95832000    274.95027    317.20837    282.73103   -26.341927    22.841284    34.477347    40.108203 
95836000    270.64414    308.21657    288.18514   -26.311252     22.33269    20.031427    40.108821 
95840000    271.36461    330.76752    255.09047   -27.234254     24.64594    75.677048    40.109605 
95844000    263.09079    301.52613    275.67031   -25.397609    22.810373    25.855816    40.108234 
95848000    276.48634    346.47456    265.47092   -27.399693    23.371303     81.00364    40.109309 
95852000    275.66638    309.40012    274.58747   -26.205916    22.404705    34.812652    40.108973 
95856000     279.7676    325.60272    284.53953   -27.916137    22.242817    41.063197    40.108242 
95860000    267.44455    295.63378    286.77695    -26.54246    21.916716    8.8568289    40.108219 
95864000    269.25343    308.64967    285.26791   -25.716555    22.134606     23.38176    40.106172 
95868000    267.50526    331.09847    269.28729   -26.808636    22.798154    61.811175    40.106353 
95872000    279.30298    314.08987    289.09614    -25.22725    21.117732    24.993734    40.106552 
95876000    274.92488    325.54839    283.32141     -27.4262    21.251312    42.226972    40.107283 
95880000    279.05644    321.55885    283.21291   -27.403699    22.437031    38.345942    40.106734 
95884000    266.11422    295.90286    285.21696   -25.929186    23.374202    10.685907    40.107142 
95888000    273.53221    310.49671    276.84412   -25.558133    23.685493    33.652593     40.10832 
95892000     283.9261    352.05375      269.841   -28.481252    23.519501    82.212754     40.10865 
95896000    276.73634     315.2591    274.65188    -25.31785    24.151896    40.607227    40.109048 
95900000    273.75878    300.53457    284.90488   -24.787887    23.205887    15.629694    40.109726 
95904000    278.71185    327.15544     282.4193   -26.051246    22.966546    44.736143    40.111825 
95908000    267.94007     304.5879    291.89661   -25.371662    23.215488    12.691292    40.110707 
95912000     271.8786    300.62653    263.04304   -24.463322    24.276455    37.583497    40.110589 
95916000    268.44539    311.31435    271.76005   -25.925562    24.752524    39.554305    40.110018 
95920000    268.69524    322.75759    278.35123   -25.780008    24.239283    44.406368    40.110493 
95924000    275.70515    312.51181    306.54446   -25.622689    22.777645    5.9673491    40.109132 
95928000    272.72398    331.40916    274.88734   -26.684986    23.880171    56.521813     40.10999 
95932000    272.79746    309.65823    287.17923   -25.492439    22.709076    22.478997    40.109788 
95936000    277.49715    321.06276    301.57071   -27.102177    21.767002    19.492049    40.111754 
95940000    273.17225    323.50146     285.5313   -27.312334    23.995518    37.970159    40.111009 
95944000    282.04105    339.65257    278.25055   -27.037301    24.275484    61.402011    40.112342 
95948000    282.60312    335.35986    294.63682   -28.511972    22.051644    40.723039    40.112738 
95952000    266.07731    343.47118    262.47343   -29.158407    25.045113    80.997751    40.115171 
95956000    266.08402    324.21022    276.01922   -26.727538    24.861218       48.191     40.11357 
95960000    273.73216    326.09817    299.22578   -28.535237    23.195259    26.872396    40.114591 
95964000    267.53287    311.90691    278.82625   -27.393493     24.18662    33.080664    40.116833 
95968000    274.77873    331.59624    278.33288   -28.610959    23.789531    53.263355    40.116235 
95972000    266.76523    327.36041    273.03191   -27.945169    24.707853      54.3285    40.116589 
95976000    289.78374    358.09039    304.61401   -28.945719    23.211236    53.476379    40.115856 
95980000    269.60842    292.24231    290.06962   -26.144583    22.896504    2.1726875    40.115522 
95984000    273.59278    306.97809    265.00648   -26.840783    23.685079    41.971616    40.114677 
95988000    285.73808    329.93744    291.60078   -28.639855    21.870912    38.336661    40.115815 
95992000    276.71141    336.64079    261.69254   -28.717713    24.128397    74.948249    40.116563 
95996000    281.09542    312.08938    295.59633   -28.341066    22.157783    16.493053    40.119108 
96000000     283.1206    345.79249    275.27528   -28.668329    23.363845    70.517202    40.117991 
96004000     275.8544    308.62482    291.97251   -27.417132     21.99395    16.652308    40.117218 
96008000     271.5082    298.74695    279.05823   -25.615406    22.291471    19.688725    40.118118 
96012000     274.0046    309.80915    278.76331   -26.471035    22.483392    31.045836     40.11705 
96016000    270.37319    316.80047    288.20426   -26.443066    23.150108    28.596217     40.11533 
96020000    281.31802    332.21101     295.1365   -27.028035    23.705088    37.074506    40.117221 
96024000    271.66351    339.46893    261.84136   -28.883505    25.379996    77.627574    40.118258 
96028000    269.43583    316.16937    276.73498   -27.424874    24.703364    39.434389    40.117183 
96032000    261.89862    299.94044    267.48909   -26.247442    24.589763    32.451352    40.117299 
96036000    276.92211    329.92797     303.7208    -28.91081    23.813885    26.207169    40.118406 
96040000    272.34069    316.17481    260.06701    -28.83228    25.793225    56.107799    40.119522 
96044000    270.81647    301.42506    287.58121   -28.465268    24.464792    13.843856    40.119234 
96048000    265.57688    304.15174    274.16304   -28.037322    25.543996      29.9887    40.119216 
96052000    276.83205    315.76362    271.16861   -28.717011    25.190975    44.595005    40.119418 
96056000    269.02805    300.43305    291.17672   -27.892817    24.463416    9.2563302     40.11957 
96060000    267.37866     300.3787    272.88958   -27.343685     25.08275    27.489115    40.119638 
96064000    276.26067    323.96173     297.0032   -27.747146    23.741297     26.95853    40.120592 
96068000     281.8316     339.8896    285.11464   -29.035288    23.537211    54.774962     40.12042 
96072000      272.311    309.39773    296.96178   -27.975732    23.387741    12.435945    40.120237 
96076000    277.27531    325.61605    293.66617   -27.290423    24.104898    31.949882    40.120457 
96080000    272.43286    315.29565    271.55895   -27.753521    24.588856    43.736697    40.121369 
96084000    273.59311    321.91626    286.71785   -28.834593    23.877279    35.198411    40.122794 
96088000    280.68329    324.03541    290.80875   -28.120719    24.252195    33.226666    40.123344 
96092000    281.55401    333.17117    300.57274   -29.032233    23.911997    32.598424     40.12329 
96096000    270.72923    315.93051    285.47734   -27.676288    23.999663    30.453171     40.12253 
96100000    274.09804    334.92503    284.23812   -29.212834    24.491866    50.686908     40.12196 
96104000     270.6005    316.54594    270.09516   -27.451745    24.447093    46.450779    40.121369 
96108000    280.18476    331.60626    292.83348   -29.295802    23.814701    38.772777    40.121667 
96112000    270.73974    303.76344    279.44133   -28.028403    24.627062    24.322112    40.122105 
96116000    280.12585    325.92035    283.59832   -28.815175    24.747177    42.322029     40.12185 
96120000    274.71057    321.25235    278.63358   -29.119278    24.061676    42.618766    40.120261 
96124000    275.98028    313.48552    284.31633   -28.051151    23.005792    29.169184    40.119911 
96128000    285.30773    333.87024    285.94407   -28.167925    23.100468    47.926176    40.119929 
96132000    269.06393    322.07206    275.44549   -28.485432    23.916859    46.626569    40.118576 
96136000    282.33154    342.13529    296.82177   -28.746697    22.668559    45.313516    40.118196 
96140000    268.86615    320.06167    273.80374   -27.355193    24.276224    46.257928    40.118086 
96144000    263.38774    303.91515    277.31316   -25.586817    25.237105    26.601991     40.11818 
96148000    279.98925    327.74402    280.01997   -26.604228    24.340071    47.724049    40.118829 
96152000    271.77784    340.01781    276.93329   -28.699679    24.086295    63.084519    40.118786 
96156000    272.01104    314.01243    273.69931   -28.751022    24.777308    40.313114    40.119626 
96160000    276.81714    319.77536     294.2898   -27.914653    24.104256    25.485557    40.120006 
96164000    272.52768    332.89145    273.51351   -27.612142      25.4732    59.377935    40.121144 
96168000    266.23923    309.20574    276.10515   -27.975539    25.403027    33.100587    40.121831 
96172000    277.57774    321.74662    290.41072   -28.639758    22.949773    31.335896    40.120943 
96176000      271.742    303.91945    297.58163   -28.477944    23.425368    6.3378191    40.121616 
96180000    269.71847    303.24586    288.44428   -28.577443    23.337317    14.801578    40.121517 
96184000    277.73602     316.5752    286.53243   -29.675249     23.84699    30.042776    40.121924 
96188000    282.06052     330.4689    277.58065   -29.395915    24.166573    52.888255    40.120514 
96192000    277.10404    329.26462    284.90149   -29.448007    23.849879    44.363129    40.119924 
96196000    276.84547    332.95643    291.21589   -29.665293    23.804722    41.740542    40.119012 
96200000    274.14191    352.52617    265.89807   -29.920834    25.307057    86.628094     40.11808 
96204000    275.31023    289.60425    291.46111   -26.495944    23.684156   -1.8568596    40.116481 
96208000     280.0473    333.95184    306.70195   -29.830534    22.977392    27.249891     40.11701 
96212000    277.78848    348.18366    263.60303   -28.946806    25.936063    84.580631    40.117043 
96216000    270.15768    320.99704    285.76075    -28.26869    24.517659    35.236289    40.116158 
96220000    272.81392     306.2398    287.96272   -27.144165    24.104187    18.277081    40.117851 
96224000    277.37537    338.06769    265.03728   -28.594131    24.923246    73.030409    40.117167 
96228000    263.62978    305.68163    281.13325   -27.912889    24.537278    24.548375    40.119477 
96232000    275.56251    326.45101    292.18899   -28.917437    24.890855    34.262018    40.119241 
96236000    273.51128    326.38003    280.04283   -28.455078    25.450226      46.3372      40.1193 
96240000    269.29522    329.97194    265.09561     -28.6612    25.643783    64.876324    40.119536 
96244000    269.37796      326.597    287.10924   -28.821075    25.470317     39.48776    40.118917 
96248000    274.90837    341.70348    269.83082   -29.107911    26.777925    71.872656    40.119049 
96252000    275.46462    326.93107    288.97633   -28.209594    25.564096     37.95474    40.118618 
96256000    263.29721    314.03607    279.75806   -27.096838    26.459598    34.278011    40.120666 
96260000    270.29728    333.24182    280.78123   -28.281583    25.376586    52.460582    40.120871 
96264000    264.73516    316.33671    255.68162   -26.464635    26.010058    60.655087    40.121149 
96268000     270.7531    315.07522    272.37494   -27.216615    24.926711    42.700278    40.120937 
96272000    280.81228    348.68091    272.17987   -29.007923    26.057905    76.501045    40.121398 
96276000     275.4543    344.40921    272.42389   -29.457234    25.171102     71.98532    40.122531 
96280000    264.98369    317.15637    257.71023   -27.469601     26.25393     59.44614    40.121847 
96284000    262.35004    298.00699    282.35255   -28.245722    25.431872    15.654439    40.120473 
96288000    271.23103    318.65869     282.5842   -28.489858    24.813968    36.074483    40.120703 
96292000    272.29362    314.02884    290.23934   -27.797131    24.534087    23.789501    40.119747 
96296000    272.58463    310.12209    297.43796   -27.997641     24.90548    12.684127    40.119333 
96300000    272.59018    313.12266    273.68063   -27.692224    25.548294    39.442034    40.118916 
96304000    274.10352    321.73301    292.87245   -28.829026    24.591463    28.860557     40.11875 
96308000    270.99998    318.64057    287.14988   -27.238713    25.806857    31.490691      40.1177 
96312000      266.085    316.87171    257.23295   -28.484931    26.565438    59.638762    40.117487 
96316000    273.46952    353.82737    289.25301   -29.526486    25.831596    64.574359    40.116036 
96320000    265.09864    313.36673    272.55724   -27.745056    26.687526    40.809491    40.116525 
96324000    269.77561    328.85472    276.60504   -28.207871    25.473289    52.249677    40.116699 
96328000    266.18832    323.96107    274.23023   -28.200101    26.535083    49.730835    40.117132 
96332000    267.20988    308.60867    289.69899    -26.63847    25.303008    18.909679     40.11789 
96336000    277.19145    328.26609    282.20614   -27.549847    26.429212    46.059948    40.117729 
96340000    269.17893    309.79006    293.06211    -26.84641    24.831331    16.727955    40.116264 
96344000    273.21022     303.9347    280.76083   -26.415136     26.12092    23.173873    40.116755 
96348000    273.33602     323.3944     287.0078   -27.040038    25.035231    36.386598    40.116418 
96352000    264.79939    313.77455    272.17174   -28.162527    25.005758    41.602807    40.114853 
96356000    277.98384    336.87013    276.11107   -29.136058    26.165942    60.759055    40.115305 
96360000    271.20853    315.21594    272.84771    -27.85398    26.504917    42.368235    40.115396 
96364000    272.62664    308.43559    293.27635   -27.581175    25.196999    15.159243    40.116926 
96368000    276.23867    336.11342    296.94271   -27.290432    25.093272    39.170706    40.117458 
96372000    268.12552    309.41523    280.12836   -27.246809    25.730106    29.286868    40.117995 
96376000    266.15245    309.08266     269.0577   -27.360593    26.019309    40.024958    40.117314 
96380000    267.04424     316.2135    283.13242   -28.523536    26.393683    33.081083     40.11547 
96384000     282.5889    343.59628    283.38537   -30.427023    25.434435    60.210911    40.115428 
96388000    273.49558    317.47659    292.81247   -28.744381     25.34069    24.664118    40.114451 
96392000    275.92978    328.06993    283.47661   -28.855005    25.812173    44.593318     40.11434 
96396000    270.34415    313.49164    271.60651    -27.44181    25.825076    41.885128     40.11374 
96400000    266.42858    318.40787    289.82643   -27.751945     25.10822    28.581449    40.112827 
96404000    268.10032    305.84976    275.60925   -26.926799    25.192127    30.240514    40.112128 
96408000    264.47484    322.04912    269.45079    -29.35956    25.798129    52.598331    40.113236 
96412000    266.39207    298.09661    287.15992   -27.053938    26.477461    10.936685    40.113581 
96416000    264.97652    330.21145    270.70856   -28.143427    26.522247    59.502893    40.114692 
96420000    272.55767    322.45627    298.45452   -26.913546    25.223902    24.001755    40.113291 
96424000     269.7676    337.74715    273.54605   -28.530981    26.024632    64.201104    40.114017 
96428000    273.93138    327.33268    296.12256   -27.897044    25.519801    31.210113    40.114013 
96432000      266.572    310.96969    284.08861   -26.800452    26.502613    26.881073    40.113529 
96436000    265.22813    319.14083    274.32088   -27.136917    26.622927    44.819949    40.113601 
96440000    263.03749    313.90268     280.1405   -28.258107    26.404565    33.762183    40.113813 
96444000    271.83078    331.33957    280.30224   -27.477693    25.076535    51.037335    40.115171 
96448000    268.07104    305.36208    295.10994   -26.762012    23.528936    10.252134    40.115819 
96452000    273.73477    324.49067    288.85162   -28.538389    24.421776    35.639052     40.11591 
96456000    268.27536    339.28981    263.73546   -29.463397    24.858333    75.554348    40.116222 
96460000    276.88134     301.6716      294.005   -27.789097    24.459873    7.6666004    40.116755 
96464000    277.35286    312.61733    295.09839   -27.709134    24.574081     17.51894     40.11786 
96468000     267.2517    310.24404    278.33927   -28.829917    24.922103    31.904775    40.118002 
96472000    260.17427    295.09833    263.39079   -28.237444    25.146076    31.707542    40.118347 
96476000    269.05969    311.45918    281.39068   -28.014979    24.023214    30.068506    40.117852 
96480000    275.08371    324.62138    281.47498   -28.327521    23.197537      43.1464    40.117187 
96484000    269.93557    316.66837    303.55205   -26.653659    22.934956    13.116328    40.117322 
96488000     277.5979    316.87487    287.67009   -28.097348     23.67225    29.204777    40.117278 
96492000    278.12216    328.32441    269.64115   -28.507963    25.425482    58.683262    40.116007 
96496000    274.36436    328.91898    289.11509   -30.031444    23.256742     39.80389    40.115521 
96500000    276.47088    312.58801     300.7266   -28.609382    24.157051    11.861401    40.116116 
96504000    281.93397    337.36799    301.11098   -29.896749      23.7028    36.257006    40.117044 
96508000    268.46876    304.26709    287.32999   -27.669588    23.402549    16.937094    40.115645 
96512000    268.76963    329.15425    279.00032   -29.307355     23.95661    50.153938     40.11561 
96516000    283.65634    337.90505     274.5287   -28.472387     24.70515    63.376356    40.114468 
96520000    271.49037    299.53379    286.74001   -27.892216    24.652794    12.793787    40.115825 
96524000    267.41591    325.17663    268.29557    -27.94144    25.259071    56.881055    40.116575 
96528000    272.98622    308.65646    273.38517    -27.35467    24.189414    35.271283     40.11553 
96532000    274.44418     312.2729    276.82817   -28.645846    23.470372    35.444732    40.116221 
96536000     278.9168    311.82476    302.02474   -28.177446    23.160991     9.800023    40.115737 
96540000    280.38358    323.64004    287.08876   -30.157584    23.250572    36.551272    40.116399 
96544000    274.55607    319.97883    290.09274   -29.552892    24.937165    29.886093    40.116664 
96548000    274.21444    324.22211    288.78838   -30.500541    23.859073     35.43373    40.115618 
96552000    276.61999    311.55469    287.94035   -29.024276    24.949039    23.614342    40.115585 
96556000    266.35527     297.8681    266.80676    -28.14592    24.988821    31.061344    40.115995 
96560000    269.17887    337.31955    258.83347   -30.199241    25.783633    78.486082    40.117645 
96564000    270.63628    304.62919    269.62806   -27.833808    26.412712    35.001138    40.117404 
96568000    283.33654    323.36379    300.99882   -30.287733    24.746353     22.36497    40.117224 
96572000    271.98027     317.1707    284.62118   -29.043003    25.031977    32.549516     40.11683 
96576000    268.41144    331.46769    267.39485   -30.465359    25.042685    64.072835    40.115687 
96580000    275.74775    311.19372    285.44917   -28.821874    24.059237    25.744544    40.115247 
96584000    274.65436    322.56166    286.68014   -28.329952    25.478689    35.881521    40.115458 
96588000    286.42239    342.24391    301.77927   -29.611591    24.856088    40.464641    40.114378 
96592000    277.54141    346.93941    266.62194   -30.699101    25.684156    80.317475    40.114184 
96596000     270.3004    298.90009    277.48498   -27.249767    24.859594    21.415111    40.113706 
96600000    273.12499    301.12206     294.3448   -28.804634    24.312132    6.7772608      40.1131 
96604000    280.38009    343.70291    263.95945   -30.038666    24.979039    79.743453    40.113073 
96608000    277.67772    310.22116    296.25446   -28.964116     24.07187    13.966695    40.111909 
96612000    277.87736    323.08896    300.17801   -30.474753    22.568364    22.910954    40.112364 
96616000    271.04757    282.26469    295.08266   -28.048898    22.262457   -12.817969    40.111709 
96620000    276.80881    314.45055    271.39164   -29.452498    24.583453    43.058911    40.112488 
96624000    284.18076    344.17177    294.29649   -30.719127    22.995083    49.875277    40.112234 
96628000    266.87976    301.83598    261.03082   -28.470753    25.208501    40.805162    40.112354 
96632000    273.10019    324.31511    277.21439   -28.906248    25.296756    47.100718    40.112185 
96636000    274.17102    309.54238    265.56483   -27.017327    24.965637    43.977543    40.113606 
96640000    282.50861    324.23654    300.67614   -27.430181    24.460224    23.560403     40.11227 
96644000    270.13521    320.35531     277.5551    -27.82012    25.156369    42.800206    40.113058 
96648000    288.36261    348.63096    292.07616   -29.897221    24.018271    56.554803    40.112654 
96652000    280.85701    318.85724    293.44661   -29.157501    23.674323    25.410629    40.112307 
96656000     270.3043    316.77734    281.62107   -27.713343    24.663498    35.156264     40.11305 
96660000    275.05562    319.28616    296.66826   -28.505944    23.702741    22.617907    40.114131 
96664000    265.35527    311.91243    263.57912   -27.989078    24.523361    48.333308    40.114432 
96668000    272.07375    318.24979    282.80566   -27.046686    25.055479    35.444132    40.114168 
96672000    272.12354    313.28695    282.55299   -27.708889    24.090681    30.733967    40.112255 
96676000    282.72282    333.44132    300.88404   -28.940159    23.588676    32.557284    40.111788 
96680000    275.50241    343.73562    292.85727   -29.022172    23.232795    50.878358    40.113747 
96684000    270.96137    314.35901    275.04575   -26.948154    24.634039    39.313258     40.11307 
96688000    266.20741    297.69969    294.54846   -26.638861    24.307104    3.1512251    40.114069 
96692000    275.23527    328.13033    281.82415   -27.228961    25.689854    46.306177    40.113655 
96696000    268.16105    314.96538    278.39788   -26.950267    25.118719    36.567501    40.112848 
96700000    264.98992    320.20703    277.13492   -27.518891    25.793109     43.07211    40.112573 
96704000    276.47245    339.01579    270.08937   -27.915739    24.981811    68.926423    40.111892 
96708000    266.84456    316.32003    252.84538   -26.991254    25.946257    63.474647    40.112866 
96712000    259.07419    315.70484    253.81778   -26.562877    26.379572    61.887058    40.113199 
96716000    263.57549      299.258    271.77763   -26.090207    25.619884    27.480366    40.114141 
96720000    273.37751    329.12051    280.67075   -27.621976    25.073639    48.449756      40.1123 
96724000    270.22269    326.50584     289.5719    -28.59529    25.960928    36.933939    40.111523 
96728000    272.05515    332.82076    277.41076   -28.127633    26.184165    55.410003    40.113222 
96732000    261.73641    297.11601    275.02743   -27.561396    25.733717    22.088575    40.113315 
96736000     273.8785    328.54608    290.79791   -28.299365    25.550183    37.748174    40.113594 
96740000    267.01417    311.61644    288.41901   -27.604223    25.661869    23.197432    40.111773 
96744000    280.41493     349.7865    288.39055   -28.801689    26.039239    61.395948    40.111408 
96748000    265.59528    297.90439    301.80596   -26.517096    24.715762   -3.9015677    40.112535 
96752000    278.72037    343.70883     283.7689   -29.669474    25.840069    59.939938    40.112742 
96756000    266.49551    320.00467    274.00115   -27.548566    26.708391     46.00352    40.112889 
96760000    271.60951    309.20239    289.21417   -27.458233    25.042686    19.988215    40.113765 
96764000      286.396    339.28259    304.76338   -28.544349    24.225287    34.519209    40.113511 
96768000    282.97425     337.1596    300.00618   -28.227647    24.625312    37.153425    40.113742 
96772000    273.56214    311.60641    285.46347   -27.520397    23.051192    26.142931    40.114052 
96776000    268.30954    319.90202    282.57153   -28.869637    24.192086    37.330489    40.113181 
96780000    277.17763    325.44172    289.28621   -29.387709    24.460743    36.155507    40.112754 
96784000     271.8492    302.94854    277.53038   -27.111815    24.803598    25.418167    40.110649 
96788000    272.13212    345.09055    257.66314   -30.586581    26.045759    87.427407    40.110888 
96792000    266.58054    309.80731    262.49037   -28.108854    25.808451    47.316935     40.10899 
96796000     285.4024    348.78362     277.7186   -30.168655    25.277539    71.065017    40.108915 
96800000    271.61323     302.2296    277.54057   -28.151464    26.231451     24.68903    40.109918 
96804000      272.089    328.05905    257.94416   -29.125842    25.493289     70.11489    40.108725 
96808000    271.52937    320.87173    275.90374   -27.727645    24.219668    44.967988    40.108095 
96812000    275.32993    316.78236    277.65335   -28.257816    23.999737    39.129016    40.107456 
96816000    268.70633    323.31174    282.25327   -27.808715    24.935453    41.058469    40.107478 
96820000    277.79393    334.88719    287.87619   -29.030681    23.328057    47.011001    40.107211 
96824000    281.37052       318.49    296.28513   -29.801301    23.300226    22.204876    40.106838 
96828000    289.18647    357.61596    291.41293   -30.712587    23.720788    66.203025    40.105771 
96832000      275.976    306.38262    301.38099   -28.347701    23.920828    5.0016306    40.106641 
96836000    269.12585    307.61179    289.34399   -27.603865    23.996039    18.267795    40.106723 
96840000    282.75418    321.71659    287.23707   -29.603425    24.109906    34.479525     40.10802 
96844000    279.36438    348.33917    263.60534   -31.209621      25.7542     84.73383    40.107124 
96848000    276.15545    313.16325    271.09737   -29.217485    24.979107    42.065882    40.106708 
96852000    277.08241    327.08203    267.17802   -30.080007    25.142551    59.904007     40.10847 
96856000    268.99903    304.22911     279.5399    -28.99576    24.465614    24.689207    40.108199 
96860000    278.73461    319.50686    285.10756   -29.116992    24.362223    34.399292    40.109001 
96864000    280.62985    326.87845    284.32937   -29.323543    25.231472     42.54908    40.108349 
96868000    279.30043    331.72521    269.25721   -29.928269    24.803845       62.468    40.108641 
96872000    274.91033    300.44155     287.1547   -26.385354    24.342932    13.286852    40.108366 
96876000    277.52068    321.07415    287.00528   -28.369419    25.286136    34.068869    40.106718 
96880000    275.69112    308.60718    294.33778   -28.290281    23.772579    14.269406    40.106001 
96884000    280.32931    313.59558     291.7516   -29.166643    22.973013    21.843986    40.104444 
96888000    277.93406     329.8494    271.78307   -27.974823     24.91894    58.066332    40.103539 
96892000     282.2999     346.8814    272.15903   -30.079929    25.184669    74.722375    40.104532 
96896000    277.24055    340.78471    282.76212   -30.062699    25.351256    58.022592    40.104664 
96900000    281.52832    342.47411    274.04209   -30.635069     25.65548    68.432013    40.104699 
96904000    284.08394    349.28105    272.48162   -29.996122    24.373953    76.799427    40.103824 
96908000     272.1553    323.76149    272.29642   -29.517815    25.610029    51.465075    40.103102 
96912000    279.82486    325.90936    295.76713   -29.774045    23.883472    30.142225     40.10213 
96916000    270.69592    313.98127    277.88908   -27.929364    25.914172    36.092193    40.102872 
96920000    268.53787    316.75811    257.64001   -27.774032    26.122739    59.118094    40.103805 
96924000    276.02106    331.32213    262.59348   -28.838471     26.90181    68.728645    40.102414 
96928000    277.47141    332.80119    266.97038   -29.898378     26.70937    65.830815    40.103271 
96932000    281.96401      331.387     290.5204   -29.438939    23.943225    40.866602    40.102215 
96936000    276.55898    334.31416    292.15482   -31.183828    23.900394    42.159334    40.100916 
96940000    275.76373    298.93377    290.15614    -28.62083    24.175426    8.7776307    40.102888 
96944000    276.67558    324.57817    283.22163   -29.827254    25.022147    41.356541    40.104613 
96948000    277.25569    321.56385     275.6371   -30.514272    24.911052    45.926747    40.105039 
96952000    281.16013    342.01449    283.78228   -30.450089    25.388716    58.232203    40.104072 
96956000      276.457    325.94743       266.88   -28.887486       25.894    59.067437    40.103301 
96960000    279.00366    323.68781    279.27192    -29.33997    25.351463    44.415887    40.103416 
96964000    271.98053    321.71305    260.86932    -29.60296    26.572137     60.84373    40.104328 
96968000    280.69759    319.93887    287.05842   -30.105991    23.932577    32.880456    40.104571 
96972000    272.36324    299.28004    283.41352    -29.00436    25.059766    15.866519    40.105212 
96976000    278.52829    327.72227    283.05164   -29.849637    24.620719    44.670631      40.1052 
96980000    272.10923     324.3466    280.03799   -29.003548    24.637033    44.308608    40.105431 
96984000    276.21735    310.51291    288.02794   -29.752936    25.525211    22.484972    40.105982 
96988000     284.8909     339.9518    283.17403   -29.203121    25.699327    56.777767    40.106272 
96992000    273.85287    323.17337    277.33528   -29.631804    25.627004    45.838095    40.107082 
96996000    279.39257    328.86908    270.99099   -29.579254    25.725236    57.878086     40.10575 
97000000    266.15492    297.69548    266.50864   -28.077369    25.631553    31.186834    40.105421 
97004000    270.66244    315.52323    262.92577   -30.003114    24.558998    52.597456    40.104971 
97008000    281.98602    336.42709    281.79846   -29.777827     23.63812    54.628637    40.104418 
97012000    285.24945    334.99556    293.32058   -29.551808    23.985237    41.674985     40.10562 
97016000    272.31711    301.50821    275.79531   -28.584841    25.112309      25.7129    40.103742 
97020000    279.52349    319.68286    290.12535   -29.415329    24.413904    29.557515    40.102873 
97024000    289.03275    344.66156    294.53128    -32.21189    24.102342    50.130285    40.103124 
97028000    274.62717    319.19305    287.87801   -29.225397    24.382747    31.315047    40.104561 
97032000    280.16609    311.99826    300.94639   -29.617538    24.356188    11.051875    40.103022 
97036000    263.82339    301.81146    269.90689   -29.525261    25.547632     31.90457    40.102626 
97040000    268.17031    309.53281    273.08992   -29.513711    24.852253    36.442889    40.101026 
97044000    275.93421    326.11558    280.27308   -29.712216    25.307142    45.842498    40.101793 
97048000    272.26365    313.92742    284.50803   -29.924239    26.078023    29.419396    40.100218 
97052000    275.90994    327.77796    276.65823   -29.574534     25.56783    51.119733    40.100572 
97056000    277.73699    326.47272    292.04687   -29.176548    24.345501    34.425849    40.101292 
97060000    269.12627    307.11559    295.01936   -28.140839    24.447298    12.096235    40.101822 
97064000    272.30055    304.52323    280.21376   -29.618256    25.195565     24.30947    40.101477 
97068000    278.20526    309.22109    296.21569    -27.58203    24.963136    13.005403    40.100625 
97072000    273.23932    312.57795    277.45903    -29.17089    25.193086    35.118926    40.098578 
97076000    274.14285    341.49407     273.4635   -30.371509    24.692449    68.030576    40.097925 
97080000      268.417    323.08511    273.44013   -29.650534    25.650972    49.644985    40.098787 
97084000    268.39586    311.41775    274.82067   -28.147171    24.687646    36.597077    40.099075 
97088000    275.37637    330.03253    281.96172   -29.171205    26.044405    48.070808    40.099021 
97092000    274.90195     311.8883    283.40317   -27.471402    25.572283    28.485124    40.097519 
97096000    278.80803    323.32791    297.42897   -27.886517    25.350893    25.898939    40.096787 
97100000    281.57345    338.76073    289.05478   -29.915978    25.682486    49.705956    40.096308 
97104000    270.99736     329.5777    261.48993   -29.407228    27.523877    68.087775     40.09639 
97108000    268.92605    333.50292    262.80927   -29.652465    25.974052    70.693654    40.096498 
97112000    271.82893    309.52824     286.9973   -28.281593    24.848954    22.530939    40.095346 
97116000    274.03473    313.35217    281.69052   -27.399518    24.828977    31.661655    40.095253 
97120000    278.27197    340.12615    286.66995   -28.636811    24.932785    53.456205    40.096125 
97124000    271.86079    333.08038    275.92469   -28.713865    24.976938    57.155698    40.096033 
97128000     264.0231    315.49681    271.04834    -27.70404    25.454696    44.448464    40.095725 
97132000    259.62558    289.86598    272.80237   -26.093197    25.205342    17.063607    40.094654 
97136000    275.52302    321.39652    277.34261   -27.760487    25.360946    44.053903    40.093616 
97140000    274.82764    336.35626    276.19439    -29.32435    25.194214    60.161865    40.093552 
97144000    266.82813    315.65962    275.53753   -28.346787    25.463814    40.122093    40.093322 
97148000    277.93517    349.18715    273.22254   -28.378065     25.95456    75.964608    40.094331 
97152000    261.60537    318.81181    261.20845   -27.843382    26.396886    57.603363    40.095219 
97156000    278.12049    323.00404     289.5978   -27.983517    25.028086    33.406242    40.094738 
97160000    263.04957    313.08806    269.64463   -28.801139    25.954663    43.443427     40.09547 
97164000    269.06183    324.08136    272.13336   -29.201265    25.668949    51.947998    40.096038 
97168000    273.29276    324.91779    279.86015   -28.408175    25.002463    45.057636    40.096144 
97172000     263.0892    306.26046    272.48372   -27.499536    25.457837    33.776735    40.096577 
97176000    271.36658    306.42421    283.61791   -27.989355    24.186311    22.806301    40.098405 
97180000    273.45653    318.95751    282.94938   -27.879291    24.739655     36.00813     40.09944 
97184000    275.03863    324.44588    289.48192   -29.618505    25.622599     34.96396    40.098407 
97188000    276.09613    329.73858    294.70215   -28.609158    25.428355     35.03643    40.098365 
97192000    258.41883     284.9209    262.24489     -26.3066    26.435857    22.676014    40.098538 
97196000     267.2914    309.82401    272.38385   -27.274628    25.341641    37.440164    40.098485 
97200000     266.3112    307.63284    276.57109   -28.202682    24.777031    31.061751      40.1012 
97204000    272.48839    316.06703    284.36347   -28.272297    24.254368    31.703553     40.10183 
97208000    278.54067    316.25346     284.8245   -27.692395    25.198332    31.428957    40.100348 
97212000    262.37978    281.29291    262.12731   -26.845017    26.382945    19.165605    40.099951 
97216000    266.08103    302.20015    271.01429    -27.96625    25.320804    31.185854    40.101256 
97220000    278.21373    309.20096    308.69392   -27.439657    22.937064    0.5070321    40.099636 
97224000     272.7856    308.60214     280.1302   -28.192521    24.353881    28.471941    40.098539 
97228000    279.71746    338.61823    285.99678   -29.378506    25.030106    52.621452    40.099943 
97232000    269.31817    303.39403    277.06072   -27.595643     25.55806    26.333308    40.099759 
97236000    268.64308    319.80958    273.95255   -27.256151     24.61173    45.857027    40.099345 
97240000    278.20025    326.35957    280.19074   -28.525781    24.260764    46.168832    40.099304 
97244000    269.67291    339.69743    258.10746   -29.537049    25.263533    81.589975    40.101051 
97248000    276.61305    317.80452    303.06816   -28.017038    22.005022    14.736365    40.099908 
97252000    275.67484    336.46651    259.96613   -28.882641    25.991483    76.500379    40.099107 
97256000    275.17109    319.18987    285.31164   -28.139368    23.387268    33.878231    40.098976 
97260000    271.73051     306.7359     299.5716   -28.494348    23.844362    7.1643063     40.09852 
97264000    271.15032    285.22163      286.464   -24.873024    24.405545   -1.2423715    40.097029 
97268000    272.93035    297.26034    290.06428   -26.154181    25.421533    7.1960536    40.096779 
97272000    268.16112    306.29828     269.2137   -26.725121     25.13901    37.084577    40.095803 
97276000    274.70532     316.4259    278.59837   -28.119077    23.663501    37.827528    40.097322 
97280000    263.88815    305.08432     259.3837    -26.31799    24.189495    45.700618    40.096808 
97284000    286.17565    337.62111    289.22981   -28.702649    21.839099    48.391299    40.096742 
97288000    271.15059    305.44654    287.12259   -27.363876    22.686432    18.323952    40.095422 
97292000    286.17813    343.27272     293.1203   -29.617273    22.917951    50.152422    40.096058 
97296000    277.97818    317.28839    285.84996    -27.80638    24.281429    31.438432    40.095316 
97300000    274.11708    298.68673    270.73241   -27.936688    24.475724    27.954318    40.093812 
97304000    271.87074    333.81492     271.9106   -30.026881    24.573917    61.904317    40.094252 
97308000    273.41553    320.06493     272.2372   -28.257276    25.077239    47.827732    40.094037 
97312000    277.33527    311.52917    274.35459   -28.713213    23.470901    37.174575    40.093014 
97316000    265.55766    285.70273    266.91424   -28.332901    24.658404    18.788486    40.091306 
97320000     279.0022     338.8939    262.26613   -29.798543     24.55159    76.627769    40.092137 
97324000    279.20438    315.53856    277.93317   -29.646587    23.370818    37.605386    40.094255 
97328000    280.37165    325.81181    274.69525   -28.896126    24.096068    51.116562    40.094167 
97332000    282.01906    331.17732    289.76838   -29.935703    23.115003    41.408931    40.095245 
97336000    285.38772    316.89501    294.28492   -27.686253    22.640089    22.610081    40.096219 
97340000    274.25136    307.30553    272.50491   -26.591604    23.356712    34.800624    40.096405 
97344000    279.96007    295.70968    275.48304    -27.59804    23.502717    20.226644    40.095722 
97348000    277.04161    315.71564    285.02218   -28.488384    23.106152    30.693458    40.095099 
97352000    288.60608    344.79071      299.969   -29.544242    22.707234    44.821701    40.094961 
97356000    276.71484     337.3714    268.71431   -29.296087    24.096292    68.657093    40.094678 
97360000    272.98782    311.31932    265.23702   -29.299521    23.694573    46.082299    40.094414 
97364000    279.10072    334.93526    267.24968   -31.187332     23.57494    67.685573    40.093635 
97368000     280.7862    316.37193    291.62825   -29.537313    23.198875    24.743674    40.095442 
97372000    289.07385    324.39078    299.44418   -30.399084    22.536693    24.946603    40.096263 
97376000    269.58092    300.33318    279.02043   -29.009005    24.284262    21.312758    40.097166 
97380000    269.94778    313.48401    283.49477   -27.261747    24.670381    29.989248    40.096602 
97384000    272.32774    311.77798    277.30325    -28.55088    24.987157    34.474729    40.095853 
97388000     267.3371    328.31837    264.91183   -28.730415    25.559494    63.406545    40.096616 
97392000    273.83437    307.98108     294.3156   -27.417833    23.924933    13.665476    40.096436 
97396000    271.09616    318.46664    287.74698   -28.671053    24.233945    30.719659    40.095185 
97400000    275.10472    322.07949    289.74327   -29.503409    24.222447    32.336219    40.095425 
97404000    268.14317    312.57648    263.74045   -29.136774    26.304839    48.836039    40.096485 
97408000    271.84069     327.5371    261.05671   -29.656021    25.487816    66.480382    40.096809 
97412000    285.26259    335.80288    290.19358   -30.983149    22.886198    45.609297    40.096344 
97416000    274.40974    311.16584    294.22247   -28.657652     24.53156    16.943373    40.094994 
97420000    275.56787    327.94164    283.18527   -29.521112    24.380255    44.756367    40.094065 
97424000    268.56689    333.65558    269.96444   -29.468829     26.25787    63.691146    40.092323 
97428000    277.09878    327.64908     285.2439   -29.878552    25.105554    42.405175    40.090769 
97432000    268.34702    319.10701    274.55312   -29.484854    26.318481    44.553893    40.089165 
97436000    271.42982    325.19614    287.28752   -28.283307    25.452231    37.908617    40.089698 
97440000    269.47106     313.4892     269.8448   -27.786122    26.385754    43.644405    40.089705 
97444000    272.75022    340.54917    275.58583   -28.051978    25.884431    64.963333    40.090691 
97448000    272.24096    324.61429     269.5826   -28.558141    25.503075    55.031693    40.091832 
97452000    278.35686    331.28946    286.50833   -28.106062    25.521288    44.781138    40.090048 
97456000    272.76645    334.40279    281.05198   -28.457006    26.185932    53.350811    40.088798 
97460000    272.61031     312.2789    289.89557   -28.136692    25.462673    22.383329    40.088598 
97464000    268.66169    305.15798    292.77953   -27.573336    26.559824    12.378449    40.087592 
97468000    261.58477    301.32479    257.34858   -27.594842    27.362724    43.976206    40.087946 
97472000    269.09482     309.9154    292.64213    -29.19894    25.803216    17.273274    40.088039 
97476000    279.60179    306.58995    300.42031   -29.094522     25.88679      6.16964    40.087798 
97480000    273.95795    325.92243    277.78068   -29.995666    26.411491     48.14175      40.0889 
97484000    273.21025     318.0328    271.48264   -29.688369    27.238824    46.550164    40.089895 
97488000    276.84509    329.49075    291.45207   -30.640975    25.788058    38.038683    40.090936 
97492000    265.19822    316.04722    253.75322   -29.250265    27.331018    62.294002    40.090024 
97496000    281.15684    323.40784    285.87403   -30.074078    25.955697    37.533807     40.08912 
97500000     271.1318    302.61284    273.23959   -29.084182    26.053969    29.373243    40.088444 
97504000    273.05528     325.3441    281.91077   -29.799464    25.415995    43.433326    40.089252 
97508000    267.83085    301.35712    275.35158   -28.730127    26.024319    26.005543    40.090125 
97512000    270.38731    320.83413    289.69351   -29.350096    24.808309    31.140615    40.090163 
97516000    267.26884    316.76445    268.07927   -29.397944    27.095029    48.685175    40.089501 
97520000    279.10167    325.20396    281.81382   -30.286664    25.505614    43.390149    40.088762 
97524000    266.89129    309.22014    261.43501   -29.701037     26.05726    47.785133    40.090092 
97528000    277.98409    340.36258    292.24723   -30.436845    25.064245    48.115352    40.090672 
97532000    268.39804     300.6547     283.3878   -29.586917    25.313232    17.266903    40.090229 
97536000    275.80226    302.89302    305.10268   -28.756398    23.595667   -2.2096603    40.090861 
97540000    278.04434    329.28797    270.67829   -29.580804    25.631685    58.609673    40.090352 
97544000    287.43582    354.02266    300.54126   -30.792992    24.138498    53.481396    40.090709 
97548000    277.31026     322.9067    291.54119   -29.333711    24.986165    31.365508    40.090728 
97552000    263.95506    286.35021     287.4591   -26.759148    25.493076   -1.1088839    40.090366 
97556000    277.32326    335.94572    274.23955   -29.867567    26.445987    61.706175    40.091305 
97560000    275.14707    285.23607    293.75577    -27.90963    25.547468   -8.5197007    40.092432 
97564000     274.7072    339.75664    281.21929   -31.135924    25.310921    58.537346      40.0922 
97568000    276.99896    302.40174    300.81928   -29.016933    24.413364    1.5824573    40.091144 
97572000    282.31201    343.91604    285.07584   -30.841163    26.011942    58.840196    40.090995 
97576000    274.29401     316.6169    273.32142   -29.494908    25.839084    43.295479    40.090253 
97580000    277.16705    340.58664    271.55418   -30.120739     25.32797    69.032459    40.090854 
97584000    264.69662      315.545    280.41593   -29.009475    25.234577    35.129064    40.091363 
97588000    283.30985    357.02697    301.23343   -30.465483    23.960624    55.793535    40.091201 
97592000    271.63742    324.86072    268.19432   -28.764755    25.895409    56.666408    40.091186 
97596000    279.61686    328.03417    297.66921   -29.216263    24.741737    30.364961    40.092562 
97600000    278.93439    352.38986    262.04457   -30.286332    25.690749    90.345283    40.091826 
97604000     269.0244    328.81921    273.34552   -29.047513    26.490755    55.473698    40.090788 
97608000    278.01257    343.19719    270.85285   -30.009784    26.144806    72.344337    40.090749 
97612000    262.74162    308.58485    265.28671   -28.274616    26.470515    43.298134    40.090794 
97616000     269.7168    321.39196    276.44321   -28.968002    25.694807    44.948756    40.090597 
97620000    276.84958    346.23453    271.62681   -28.382145    25.790334    74.607718    40.091637 
97624000    277.95664    343.54635    292.09405    -29.99412    25.860761    51.452297    40.092145 
97628000    267.98718    303.57912    277.66688   -26.845677    24.920672     25.91224    40.092672 
97632000    263.60428    312.99347    256.99544   -27.575355     26.62664    55.998022    40.091995 
97636000    267.85924    328.04341    276.62346   -28.312298    26.211569    51.419944    40.093881 
97640000    283.19284    328.71165    291.20531   -29.153091    24.534819    37.506334    40.095491 
97644000    272.41846    324.30967    287.96801   -29.363473    24.011325    36.341654    40.094412 
97648000    283.64231    318.49348    312.18141    -29.47054    24.650926     6.312063    40.096104 
97652000    272.29523    311.07816    288.40029   -28.427879    26.283594    22.677863    40.097393 
97656000    273.78877    330.86651    282.95034   -30.353446    25.671256    47.916169    40.096638 
97660000    270.12728    316.43597    284.80897   -30.314891    26.389381    31.626999    40.097538 
97664000    275.15776    332.10481    274.99738   -29.783374    26.920321    57.107421    40.098489 
97668000    271.12044    310.57794    277.52725   -28.656902    26.693362    33.050686    40.098714 
97672000     271.5654    322.19848    273.92614   -29.061795    24.925516    48.272338    40.099689 
97676000    271.07097    322.54193    285.51346   -29.264283    25.596767    37.028469    40.099702 
97680000    275.37885    320.27491    289.53239   -28.684474    25.396777    30.742522    40.099493 
97684000    278.39341    333.21885    267.64546    -28.36796    26.653647     65.57339     40.10048 
97688000     276.6293    314.06996    302.30124    -28.57724    25.094761    11.768723    40.101042 
97692000    275.38634    328.14069     280.2784   -29.317594    25.493359    47.862298    40.100532 
97696000    266.42024    297.10904    278.44628   -28.240699    25.350419    18.662765    40.100987 
97700000     271.6915    315.19509      286.871   -29.568168    25.088525    28.324089    40.101256 
97704000    274.36714    328.00937    281.25396   -29.479394    25.426675    46.755404    40.101039 
97708000    278.96934    341.88688    278.32721   -29.836488    26.438743    63.559673    40.102138 
97712000    275.88245    330.36986    277.34458   -28.092101    24.628394    53.025278    40.102695 
97716000     268.6358    304.45311    275.16839   -29.083839    25.489527    29.284717    40.101039 
97720000    279.01964    323.58067    295.61086   -29.987437     23.67104    27.969811    40.101244 
97724000    281.15727    315.28647    297.38243   -29.427611    24.818006    17.904049    40.099907 
97728000    282.52968    348.29945    283.58075   -30.192065     25.81951    64.718701    40.100848 
97732000    274.60953     318.3853    294.03047   -29.348635    24.403744    24.354836    40.102439 
97736000    277.58578    330.85364    282.34417   -29.811796    25.438293    48.509477    40.103501 
97740000    269.26683    295.98015      280.437   -28.025475    26.273152    15.543156    40.102697 
97744000    269.29369    327.87815     264.3022   -29.260522    26.953114    63.575952    40.102839 
97748000    275.89354    325.43168    290.20638   -30.037578    25.164405    35.225304    40.105236 
97752000    279.72142     326.4214    300.70117   -29.352013    24.574298     25.72023    40.105273 
97756000    266.20548    303.13989    275.49391   -28.544246    27.283286    27.645978     40.10597 
97760000    271.39709    314.09356    283.14881   -30.305768    25.491812    30.944748    40.106748 
97764000     270.9418    305.97722    284.76618    -29.73494    25.874457    21.211035    40.106532 
97768000    281.85508    307.64211    315.36877   -28.584796    24.287297   -7.7266546    40.106686 
97772000    271.50205     320.4354    282.72348   -28.670399    26.473738    37.711919    40.107141 
97776000    281.72587    345.93749    293.39835   -30.488748    25.101485    52.539133     40.10649 
97780000    267.77985    304.92617    277.77411   -27.986222    26.314551     27.15206    40.105242 
97784000    272.17308    311.72811    282.80995   -29.186349    25.712645    28.918162    40.106474 
97788000    275.09567     325.5792    279.39412   -30.238966     26.71137    46.185073    40.106394 
97792000    274.87166    336.66382    271.87236   -31.410624     26.42265    64.791462     40.10649 
97796000    272.78589    309.08763    281.02516   -29.720969    25.899816    28.062472     40.10717 
97800000    278.87334    325.45376     266.0472   -29.908651    25.775861    59.406556    40.106291 
97804000    285.70328     339.7272    294.70657   -31.236517     25.00809     45.02063    40.106355 
97808000    270.92621    314.32519    271.75377   -30.269894    24.906758    42.571422     40.10641 
97812000    279.45516    305.34062    295.88797    -29.41525    23.990526    9.4526492     40.10768 
97816000    278.03713    323.10443    298.32765   -31.306767     25.08326    24.776776    40.106842 
97820000    276.30256    330.34632     287.1505   -29.975214    24.566604    43.195824    40.105771 
97824000    269.87842    322.76385    278.31753    -30.26338    26.088639     44.44632    40.108223 
97828000    267.07693    315.48421    274.57556   -29.329963    25.725865    40.908652    40.108861 
97832000    279.20904    313.98149    277.93001   -27.897561    24.793496    36.051475    40.109206 
97836000    265.49438    327.47713    263.16316   -29.571177    26.115864    64.313969    40.109731 
97840000    265.51739    301.94542     252.0029    -27.13111       26.507     49.94252    40.108339 
97844000    273.88349    324.52182    282.82478   -28.050239    25.061045    41.697046    40.109483 
97848000    272.76512    324.35626    266.10924    -28.40634    25.303444    58.247014    40.108988 
97852000    264.85095    291.50288    282.15264    -26.90425    25.251715    9.3502384     40.10942 
97856000    273.80801    315.77353    285.89442   -27.836166    24.737851    29.879106    40.109689 
97860000     276.8246    328.54842    276.23753   -29.132543    24.984377    52.310891    40.111659 
97864000    286.21909    338.71416     298.0514   -29.872072     23.61562    40.662762    40.111636 
97868000    279.76415    333.85666    290.84782   -29.394658    23.918299    43.008835    40.112548 
97872000    275.69063    314.86815    297.81055   -28.634582    24.345659    17.057604     40.11253 
97876000    272.32991    318.69225    283.29524   -28.929688     24.85002    35.397015    40.113415 
97880000    274.97571    321.35698    292.58606   -28.311902    25.296512    28.770921    40.113172 
97884000    277.19679    326.33027    286.23863   -29.203589    24.626605    40.091639    40.111362 
97888000    264.11612    300.62849    268.96969   -28.249701    25.335768      31.6588    40.113325 
97892000    263.23717    296.29286    285.99336   -28.166711    25.686548    10.299493    40.113357 
97896000    266.56661    304.77725    290.08367   -28.342089     25.10138     14.69358    40.112831 
97900000    273.05505    342.02791     280.7979   -30.343907    24.401366    61.230013    40.113811 
97904000    267.39176     303.8912    280.56821   -27.294819    25.026772    23.322997    40.114055 
97908000    265.46001    304.80287     281.4533    -27.94823    25.403599     23.34957    40.113523 
97912000    269.92055    334.19663     278.0654   -28.444784    25.152429    56.131228    40.113317 
97916000    275.36321    303.40496    293.76791   -27.328121     25.23357    9.6370471    40.112924 
97920000    273.77838    349.89459    271.14373   -30.034317    26.294922    78.750862    40.111642 
97924000    270.70671    321.41936     260.4458    -28.33123    26.612704    60.973559    40.112024 
97928000    261.70604    306.93353    264.67087   -27.767758    26.949111    42.262659    40.111544 
97932000    268.45515    302.75671    282.51386   -28.055541    26.233516    20.242855     40.11219 
97936000    272.44531    326.94293    277.57851   -29.303003    26.387693    49.364427     40.11296 
97940000    272.67814    316.94324    294.65201    -28.56141    25.376409     22.29123     40.11171 
97944000    276.20701    310.98194      290.997   -28.527718    25.525212    19.984943    40.111623 
97948000    274.99811    321.98819    283.29912   -28.600246     26.15278     38.68907    40.112036 
97952000    276.48584    340.32036    258.81972   -31.158849    26.399682     81.50064    40.113921 
97956000    275.14758    324.72705     281.5875   -29.365853    24.978048    43.139554    40.113797 
97960000    275.44724    306.82163    280.91782   -29.462654    26.060897    25.903812    40.113924 
97964000    274.36502    316.63672    286.42043   -28.859917    25.304725    30.216291    40.114229 
97968000    275.66286    317.47786    294.06579    -29.70134    24.400887    23.412076    40.114181 
97972000    266.43666    303.43499    261.87454    -29.86385    26.373449    41.560449    40.114532 
97976000    276.90695    321.52333    280.31447   -29.774431     25.75184     41.20886    40.113982 
97980000    275.76549    308.26826    270.40392   -28.714946    26.318848    37.864343    40.113812 
97984000    270.29634    316.73012     260.3565     -29.4169    26.306527    56.373628    40.114557 
97988000    275.27718    316.90657    291.37825   -29.269458    24.907665    25.528321    40.112639 
97992000     272.6041    331.18716    271.70315   -29.642778    25.645576     59.48401    40.111942 
97996000    275.94674    314.70514    290.66002   -29.979356    24.301376    24.045123    40.114373 
98000000     281.2886    313.42006    300.57711   -29.135862    23.034293     12.84295    40.114611 
98004000    275.22005    335.32559    281.29656   -29.298677    24.569032    54.029032    40.115624 
98008000    270.93314    316.84949    274.18109   -29.252098    26.092205    42.668399    40.113809 
98012000    278.88182    328.45512    285.80556   -29.264625     25.19893    42.649565    40.112899 
98016000    269.26641    314.31997    287.81637   -28.864568    25.151733    26.503602    40.113406 
98020000    266.84396       319.03    276.67602   -28.546909    25.661605     42.35398    40.112978 
98024000    268.26008    321.93253    277.55173   -29.557436     26.54136    44.380803    40.114063 
98028000    268.42095    310.86642    265.21321   -28.375812    26.600481    45.653208    40.113977 
98032000    270.27874     306.4769    285.55921   -27.546574    25.833013    20.917699     40.11499 
98036000    271.10035    311.37337    298.63933   -29.036056    23.971073    12.734047    40.114419 
98040000    274.64015     320.6286    290.90106   -29.256341    24.304557    29.727543    40.113328 
98044000    270.42001    315.47421    272.45078    -28.68236    26.263257    43.023431    40.114373 
98048000     278.2201    330.21546    287.54577   -28.817819    26.047845     42.66969     40.11272 
98052000    273.18903    323.80741    274.08958   -28.389097    26.761955    49.717833    40.113036 
98056000    257.39736    296.24985    249.84897   -27.613645    26.474734    46.400871    40.113451 
98060000    278.02433    325.09096    293.22795   -28.662828     24.61013    31.863009     40.11224 
98064000     275.8766     329.2549    285.93368   -30.262457    26.093752    43.321221    40.112046 
98068000    261.94429    318.61289    267.63836   -28.454291    26.254796    50.974536    40.113264 
98072000    272.46903    315.38564    282.20859   -28.799789     25.88219    33.177051    40.113234 
98076000    267.42843    321.41563    266.37027   -27.774013    26.792546    55.045365    40.113887 
98080000    273.18792    315.26043    285.30911   -27.642413    25.378993    29.951327    40.112422 
98084000    273.52756    333.48999    274.19495   -29.288263      26.1101    59.295032    40.112487 
98088000    275.71402    340.89416    274.94935   -29.235206    26.480828    65.944808    40.112496 
98092000     275.0055    347.77689    272.13598   -29.981498    24.382104    75.640915    40.112851 
98096000    272.34912    308.90082    287.92191   -29.428676      25.2354    20.978906    40.112676 
98100000    275.01207    340.76597     269.6526   -30.633335    25.485378    71.113368    40.112119 
98104000    272.57098    310.54997    304.04436   -28.658674    24.845049    6.5056137     40.11374 
98108000    272.94277     331.6849    284.03389   -28.871151    26.386021    47.651014    40.114199 
98112000     275.4811    308.98521    294.08876    -27.78182    24.947799    14.896455    40.114561 
98116000    271.21494    316.71249     287.4743   -27.690253    24.609966    29.238189    40.113964 
98120000    265.57532    300.71854    283.01046   -27.257817    23.709016    17.708083    40.113534 
98124000    279.52688    328.91779    277.77769   -28.888994    24.981658    51.140095    40.114107 
98128000    271.09901    307.02681    272.76461   -28.053542    25.647823    34.262198    40.113853 
98132000    268.57438    294.21838    297.80727   -27.054785    25.839274   -3.5888962    40.113708 
98136000    265.18659    305.63178    273.80227   -27.843022    27.265643    31.829507    40.115889 
98140000    280.78687    337.88253    280.86572     -30.3166    26.400188     57.01681    40.116119 
98144000    264.55164    297.77778    275.00637   -27.713218    26.384011    22.771413    40.114912 
98148000     271.9415      322.942    274.72757   -28.745932    25.899374    48.214425     40.11547 
98152000    271.91009    308.89488    298.62872   -28.104868    25.440721    10.266156    40.116542 
98156000    273.30926    312.11098    278.26091   -27.752139    26.747436     33.85007    40.116265 
98160000    270.21301    320.01907    275.52685   -28.873252    27.550592    44.492223    40.116293 
98164000    271.17288    329.86605    266.89186   -28.773024     28.16463    62.974191    40.116461 
98168000    265.96324    304.29996    271.14559   -28.245615    27.266245    33.154362    40.116791 
98172000    281.14773    341.63055      291.544   -29.199462    26.384276    50.086542    40.117124 
98176000    270.10985     338.7232    265.52599   -30.750714    26.955823    73.197206    40.117896 
98180000    278.25719    340.25726    291.89772   -30.487262    25.262479    48.359538    40.117899 
98184000    262.89613    307.70092    268.70635   -29.240049     26.50009    38.994571    40.117251 
98188000    270.33236    316.17438    282.33309   -29.370187    26.162021    33.841295    40.118131 
98192000    266.73126    293.77516    297.50803   -27.964357    25.428795   -3.7328673    40.117324 
98196000    266.58063    310.98768    263.77924   -29.294365    26.351893    47.208441    40.117604 
98200000     274.6035    329.27881    284.87418   -29.693426    25.401529    44.404632    40.118257 
98204000    268.60516    326.14411    263.04058   -29.561134     26.07981    63.103536    40.118006 
98208000    273.51153    318.30094    291.41159   -29.020439    24.825968    26.889355    40.116695 
98212000    269.32504    307.29189     267.5804    -28.20983    26.738826    39.711491    40.116537 
98216000     273.2985    335.97167    296.11132   -29.810355    24.389534    39.860348    40.114239 
98220000      270.072    311.22013     273.8647   -26.852982    25.033897    37.355431    40.114231 
98224000    266.42432    310.58438    262.32908   -28.741846    26.289097    48.255305    40.113809 
98228000    267.09549    312.92463    281.12883   -28.811644     24.82689      31.7958     40.11361 
98232000    272.46611    327.45141    273.70633   -29.417371      25.2231    53.745084    40.114813 
98236000    268.51868    330.94816    267.97751   -29.944356    26.615921    62.970648    40.115511 
98240000     271.0526    332.99303     270.2814   -29.334038    26.700479    62.711624    40.116626 
98244000     276.6068    322.41473     301.4021   -28.348205    24.279143    21.012631     40.11621 
98248000    264.64842    302.79185    283.75554   -27.196925     25.88482    19.036309    40.117345 
98252000    274.68609    326.82042    292.10251   -28.305021    25.951089    34.717914    40.115918 
98256000    267.32456    301.16868    288.32247   -27.924935    26.435417    12.846216    40.114984 
98260000    273.53404    331.61858     272.9153   -30.038307    26.040395    58.703277    40.116038 
98264000    277.21597    323.57935    298.79103   -28.910329    26.048552    24.788321     40.11654 
98268000    264.11831    310.74944    287.63913    -27.56993    25.307349    23.110313    40.117229 
98272000    270.83099    302.75158    286.14962   -27.570818    25.966802    16.601963    40.117345 
98276000    267.76105     331.6307    271.68267   -28.454877    27.478724    59.948027    40.116536 
98280000    271.89438    324.27288    279.73809   -28.252058    27.193484    44.534783    40.116956 
98284000    273.14679    343.85244    277.13527   -28.544084    26.320855    66.717174    40.116517 
98288000    270.64938    323.03542    277.60275    -28.59275    26.319071    45.432671    40.117714 
98292000    261.76809    318.00398     268.1267   -28.341795     26.75234    49.877283    40.116966 
98296000    264.64681    318.06836    269.32406   -28.701652    27.536257    48.744297    40.116181 
98300000    268.71978    310.92127    277.73542   -28.940735    27.090711    33.185844    40.114913 
98304000    270.23428    307.09818    290.31253   -29.152475    25.717323    16.785652    40.115729 
98308000    260.71315     283.2024    280.65919   -27.987868     27.10445    2.5432101    40.116868 
98312000     274.5219    324.10921    294.27135   -30.091622     26.96836    29.837866    40.115401 
98316000    274.62645    330.17236     285.7408   -30.319001    27.943841    44.431564    40.116254 
98320000    271.18939    292.69996    289.71691   -27.968372    26.984712    2.9830515    40.117029 
98324000     268.5418    304.58285     288.2668   -29.461617    26.923316    16.316051    40.117657 
98328000    271.25477    331.50359    278.26027   -30.527295    26.374946    53.243319    40.118225 
98332000    281.31441    324.74289     305.5159    -31.81183    25.301039     19.22699    40.119663 
98336000    275.89739     315.6861    292.33702   -29.888759    26.488493    23.349081     40.11863 
98340000    273.19627    326.95406    288.95887   -30.485199     25.86568    37.995188    40.118155 
98344000    265.62536    304.90362    270.70291   -29.890137    26.879187    34.200712      40.1166 
98348000    266.79322    315.62759    268.12082   -28.759148     26.96148    47.506763    40.116757 
98352000    278.62037    328.54104    294.92899   -29.385318    26.356399    33.612048    40.115381 
98356000    267.25198    281.02858    306.36744   -28.139438     26.09027    -25.33886    40.115302 
98360000    272.92873    314.63526    272.60137   -29.137042    28.061116    42.033889    40.115644 
98364000    277.42681    328.83453    291.80509   -29.976493    26.543608    37.029434    40.115588 
98368000    267.43069    322.13168    262.44426   -29.148656    28.097461    59.687419     40.11466 
98372000    277.29996    323.43822    304.17867   -28.889671    25.416188     19.25955    40.113782 
98376000     268.1008    318.67436    269.71804   -29.808618    28.001227    48.956315    40.114755 
98380000    287.45363    335.03444    295.99053   -30.526635    25.543151    39.043915    40.115287 
98384000     267.9041    301.52985    276.27611   -27.956016    28.038759    25.253738    40.114095 
98388000    273.66888    324.52431    277.25967   -29.712843    26.838871    47.264639     40.11344 
98392000    261.91784    323.71766    265.43227   -29.817216    27.748984    58.285392     40.11223 
98396000    270.02015    316.85355     281.9224   -29.199476    26.330065    34.931148    40.112713 
98400000    267.12558    334.15789    251.26975   -31.389084    28.435822    82.888141    40.114277 
98404000    276.09967    343.73831    273.92499   -31.139414    27.825621    69.813321     40.11379 
98408000     269.8262     316.6254    275.71027   -29.238492    26.632184    40.915129    40.113144 
98412000    271.74625    321.56001    277.44609   -29.835456    26.355823    44.113921    40.111594 
98416000    264.79777    309.99498    277.27386   -29.024901    26.061662    32.721112    40.111856 
98420000    277.91616    342.97253    268.36546   -29.952195    27.476446    74.607065    40.113041 
98424000    269.50836    333.53588    282.68677   -30.334671    27.250299    50.849106    40.112053 
98428000    266.89368    310.56168    277.43027   -28.454394    26.530647    33.131411    40.112646 
98432000    260.56978    307.02052    266.61209   -27.599682    27.193426    40.408432    40.111298 
98436000    267.51332    353.65205    268.21078   -30.515367    26.510665    85.441268    40.111723 
98440000    267.45157    301.25166    288.03896   -28.285635     26.10044    13.212696    40.110899 
98444000    271.39348    340.93413    269.01175   -29.944235    27.526239    71.922377    40.111127 
98448000    270.81655    318.30893     268.5061   -30.964354    26.625201    49.802828    40.111235 
98452000    272.85219    320.03142    271.06492   -29.270231    26.072524    48.966505    40.111127 
98456000    268.76303    310.43613    286.58451   -29.322767    24.865273    23.851619    40.110521 
98460000    264.38311    306.17365    269.77172   -29.094501    27.679423    36.401935    40.109893 
98464000    264.80532    307.35876     264.2077   -30.291764    27.659749    43.151059    40.110438 
98468000    274.07257    325.50055    283.82561    -29.28592    26.407092    41.674932    40.110415 
98472000    271.54171    329.85194    268.00296   -30.459637    26.598038    61.848975    40.109885 
98476000    266.65887     294.9413    269.89681   -28.885727    26.051327    25.044484    40.109992 
98480000    273.38174    304.21173    281.32502   -29.649823    26.842624    22.886704    40.109172 
98484000    281.61125     335.0463    312.62495   -31.711182    25.223793    22.421348    40.109526 
98488000    267.64404    313.99412    274.88329   -28.511499    27.570676    39.110824    40.107437 
98492000    277.21187    343.73269    267.03281   -30.840096    27.458928    76.699875    40.107237 
98496000    270.91822    307.05297    285.70876   -28.495137    27.038801    21.344204    40.107134 
98500000    269.89857    323.31375    287.57186   -29.999867    25.445567    35.741888    40.107488 
98504000    277.03773     332.6336    272.04938   -29.883816    27.526174    60.584221    40.107463 
98508000    273.85696    326.24437    280.88913   -30.286854    26.790848    45.355242    40.107091 
98512000    274.20502    314.32391    291.68046   -30.167601    26.764306    22.643441    40.106949 
98516000    276.50699       321.37    266.29748   -30.032398    27.884578    55.072529    40.107182 
98520000     277.7462    339.90896    282.11258   -31.108489    28.109942    57.796385    40.107018 
98524000    270.41731     317.4291    289.79949   -31.110486    27.054645    27.629606    40.106844 
98528000    274.00313     326.8066    275.39231   -29.925724    27.393124    51.414283     40.10752 
98532000    268.11647    340.65338    271.85197   -32.109899    27.459473    68.801403    40.107306 
98536000    263.14909    292.83743    276.65744   -27.850199    27.298927    16.179992    40.106637 
98540000    271.54749    321.42642     270.8072   -30.269127    28.142671    50.619217    40.105862 
98544000    274.15965    310.80381    276.75247   -30.126951    26.976945    34.051339    40.104407 
98548000    267.33797    328.79831    266.10914   -30.189548    27.564823    62.689176    40.105655 
98552000    275.39095    330.02602    292.81526   -31.432888    27.609275    37.210763    40.105276 
98556000    268.81931    309.88374    267.93469   -30.298644    28.241791    41.949049    40.105235 
98560000    267.76238    315.16051     272.6528   -29.111551    27.144864    42.507702    40.105423 
98564000    269.49182     328.5734    281.23563   -29.055057    26.896016    47.337775    40.105803 
98568000    266.66855    312.69589     265.7302   -28.413981     26.40896     46.96569     40.10582 
98572000    273.56141    305.04429    304.10522   -29.048108    25.225399   0.93906761    40.104314 
98576000    267.41408    317.05744    269.22041   -28.717608     26.49118    47.837031     40.10481 
98580000    267.61387    323.89082    276.14515   -29.479717     26.54098    47.745678    40.104639 
98584000    266.65869    336.31684    268.00925   -30.064799     27.32773    68.307593      40.1042 
98588000    274.98205     329.5194    279.05865   -29.662273    25.746894    50.460748    40.103624 
98592000    271.63965    322.51859    292.71015   -28.492647    25.828756     29.80844    40.104145 
98596000    269.68047    340.59715    280.28492   -29.954695    25.912392    60.312231    40.105268 
98600000    265.78952    319.69311    289.46819   -29.607239    26.466457    30.224916    40.104305 
98604000    267.52129     333.8825    268.61929   -30.111885    27.444033    65.263214    40.105047 
98608000    265.85748    326.33688    260.74133   -28.816424    27.302361    65.595545    40.104706 
98612000    273.47644    320.33051    283.07339    -28.55523    26.034948    37.257116     40.10536 
98616000    266.85088    304.78948    275.32859   -28.274648    26.627201    29.460899    40.106036 
98620000    272.84487     338.2763    283.77462   -29.832362    27.442628    54.501684    40.105966 
98624000    277.29867    326.71429    281.31395   -30.106372    28.080351    45.400338    40.106714 
98628000    280.55412    344.59743    296.51178   -31.040959    27.182693     48.08565    40.107129 
98632000    267.55725    308.95759    290.93518     -27.2316    27.433013    18.022414    40.106187 
98636000    274.46825    340.55062    282.21509   -28.827946    27.645639    58.335537    40.106284 
98640000     277.9222    332.66923    294.69567   -29.041182    25.580294    37.973555    40.104766 
98644000    267.80357    298.11493    272.29063   -27.753452    26.437001      25.8243    40.105808 
98648000     269.6462    299.55556    293.96626   -27.480884    25.100781    5.5892939    40.106185 
98652000    272.21025    327.36718    274.69509    -30.01876    27.203505    52.672093    40.105666 
98656000    272.05732    326.10321     285.0639   -29.509503     27.73566    41.039316    40.106704 
98660000    273.56308    334.20172    285.84635   -29.560901    27.309317    48.355365    40.106258 
98664000    275.38654    322.25053    280.50951    -28.77542    27.106451    41.741023    40.107743 
98668000    267.03167    301.58318    297.81448   -28.070148    27.582758     3.768697     40.10635 
98672000    272.51711    325.69553    282.23149   -29.583989    26.809128    43.464041    40.107541 
98676000    267.83142    323.30736    286.93345   -29.276318    26.941786    36.373912    40.108337 
98680000    262.00133    295.34426    272.37012   -27.883457    27.439545    22.974133    40.108702 
98684000    268.46915    314.03621    289.85246   -28.739576    27.764001    24.183755     40.10888 
98688000    264.75518    309.38469    288.90714   -28.312672    28.034178     20.47755    40.108528 
98692000    275.83412    333.18227    286.63026   -30.779976    27.463892    46.552015    40.108735 
98696000     263.3746    315.88479    278.74249   -28.586405    29.108458    37.142308    40.109042 
98700000    272.34317    343.06783    278.96278   -31.376149    27.477584    64.105054    40.108764 
98704000    285.90713     337.8297     307.0625    -31.34005     26.90259    30.767202     40.10845 
98708000    279.54024     335.6316    297.67517   -29.885291    26.378865    37.956435    40.108983 
98712000    269.45727    307.19369    287.27339   -29.559423    26.476704    19.920303     40.10887 
98716000    261.05036    290.74586    257.40168   -29.860705    28.169558    33.344172    40.109814 
98720000    260.43502    319.65817    278.73052   -29.295492    28.768148    40.927656    40.109614 
98724000    254.16403    301.62147    256.70198   -28.080781    27.824915    44.919495    40.108909 
98728000    269.59572    338.75092    271.96841   -29.976866     27.38868    66.782508    40.110485 
98732000     266.4486     313.8516     282.3509   -28.748189    27.096375    31.500702    40.110051 
98736000    265.23222    322.30599    282.06436   -30.597871    27.248247    40.241638    40.110144 
98740000    274.58905    311.86863    302.74286   -30.211886    26.332591    9.1257736    40.108578 
98744000    268.97251    306.90177    288.72943   -29.173486    27.807003    18.172341    40.109811 
98748000    262.47191    307.80678    264.14615   -28.777598    29.378167    43.660626    40.109355 
98752000    266.25065    322.85351    262.87112   -30.166924    28.504654    59.982392    40.109452 
98756000    268.92847    318.58387    278.23278   -29.925276    28.312014    40.351091    40.108816 
98760000    267.79687    324.63659    290.39571   -30.352252    27.148608    34.240882    40.107987 
98764000    266.61216     315.6276    293.23697   -30.512885     27.91889    22.390633    40.108882 
98768000    271.90555    341.48948    276.52124   -31.791908     27.85692    64.968243    40.108285 
98772000    270.21597    317.53415    291.60792   -31.086749    27.560375    25.926226    40.107907 
98776000    271.41835    320.20488    279.08076   -30.133362    27.673829    41.124124     40.10861 
98780000    269.75381    303.64005    280.37328   -29.736316    28.894872    23.266763     40.10816 
98784000    270.15242    338.76024    272.17343   -32.375529    29.282341    66.586809    40.108305 
98788000    273.62907    340.12124    275.98379   -31.905591    29.364529    64.137447     40.10805 
98792000    270.39489    315.50023    276.71193   -30.371082    28.060203    38.788299     40.10945 
98796000    267.30414    309.72748    289.14104   -29.245042    27.530365    20.586439    40.110224 
98800000    264.48491    314.78513    254.07719   -30.567601    29.389155    60.707943     40.11071 
98804000    282.65947    342.33258    294.54446    -30.59105    27.808079    47.788121     40.11088 
98808000    266.70996    300.20765    281.44759   -29.747089    27.468246    18.760056    40.111033 
98812000    270.95269    305.67069    298.95408   -29.860012    26.916121    6.7166102    40.111678 
98816000    266.27329    302.51219    283.00558   -29.515307    28.181305    19.506611    40.112369 
98820000    267.96674    304.96065    284.79054   -30.451764    27.739886    20.170112    40.112356 
98824000    267.41087    315.95816    273.01332   -30.300963    27.874659    42.944837    40.112632 
98828000     272.2702    307.71821    306.74179   -30.624223     28.20322   0.97642102    40.112076 
98832000    271.41478    320.65756    276.34697   -30.720145    28.351352    44.310595    40.112802 
98836000    276.69661    330.68025    295.80699   -30.465388    27.907726    34.873269    40.113277 
98840000    264.41888    315.07225    269.96745   -30.539047    28.547788    45.104797    40.114749 
98844000    269.25437    308.22653    273.84452   -30.353341    28.695474    34.382015    40.114127 
98848000    271.40686     338.6006    289.69978   -31.262023    27.311533    48.900822    40.113962 
98852000    270.03023    331.65476    272.54413   -31.119294     28.71919    59.110634    40.114707 
98856000    264.80276    314.69704    266.82339   -29.439143    28.839473     47.87365    40.114523 
98860000    274.08776    322.37829    297.72553   -30.858029    28.561146    24.652762    40.114657 
98864000    270.91539    325.58899    282.62426   -30.918215    29.207703    42.964731    40.114502 
98868000    266.23271    316.38654     271.6553   -30.276617    29.307376    44.731237    40.114052 
98872000    271.23289    342.52674    265.31333   -33.492723    28.500698    77.213408    40.114876 
98876000    268.03452    317.92901    269.90178   -31.161261    28.730215    48.027228    40.113579 
98880000    273.03328     342.1405    277.69524   -31.554387    28.022469    64.445267    40.113993 
98884000    271.59865    319.14673    286.90048   -30.574529    27.208302     32.24625     40.11427 
98888000    268.36245    306.55426    286.58765   -30.543602     28.76213    19.966617    40.113229 
98892000    264.06967    288.18343    277.33617   -29.499068    28.333809    10.847262    40.112357 
98896000    278.55936    337.16714    293.19452   -31.988147    28.092613    43.972624    40.112869 
98900000    281.13132     348.2764    277.71627   -33.139103    28.921539    70.560125    40.111355 
98904000    265.59742    313.85343    273.12063   -30.506244    28.308895      40.7328    40.111811 
98908000    265.29984    305.89237    276.07768   -28.630871    27.754825    29.814688    40.113183 
98912000    274.96375    323.59617    288.05486   -30.019037    26.934053    35.541307     40.11355 
98916000     268.1219    340.53555     281.1731    -31.39258    27.723455    59.362446    40.114577 
98920000    274.31219    335.18983     275.9273   -30.652668    28.487154    59.262532    40.113734 
98924000    274.94873    314.67745    297.12538   -29.708188    26.360799     17.55207     40.11553 
98928000    270.14825    332.02501    297.82618   -30.683887    28.014032    34.198826    40.116051 
98932000    260.34808    302.71471    257.95007    -29.91855    31.352003    44.764643    40.115968 
98936000    271.64268    332.91722     287.6341   -31.263399    29.865405    45.283126    40.116035 
98940000    271.41044    333.90253    288.90761   -30.942633    28.428134    44.994913    40.115453 
98944000    267.79847    322.40948    292.41274   -30.287174    28.348677    29.996739    40.117045 
98948000    269.55246    334.61706    276.39911   -30.644008    28.739394    58.217954    40.115646 
98952000    276.27143    324.94777    293.88537   -31.956049    28.003358    31.062396    40.115885 
98956000    276.03504    345.92505    289.94922   -31.796826    28.110024    55.975831    40.115052 
98960000    275.08202     333.7067    280.20349   -32.958071    29.725086    53.503214    40.115645 
98964000    262.63034    309.29496    287.31911   -29.835622    28.697791    21.975852     40.11705 
98968000    278.06897    343.44827    290.98171   -31.820561    29.250287    52.466562    40.116698 
98972000    279.25997    327.89704    302.51889   -31.669464    27.251033    25.378157    40.117422 
98976000    276.77304        327.9    293.92978   -32.852818    28.882814    33.970216    40.117775 
98980000    271.80594    331.42436    277.49387   -31.498329    30.008259    53.930494    40.118759 
98984000    266.23159    342.62665    278.68295   -32.197392     28.97054      63.9437    40.120055 
98988000    271.76092    323.96396    282.70601   -32.237378    28.611757    41.257948    40.120461 
98992000    264.27428    298.16215    278.04807   -29.818031    30.505783    20.114081     40.12015 
98996000    269.36002     324.9958    276.94062   -30.808954    30.505922    48.055175    40.119623 
99000000    266.30898    294.36271    287.15528   -31.162022    29.889791    7.2074301    40.119341 
99004000    276.17449    322.06825    303.84369   -31.327011    27.319368    18.224555    40.117716 
99008000    277.17226    343.07763     297.6765   -32.224208    28.574085    45.401126    40.118619 
99012000    272.79863    325.90715    278.25999   -31.947201    30.185115    47.647152    40.117528 
99016000    267.02663    322.61388    284.67156   -31.139133    29.211467    37.942312    40.116949 
99020000    266.96612    310.78653    279.50171   -30.483755    28.669126     31.28482    40.117935 
99024000     276.1119    320.83719    301.46512   -31.177229    27.316954    19.372068    40.118295 
99028000    274.91328    334.93866    294.08594   -32.058359    27.434978    40.852719    40.119881 
99032000    269.58362    319.41308    283.95207   -31.720816    29.135819    35.461012    40.119961 
99036000    264.08275    308.58473    273.89132   -30.236353    30.086023    34.693405    40.119945 
99040000    270.32039    305.32749      290.371   -29.930147    28.968733    14.956487    40.119995 
99044000    274.69287    352.30164    269.71313   -31.148871    29.929342    82.588509    40.120172 
99048000     286.7271    349.45266    299.11786   -31.504564    28.157414    50.334805    40.119193 
99052000    278.17324    341.17713    299.36367     -31.6455    27.817759    41.813456    40.118984 
99056000    267.40886    322.28633    270.69012   -31.530983    30.159216    51.596205    40.120503 
99060000    269.61667     314.9819    281.85532   -31.227784    28.603241    33.126584    40.120212 
99064000    265.88709    317.28519    281.82759   -31.556226    29.240954    35.457596    40.121109 
99068000    271.87512    346.53377    283.33682   -33.439011    29.969202    63.196951    40.121426 
99072000    272.39242    329.48045    289.07876   -31.939819    28.694908    40.401686    40.121982 
99076000    272.50571    351.93637    268.44653   -33.074825    30.244045    83.489841    40.121848 
99080000    260.92191    311.72843    249.84353   -31.313683     31.47832    61.884895    40.121681 
99084000    270.85126    323.62055    277.00546   -31.294019    29.861537    46.615084    40.122402 
99088000    267.77173     315.5762     284.4458   -31.833458     29.29463    31.130397    40.122167 
99092000    267.49715    337.26227    269.99414   -32.486597    29.325936    67.268132    40.122491 
99096000    259.81477    301.76185      280.623   -29.780235    28.944939    21.138843    40.121395 
99100000    273.02047    314.04853    302.89232   -31.127745    28.228189    11.156215    40.120718 
99104000    267.71693    320.58916    270.66489   -32.025547    29.554019    49.924273    40.121124 
99108000    280.23085    354.91639    283.01563   -32.234516    31.052252    71.900756    40.122585 
99112000    267.84567    309.22141    281.02384   -32.084861    29.867018    28.197563    40.122954 
99116000    273.08618    323.80206    278.63148    -32.72265    29.628665    45.170582    40.123719 
99120000    259.61877    284.71674     277.4727   -30.352586    29.818427    7.2440403    40.124686 
99124000    271.14352    313.36321     289.7193   -30.447994    29.503886    23.643908    40.124095 
99128000    262.13077    325.31548    254.26377   -31.976998    30.634157    71.051708    40.124485 
99132000    264.10567    319.79662    266.78041   -31.785398    29.182723    53.016212    40.124425 
99136000    267.85719    333.75382    276.39819   -32.344673    28.680505    57.355629     40.12536 
99140000    269.71923    311.39278    288.54909   -31.630676    29.092148    22.843694    40.124952 
99144000    275.59531    335.48709    278.72716   -32.668831     29.10647    56.759936     40.12608 
99148000    281.33672    349.96788    300.29143   -33.286505    28.346221    49.676451    40.126401 
99152000    280.26744     339.1529    274.09287   -32.186643    28.769564    65.060033    40.126315 
99156000    261.92845    304.46375    248.19714   -30.949924    30.212537    56.266603    40.127174 
99160000    270.53634    312.45857    283.27119   -30.607764    27.683795    29.187386    40.125939 
99164000    272.29636    335.41565    289.71033   -32.257442    26.644093     45.70532    40.125861 
99168000    265.54142    312.97492    255.39276   -31.097713    29.202267    57.582154    40.125466 
99172000     277.3644    331.35865    284.90763   -32.030093    28.689204    46.451017    40.125636 
99176000    277.35342    329.52944    273.25155   -32.381001    29.577984    56.277891    40.126032 
99180000    269.46917    309.31765    269.00528   -30.857816    29.659917    40.312372    40.124072 
99184000    272.59301    340.55204    265.56965   -32.207018    29.232271    74.982389    40.124979 
99188000      272.798    326.91962    268.67045    -31.83799    27.926825    58.249171    40.124964 
99192000    267.22354    324.24765    267.91605   -32.746752    29.293996    56.331602    40.126081 
99196000    279.87259    334.00954    288.24143   -33.563673    27.959169     45.76811    40.126282 
99200000    277.32512    324.15164    272.35328   -32.744749    28.787615    51.798356    40.126166 
99204000    265.01032    303.56326     267.3917   -30.442956    28.110655     36.17156    40.125845 
99208000    276.01217    341.14757    259.16584   -32.521024    29.495226    81.981735     40.12567 
99212000     278.8052    319.79346    298.32781    -32.42725    27.068292    21.465655    40.126037 
99216000    272.96111    315.44439    281.00613   -31.728633    28.172835    34.438268    40.127183 
99220000    279.39607    333.77227    295.80141   -32.441915    27.952745     37.97086    40.125918 
99224000    279.22731    329.48748    285.08198   -32.321388     27.19936    44.405503    40.126191 
99228000    271.17593    323.71321    276.75429   -32.564055    27.784772    46.958918    40.127277 
99232000    277.70095     313.5756     293.7022   -31.382274    27.846903    19.873393    40.126788 
99236000    273.73322    350.72665    266.43222   -34.669482    29.266692    84.294425    40.127504 
99240000    267.72026     306.3473    268.64472   -31.217138    28.926259     37.70258    40.128362 
99244000    272.29846    315.87089    273.84545    -31.42411    28.663624    42.025443    40.128437 
99248000    275.07175    329.74204    275.60515   -32.766579    28.328207    54.136886    40.127809 
99252000    272.26444    308.48603    288.61352   -31.625802    29.112682    19.872512    40.127338 
99256000    274.79712    329.82761    266.53797   -31.686209    29.421894    63.289646    40.127397 
99260000    274.91345    332.93221     275.6664   -33.026956    28.707617    57.265811    40.128605 
99264000    275.65442    320.74528    292.20311   -33.094092    28.897972    28.542178    40.128458 
99268000    264.49137     303.3613    280.95899   -31.812553    28.299074    22.402312    40.127868 
99272000    262.57998     308.1799    272.61977   -31.198068    29.014954    35.560132    40.128183 
99276000    256.33839     302.9871    257.09427   -32.170729    29.578696    45.892831    40.128012 
99280000    270.10099    291.50804     298.0696   -31.305601    28.755124   -6.5615659    40.127492 
99284000    278.70222    318.29539    304.42141   -31.599963     27.66489    13.873983    40.127279 
99288000    277.89079    325.33786    295.63842   -31.950038    28.848038     29.69944    40.126113 
99292000    279.83952    353.01574    280.68005   -32.558593    29.795546    72.335699    40.126892 
99296000    267.65947    317.12681    282.23683   -30.696758    28.927875    34.889978    40.127985 
99300000    273.67655    317.58729     304.9031   -30.687666    27.340476    12.684183    40.127679 
99304000    266.23991    334.34976    276.05463   -31.264992    29.676023    58.295126    40.128042 
99308000    265.20081    316.39167    283.10016   -30.619132    30.129007    33.291508    40.127331 
99312000    257.87636    311.35609    256.79318   -31.312947    30.156142    54.562912    40.128111 
99316000    268.76982    327.84774    279.68227   -32.044864    29.945724    48.165471    40.127584 
99320000    271.45196    333.30941    281.85023    -32.62478    29.047832    51.459184    40.128562 
99324000    269.87882    304.80536    289.67884   -31.447817    29.779779     15.12652    40.128504 
99328000    266.97977    322.55725     253.5136   -31.888117    29.890315    69.043645    40.128762 
99332000     268.9769    341.59754    275.06075   -31.401695    29.880977    66.536782    40.128693 
99336000    260.40037    309.69068    277.44115   -30.889629    29.849552    32.249525    40.129254 
99340000    268.60717    308.22414    295.96006   -30.762662      28.7222    12.264084    40.129433 
99344000    260.85102    306.86366     271.2363   -29.933815    29.584401    35.627364    40.129507 
99348000    275.20405    340.04783      290.549   -31.467074    28.852263    49.498826    40.129556 
99352000    275.23093    344.23172    283.47245   -32.390733    28.322633    60.759269    40.128388 
99356000    270.83647    303.16478    291.80517   -31.211487    29.245283    11.359615    40.129372 
99360000    274.87347    344.17024    278.10107   -32.815523    30.266523    66.069166    40.129785 
99364000    264.83466    317.20099    273.48263   -31.229174    30.491287    43.718356    40.130349 
99368000    262.17924    317.12821    263.20346   -31.385293    31.567504    53.924755    40.131341 
99372000    260.58688    324.45118    268.72796   -31.811484    31.369969    55.723221    40.132724 
99376000    271.07928    332.31074    283.97417   -30.929501    30.577735    48.336567    40.131628 
99380000    271.14725    334.86458      281.933   -31.485999    29.834453    52.931585    40.130605 
99384000     268.5444    324.31163    281.95009   -30.613823    29.631098    42.361538    40.129468 
99388000    258.98432    309.89705    262.62708   -31.172158    30.625069    47.269962    40.130168 
99392000    262.12985    319.75614    278.48071    -31.00254    30.205918    41.275423    40.129433 
99396000    266.50964    323.53991    294.90399   -31.722077    30.496615    28.635918    40.129042 
99400000    269.07143    330.33505    294.03538   -32.239723    30.230951    36.299676    40.127534 
99404000    266.77854     312.6528    267.61759   -30.235951    30.617945    45.035208    40.127578 
99408000    264.44428    315.78351    281.07783   -31.309778    30.832767    34.705674    40.128424 
99412000    265.24866    304.37977    266.55203   -30.011565    30.495953    37.827747    40.128565 
99416000     273.8903    328.00344    289.22138   -31.876032    29.313502    38.782057     40.12883 
99420000    277.27684    341.74128    279.69253   -32.274945    29.824568    62.048752    40.128016 
99424000    264.78613    335.99436    256.34303    -32.42832    30.674627    79.651328    40.127964 
99428000    277.15459    330.11817    296.50039   -31.287771    28.668794    33.617777    40.128275 
99432000    266.37066    329.76759    249.57496   -31.608942    30.160389    80.192624    40.128257 
99436000    250.18478    285.37364    261.55867   -30.428652    30.546461    23.814969    40.127898 
99440000    269.80835    313.45949    271.73591   -31.625662     29.79989    41.723577    40.127806 
99444000    272.91331    321.49457    293.55806   -31.737686    27.929886    27.936513    40.127194 
99448000    270.41989     344.0796    259.29997    -31.37085    29.588409    84.779627    40.127461 
99452000    266.03996    311.35876    275.83366   -29.580903    28.632394    35.525099    40.126821 
99456000     275.3636    333.88038      276.686   -30.433378    29.310075    57.194376    40.127188 
99460000    269.97701    332.60964    262.20332   -30.172223    30.214143    70.406327    40.126008 
99464000    273.62817      333.709    307.00222   -32.272655    28.215064    26.706775    40.127643 
99468000    271.89696    335.63964    281.98476   -31.687617    27.833032    53.654883    40.129157 
99472000     263.6817    305.55887    265.09213   -29.783257    29.838598    40.466742    40.129281 
99476000    280.30525    323.39104    309.92294   -30.919147    27.129017    13.468109    40.128415 
99480000    264.51692    303.30404    285.26326   -29.694261    29.181516     18.04078    40.127744 
99484000     268.0981    311.64453    280.21269   -31.259236    28.708312    31.431838    40.128436 
99488000     275.4642    320.85801    309.04375   -31.496832    27.650342    11.814253    40.129145 
99492000    270.83614    326.27994    260.73766   -31.972312      30.0984    65.542288    40.129788 
99496000    266.33506     304.8952    286.64545   -30.518398    28.720607    18.249743    40.129202 
99500000     265.6444    305.28084    286.99608   -29.758355    29.393921    18.284759    40.130429 
99504000     270.4139     319.2777    281.63044   -31.001052    29.679236    37.647262    40.130045 
99508000    273.56429    333.81789    299.15984    -30.60006    29.323219    34.658044    40.128927 
99512000    264.35543    321.29541    274.43028   -29.619726    30.003851    46.865126    40.128876 
99516000    263.84918    318.29861    271.62184   -29.521276     30.28228    46.676777    40.129435 
99520000    276.33932    349.61646    285.94384   -31.148563    28.374811    63.672614    40.129465 
99524000    268.57957    310.08851    290.75293   -31.191416    28.854822    19.335571    40.129197 
99528000    275.46237    328.88382    290.19241   -31.340155    29.211739    38.691402    40.130521 
99532000    267.91714    313.14407    274.08005   -30.871338     30.07426     39.06402    40.131744 
99536000    258.17704     303.4709    266.12261   -29.337122    31.160233    37.348285    40.131129 
99540000    272.54718    310.05669    289.94932   -29.777759    28.735962    20.107361     40.13177 
99544000    271.28789    336.66623     267.7511   -32.117001    29.163893    68.915124    40.132117 
99548000    267.31601    311.76188     286.6945   -30.193241    28.967464    25.067372     40.13266 
99552000    271.30336    333.42878    268.65651   -31.272271    29.698795     64.77227    40.131165 
99556000    264.22123    322.13819    268.92875   -31.087482    29.863595    53.209441    40.130906 
99560000    265.03527    319.44062    280.81683   -29.613278    29.412162    38.623786    40.129619 
99564000    270.45131    327.56246    291.55018   -31.403152    29.051656    36.012274    40.129173 
99568000    268.16381      309.061    302.44121   -30.239045    28.395911    6.6197903    40.128771 
99572000    272.43418    327.70885    284.96007   -31.757025    28.766288    42.748772     40.13008 
99576000    272.20116     314.4515    291.16636   -30.601507     27.34581    23.285137    40.130482 
99580000    277.05727    343.30712    281.93482   -32.156365    28.825419      61.3723    40.132079 
99584000    262.45909    296.26621    268.74601   -29.835257    29.448183    27.520201    40.132319 
99588000    272.63665     321.0096    280.45855   -32.193999    28.340633    40.551055     40.13237 
99592000     278.3549    330.17512    286.40461   -32.346829     28.88269    43.770511    40.131881 
99596000    272.65881    308.98351    293.04006   -31.156322    28.209385    15.943447    40.130991 
99600000    270.64068    298.57677    292.39933   -30.326112    28.123963    6.1774348    40.131284 
99604000    272.40919     303.6057    290.94091   -31.177567    26.442612    12.664791    40.132258 
99608000    277.35171    329.20545    297.11113   -31.785442    27.455367     32.09432    40.131249 
99612000    270.29073    317.38865    279.07362   -31.803639    28.036833    38.315034     40.13204 
99616000    267.78612       307.26     277.3501   -30.224015     28.89991    29.909904    40.132948 
99620000    266.80282    315.05952    257.60214   -31.410673    29.054209    57.457375    40.131768 
99624000    265.35027    304.15645    279.95029   -29.979873    28.494366    24.206157      40.1309 
99628000    276.79568    321.13124    276.47135   -29.526131    29.031042    44.659895    40.130086 
99632000    270.71107     303.7177    287.38168   -30.918522    28.351028    16.336022    40.130416 
99636000    277.86592    344.27896    284.43188   -33.225967    28.483784    59.847085    40.130649 
99640000    272.26404    303.19713    283.02017   -31.174235    29.121154    20.176966    40.130385 
99644000    270.14305    317.72693    276.80874   -31.447383    29.202141    40.918183    40.129386 
99648000    274.84036    335.16232    280.64009   -32.329493    29.250448     54.52223    40.129829 
99652000    268.96733    320.61191    277.20792   -32.009103     29.49345    43.403987    40.129331 
99656000    276.19401    335.02862    296.66584   -32.096195    28.527938    38.362786    40.129551 
99660000    273.43133    325.97996    287.79554   -32.940702    29.268075    38.184418    40.128225 
99664000    268.76385    311.14437    284.14867   -31.603777    28.264595    26.995694    40.127378 
99668000    270.37594    324.71623     269.0884   -32.440558     29.41421    55.627824    40.127525 
99672000    274.83893    325.35613    285.47338   -31.874025    27.229873     39.88275    40.128854 
99676000    258.79041    291.69379    281.34258   -31.015879    29.216511     10.35122    40.128237 
99680000    274.91184    325.38004    277.77463    -31.98119    28.813056    47.605415    40.127805 
99684000    267.88709    305.49156    267.54049   -31.894937    29.060598    37.951072    40.127841 
99688000    271.82843    319.78944    289.98631   -30.671708    28.693866    29.803134    40.128992 
99692000    266.43636     304.0585    282.54707   -31.752091    30.104488    21.511429    40.127631 
99696000    269.63069    310.91628    289.94651   -32.081681    29.336068    20.969765    40.128312 
99700000    270.19051    324.10439    278.58721   -32.106875    28.471922    45.517174    40.127764 
99704000    274.35835    327.35316    288.54487   -33.062447    29.601553     38.80829    40.128132 
99708000    274.43103    323.68999     291.1272   -32.610157    29.454117    32.562789    40.126949 
99712000    266.13232    322.89115    283.34555   -32.308755     29.50399    39.545597    40.128087 
99716000    273.43504    321.25999    279.61111   -31.524101    29.727885    41.648879     40.12727 
99720000    272.99781    331.48264    288.07556   -31.540155    27.849601    43.407089    40.126631 
99724000     275.1477    316.63693    293.45083   -31.781694    29.856983    23.186095    40.126198 
99728000     268.9247    313.73822    299.36326   -31.586804    28.654232    14.374961    40.124944 
99732000     271.4612    335.02112    278.25391   -31.184518    29.766653    56.767206    40.124106 
99736000    266.41147    316.88487    265.35873   -31.963188    30.013338    51.526143    40.124484 
99740000    262.94535    314.24914    274.50466   -31.058964    30.162909    39.744488    40.125162 
99744000    262.92823    289.48319    289.81429   -30.266943    28.788541  -0.33110012    40.124845 
99748000    267.55885    295.10251    280.83333   -30.433794    30.092098    14.269181     40.12378 
99752000    268.58756      325.435    292.63937   -32.109403    29.367848    32.795622    40.122779 
99756000    261.04902    302.47069    267.01154   -30.916845    30.983508    35.459151    40.123528 
99760000     281.3474    336.61659    277.21909   -32.872872    29.872985    59.397499    40.123139 
99764000    272.38339    323.06727    282.91614   -33.175735    30.642591    40.151132    40.123301 
99768000    269.04037    312.75728    290.29578   -31.057086    30.393584    22.461493    40.122001 
99772000    270.31298      297.456    278.94682   -31.825513    31.127616    18.509178    40.121851 
99776000    269.84794    307.41646    284.00238   -32.121035    30.390739    23.414082    40.123022 
99780000    273.81646    312.94111    304.16057   -33.014589    29.679357    8.7805361      40.1219 
99784000    270.34796    319.16477    295.42698    -32.28891    30.384883     23.73779    40.122124 
99788000    270.43112    327.86282    280.11474   -31.992144    29.599682    47.748076    40.121187 
99792000    267.47326    314.88021    279.37819   -31.667638    29.324118     35.50202    40.121602 
99796000    275.41554    308.50691       286.65   -31.042115    28.083504    21.856914    40.121239 
99800000    270.69099    324.72264    279.14222   -33.673068    29.995593     45.58042    40.120264 
99804000    279.68121    310.09406    295.12034   -31.683632     28.48842    14.973723    40.121347 
99808000    274.84883    329.72314    282.43433   -33.547299    29.326075     47.28881    40.120774 
99812000    287.24149    345.45878    283.77396   -33.406084     28.80568    61.684819    40.120227 
99816000    265.12972    312.15006    274.38116   -31.654836     29.19439      37.7689    40.120952 
99820000    277.77006    329.54516    296.31224   -31.057847    28.747705    33.232919    40.120963 
99824000    266.90405    303.20647    298.13049   -31.178498    30.474266    5.0759851    40.120526 
99828000    273.37959    334.38864    290.94952   -33.037984     28.39053    43.439123    40.120116 
99832000    263.46081    310.41528     269.2775   -31.700004    30.070301    41.137779    40.119746 
99836000    262.65096    300.52782    274.21197   -30.582554    29.379658     26.31585    40.118772 
99840000    266.73002    321.87711     264.1872    -31.14003    30.127493    57.689912    40.118885 
99844000    267.71468    308.52585    281.61014   -30.342169    29.066237    26.915705    40.117111 
99848000    266.91198    315.58121    290.44935   -31.024737    28.175763    25.131854    40.116328 
99852000    280.80674    343.78127    300.57872   -33.411664    29.141258    43.202545    40.115861 
99856000    272.95149    321.59013    283.20858   -31.165403    29.529004    38.381554    40.115912 
99860000    268.01664    310.35395    282.19983   -31.678308     29.43495    28.154121    40.115717 
99864000     261.8671    308.21304    257.51553   -32.005091    30.494668    50.697512    40.115827 
99868000    278.33685    356.79447     270.4836   -33.870797    30.900845    86.310865    40.115974 
99872000    278.76148    347.14408    273.07344   -33.294128     29.55006    74.070639    40.116303 
99876000    270.83711    331.98259    270.58401   -32.547849    29.837012    61.398571    40.115754 
99880000    279.16795    333.57769    277.45099   -33.318317    29.207309    56.126695     40.11589 
99884000    268.83591    340.23117    253.50265   -33.744545    30.580239     86.72852    40.115277 
99888000    275.52505    346.56189    282.92236   -33.860329    28.597043     63.63953    40.115267 
99892000    286.49523    334.85715    305.51666   -32.674402    28.083234    29.340495    40.114162 
99896000    270.99196    306.90534    271.87592   -31.279265    29.538105    35.029418     40.11484 
99900000    267.61261    302.69623    292.53582   -30.685719    29.952904     10.16041    40.113845 
99904000    277.04464    326.68946    297.13802   -31.297444    29.772484    29.551439    40.114628 
99908000    273.90838    351.65701    284.13032   -34.118872    30.879636    67.526683    40.116204 
99912000    280.02447    331.30587    313.80285   -33.113098     29.08339    17.503025    40.115176 
99916000    269.48093    333.65777    285.79298   -32.907915    29.480191    47.864784    40.114701 
99920000     265.2121    321.87166    272.53563   -31.416267     30.55945    49.336029    40.113362 
99924000    268.32774    324.74218    273.92811   -32.112317    30.173175    50.814074    40.113224 
99928000    269.77377    319.21409     280.9528   -31.930214    30.097451    38.261285     40.11236 
99932000    269.72865    315.20026    280.80674   -31.669546    29.386964     34.39352    40.112269 
99936000    262.16659    305.25499    271.01339   -31.516618    30.560277    34.241598    40.111223 
99940000    268.67128     311.8802    264.27617   -32.298106    30.742504    47.604026    40.110762 
99944000    267.50149    306.48034    286.48943   -30.662963    30.361135    19.990905    40.111774 
99948000    266.90436     300.5958    288.27349   -31.610706    29.003617    12.322303     40.11126 
99952000    268.34874    317.37775    283.31629   -33.234109    29.809142    34.061465    40.111368 
99956000    262.80474    318.54785    266.74164   -32.592419    31.773696    51.806203    40.111026 
99960000    260.92659    314.88799    257.50216   -32.379931    32.145744    57.385826    40.111381 
99964000    267.35117    310.78809    281.29913   -31.838755    31.390071    29.488958    40.109894 
99968000    268.97766    324.86974    280.30085   -32.453382    29.955001    44.568888    40.109916 
99972000    268.86514     310.3711    277.26923   -31.899293    29.700462    33.101872     40.10936 
99976000    273.82955     316.0256      286.386   -32.469701    29.088814    29.639602    40.108727 
99980000    274.64563    322.43968    289.52563   -34.290236    29.409594    32.914056    40.109716 
99984000    279.02996    325.34009    288.31008   -32.558423    29.808344    37.030014    40.108197 
99988000     278.9383    328.67242    301.04339   -33.266794    28.686659     27.62903    40.106635 
99992000    273.10431    324.24712      278.086   -32.437879    29.224227    46.161119    40.106555 
99996000    269.93756    308.37461    296.07164   -33.433286    28.338267    12.302967    40.106329 
100000000    275.04631    340.18251    274.16689    -33.68174    29.687363    66.015613    40.106553 
100004000    271.54568     329.7523    282.49903   -34.256001    30.714963    47.253263     40.10636 
100008000    276.15376    339.46093    281.60799   -34.779664    29.662195    57.852941    40.106332 
100012000    273.62548    332.53364    286.18267   -34.571491    30.161684    46.350964    40.105743 
100016000    265.97818    325.56709    261.81039   -33.886839    30.871581    63.756694    40.105959 
100020000    268.41819    312.82449    276.20304   -31.653616    31.004764    36.621451    40.105533 
100024000    275.52416    310.13574    305.12492   -31.992186    29.239934    5.0108265    40.105014 
100028000    261.77893    299.92517    256.98056   -31.614578    31.117553    42.944615    40.104763 
100032000    275.47185     318.4355    300.53503   -31.095625    29.551135    17.900471    40.104607 
100036000    281.67792    340.92054     286.0801   -33.504825    29.505339    54.840439    40.103823 
100040000    268.21654    305.67011    272.81969   -32.926817    30.195317     32.85042    40.104607 
100044000    270.01361    324.73839    277.34918   -32.586999     30.54178    47.389212    40.103734 
100048000    269.85264    324.09296    266.31774   -33.615685    31.587034    57.775223     40.10388 
100052000    274.12171    314.80786    285.88838   -32.827131    30.605438    28.919476    40.104797 
100056000    274.99806    337.16129    286.42901   -32.583424    31.018686    50.732283    40.105389 
100060000    269.63237     309.5194     284.0895   -32.793125    29.755123    25.429897    40.105769 
100064000    266.31011     306.4989    284.73932   -32.235247    30.454608    21.759581    40.104614 
100068000    274.10382    328.30724    291.06975   -33.743916    29.953003    37.237481    40.105073 
100072000    275.95467    318.77902    289.17393   -35.050096    29.571181    29.605089    40.103144 
100076000    268.21952    312.39556    276.02454   -33.381289    30.572836    36.371023    40.104571 
100080000    279.99791    335.03304    279.49212   -34.257171    30.208963    55.540922    40.103419 
100084000    275.89711    302.71314     295.7326   -32.852329    30.059965    6.9805391    40.101962 
100088000    270.52867    322.29814    274.72178   -32.926217    30.179148    47.576365     40.10199 
100092000     286.5342    349.31195    285.21755   -34.935925     30.17153    64.094405    40.103588 
100096000    281.68974    344.98705    278.48822   -34.387284    29.436783    66.498835    40.103915 
100100000    273.94555    309.80122    271.10896   -33.909506    29.498684    38.692259     40.10322 
100104000     273.2537    300.33365    282.56877   -33.783009    29.798251    17.764883     40.10445 
100108000    273.76275    325.26446    270.98121    -33.76982    30.811014    54.283259    40.105383 
100112000    267.01735    310.64484    252.32138   -34.076166    31.617508    58.323459    40.105083 
100116000     266.0216    315.86292     277.6084   -32.917813    30.350376    38.254513    40.105317 
100120000    268.92302    331.41053    257.88574   -34.819575    31.474418    73.524797    40.105365 
100124000    269.50167    303.02509    273.83002   -32.823694    30.259849    29.195063    40.106059 
100128000    282.11311    330.35794    285.61803   -35.718531    30.101598    44.739911    40.107647 
100132000    268.54453     311.2092    279.84935   -34.845156    30.002519    31.359857    40.108503 
100136000    288.14141    341.44326    307.49216    -36.01461    28.921483    33.951096    40.106578 
100140000    271.03487    319.85029    272.14854   -34.043775     30.18651    47.701748    40.105227 
100144000    282.55947    352.26996    291.59542   -36.186258    30.216499    60.674544    40.105661 
100148000    276.04639    334.20485    281.65571   -35.919126      30.4587    52.549138     40.10612 
100152000    270.92813    310.50458    272.00172   -35.228335    30.997846    38.502854    40.105684 
100156000    281.97053    349.67606    277.28015   -36.613518    31.047814    72.395913    40.104473 
100160000    281.35311      313.309    297.45479   -35.778323    30.531222     15.85421     40.10518 
100164000    275.53265    328.25305    279.01466   -34.901883    30.813481    49.238392    40.105507 
100168000    282.53879    324.41434    282.92926   -35.518477    31.064169    41.485082    40.103828 
100172000    275.16595    311.83271    287.87005   -35.517219    30.067389    23.962661    40.103456 
100176000    276.35644    307.42584    268.48269   -33.420328    31.278206    38.943147    40.103262 
100180000    272.25405    311.62872    280.63446   -33.004911    30.767121    30.994255    40.104037 
100184000    268.65556    299.92501      281.783   -34.066781    31.346234    18.142005    40.104331 
100188000    277.13477    334.73175    281.34538   -36.278309    31.380451    53.386373    40.104927 
100192000    273.79877    316.25192    264.14088   -34.468386    31.422106    52.111039    40.104824 
100196000    276.91251    304.03606    293.88405   -34.578725    30.496513    10.152002    40.103543 
100200000    270.17393    310.24502    276.00198   -33.509719    32.290314    34.243036    40.103308 
100204000    271.39152    306.00941    294.19756   -34.088326    30.654533    11.811847    40.102725 
100208000    270.67301    314.61265    278.12704    -35.18788    32.133069     36.48561    40.103142 
100212000     270.2909    315.66088    289.71862   -33.703011      31.2876    25.942258    40.104368 
100216000    273.21361    325.07346     267.2289   -34.466853    32.232538    57.844562    40.104748 
100220000    277.51854    341.59622    279.99637   -34.555466    32.075527    61.599858    40.105583 
100224000    276.44956    318.41333    301.67254   -33.316175    29.631709     16.74079    40.106241 
100228000    276.56511    331.39473    289.75686   -34.683745    31.290607    41.637872    40.105975 
100232000    276.84121    316.95286    284.69446   -33.751315    31.284031    32.258396     40.10668 
100236000       275.83    310.46159    284.62666   -33.116005     32.29995    25.834923    40.105968 
100240000     278.9655    345.71729    297.94358   -35.400656    31.374474    47.773708    40.106736 
100244000    260.74794    290.93371    263.66746   -32.111369    32.231931    27.266251    40.106568 
100248000    275.93473    325.85763    280.79306   -33.750635    30.989032     45.06457     40.10757 
100252000    270.51285     307.6363     282.1363   -33.276161    31.565352    25.500005    40.108266 
100256000    266.81782    325.29618     272.2061   -33.342288    31.517096    53.090084    40.107797 
100260000    271.11128    320.13863    292.16802   -32.953297    31.068784    27.970613    40.106442 
100264000    272.61195      306.833    290.73983   -32.807363    30.304604    16.093167    40.107395 
100268000    271.12397    338.06536    281.14486   -33.376628    31.328112    56.920501    40.106979 
100272000     265.0609    319.11081    290.62577   -33.250973    30.110293     28.48504    40.106202 
100276000    269.58964    312.98791    279.13177   -33.179193    31.087767    33.856142    40.105114 
100280000    275.87837    329.02759    292.45382   -34.061685    30.494264    36.573767    40.104885 
100284000    270.45898    335.15779     275.7377   -34.203246    30.932075    59.420089     40.10434 
100288000    267.57114    308.63083    287.97336   -32.752122    30.396341    20.657475    40.103565 
100292000    271.24566     329.0606    274.99809   -33.173828    31.212836    54.062504    40.104906 
100296000    273.87884    327.33704    278.11416   -33.279255      31.5899    49.222878    40.104943 
100300000    273.59438    320.09336     284.7537   -34.045172    32.288375    35.339663    40.105081 
100304000    268.58532    316.02533    281.38483   -33.981634    31.182808    34.640501    40.105511 
100308000    264.55479    316.64587    261.45121   -34.374096    31.612304    55.194654     40.10403 
100312000    271.69355     333.2235    270.56048   -36.117206    29.948734    62.663021    40.104109 
100316000    290.39433    354.84887    303.55633   -35.609666     29.31124     51.29254    40.105169 
100320000    274.34148    328.12388    294.86451   -35.195861    30.037841    33.259364    40.106866 
100324000    272.52332    328.68187    270.84016   -34.761436    31.041788    57.841705    40.106406 
100328000    282.74442    337.14287    274.47246   -35.404519    31.462657    62.670412    40.106365 
100332000    269.88141    321.53068    289.38214   -33.875887    30.960188    32.148537    40.106848 
100336000    269.71423    321.76485     266.4901   -34.230189    31.983979    55.274745    40.106527 
100340000    275.66242    312.93248    287.42593   -33.992082    31.260743    25.506546    40.107158 
100344000    267.67712    309.86717    275.35335   -34.990084    31.838438    34.513816    40.106808 
100348000    272.36455    332.27285    281.03486   -33.838063    31.105217    51.237986    40.106863 
100352000     269.1843    330.31829    269.15393   -32.698664    31.693412     61.16436    40.106939 
100356000    285.20146    344.84909    286.83519   -34.239303    30.727134    58.013894    40.106029 
100360000    264.27047     307.6547    266.29848   -32.428595    32.642755    41.356218    40.106145 
100364000    268.88446    306.50068    290.39247   -33.483135    31.454357    16.108209     40.10512 
100368000    278.44184    351.85916    295.38878   -35.873719    31.176799     56.47038    40.104908 
100372000    271.50225    335.64462    268.35472   -34.922214    32.565647    67.289899    40.104458 
100376000    273.02829    329.00768    266.23362   -33.520263    33.356336    62.774055    40.104974 
100380000    273.33592    317.51977    278.78095   -34.167375    31.233109    38.738818    40.104241 
100384000    261.22839    289.27968    284.13174   -31.671072     31.70147    5.1479401    40.104422 
100388000    270.68273    319.98896    287.21335   -34.149842    30.996665    32.775611    40.104607 
100392000     273.3581    290.75179    285.24604   -32.974293    30.556874    5.5057455    40.103827 
100396000    271.78302    315.77466    285.18816   -33.620583    30.303559    30.586495    40.104363 
100400000    262.93391    322.48493    257.33667    -33.74634    32.199762    65.148252    40.104305 
100404000    270.18518    306.09346    285.80042   -33.600597    31.665729    20.293046    40.103788 
100408000    269.17472    310.85084    279.92144   -33.434593    30.647461    30.929398    40.103942 
100412000    266.47044    305.00307    284.23243   -32.373862    31.951732    20.770641     40.10346 
100416000    264.94093     314.4452    261.43843   -33.167859    32.037212    53.006771    40.103186 
100420000    266.31685    333.35857     257.5397   -33.650114    31.700945    75.818875    40.102763 
100424000    265.53389    307.48761     274.5288   -32.691417    31.588918     32.95881     40.10324 
100428000    266.20936      316.029    279.62202   -32.976992    31.880798    36.406979    40.104217 
100432000    264.37351    323.51367    264.46462   -33.249873    32.781964    59.049055    40.103316 
100436000    268.11577    313.86649    291.41346   -32.251135    30.881936    22.453039    40.104162 
100440000    261.15342    315.61154    256.65225   -34.362648    32.309097    58.959294    40.103031 
100444000    272.37095    326.63751    275.09615   -34.626288    32.227841    51.541356    40.102977 
100448000     271.0722    327.84115    290.84524   -34.088823    31.013295    36.995906    40.103477 
100452000    269.16753    313.43841    278.48498   -32.416522    31.977901    34.953435    40.102295 
100456000    278.76251    351.35583    282.58432   -35.125327    31.951363    68.771509     40.10225 
100460000    276.73692    343.76925    291.81418   -34.612983    31.339379    51.955068    40.101628 
100464000    275.14729    350.14518    279.00416   -34.653835    31.632411    71.141026    40.102622 
100468000    267.41557    312.19156    284.32536   -33.532056    31.904589    27.866204      40.1028 
100472000      267.074    321.06332    272.82466   -33.727892    31.558336    48.238667      40.1032 
100476000     263.2768    311.04263    264.33481   -33.444216    32.035329    46.707822    40.102201 
100480000    274.16425    320.12201    283.95293   -33.834295    30.249294    36.169079     40.10124 
100484000    267.12183    295.84443    278.57934   -33.850225    30.470495     17.26509    40.101797 
100488000    274.88886    338.82302    273.19924   -35.223024     31.72482    65.623775    40.100414 
100492000    278.02022    342.06591    281.63439   -35.521099    31.442157    60.431521    40.100614 
100496000    260.17695    298.85255    266.08825    -32.28816    32.670261    32.764298    40.100949 
100500000    279.29884    337.16267    277.55054   -34.262005    32.133563    59.612131    40.101073 
100504000    271.21314    323.06121    285.34932    -33.95453    32.010783    37.711892    40.101583 
100508000    269.19904    322.22128    290.14616   -33.625892    31.169135    32.075128    40.101375 
100512000    263.54815    287.65849    290.91552   -32.346568    30.764618   -3.2570365    40.099021 
100516000    267.99541    312.09321    283.65733   -31.992199    31.187013    28.435888    40.100128 
100520000    269.32502    319.71873    281.36822   -33.087973    30.852381    38.350504    40.100647 
100524000    263.12988    308.16044    261.41159   -33.344302    33.283797    46.748843    40.100083 
100528000    282.53254    336.89356    288.69636   -33.899859    30.607944    48.197207    40.099662 
100532000    282.87992    325.36675    289.37881   -34.729489    30.099894    35.987943    40.099978 
100536000    273.24443    315.50725    277.61888   -34.813234    31.833658    37.888369    40.099409 
100540000    268.94761    290.97092    273.21246    -32.42089    31.933159    17.758459    40.098793 
100544000    270.24007    328.45327     268.2087   -34.057883    31.664434    60.244571    40.098767 
100548000    269.46029    341.14386    266.19395   -35.333862    32.303235    74.949908    40.098056 
100552000      272.832    329.03735    296.94932   -34.432212    30.414006    32.088029    40.096251 
100556000    272.12903     326.3769    283.57522    -34.62315    31.002773    42.801677    40.095949 
100560000    268.98381    316.74339    270.80685   -34.629535    31.234217    45.936538    40.095861 
100564000    266.17854    296.25328    294.29288   -34.436292    30.426019    1.9603959     40.09778 
100568000    275.25574    326.88611    284.38743   -36.519965    31.545538    42.498681    40.098302 
100572000    281.75281    345.73808    290.09138    -35.93228    30.431645    55.646704    40.098569 
100576000    276.04229    300.61482    305.54033   -34.659047    28.521698   -4.9255079    40.099104 
100580000    270.58443    311.50024    277.88581   -33.924061    30.389272    33.614437    40.100939 
100584000    277.34864    339.67408     279.3233   -35.534932    31.086365    60.350777    40.100791 
100588000    277.52482    327.01805    301.97342   -34.255755    29.117859    25.044629     40.10117 
100592000    278.77913    341.20001    277.50172   -35.990056    30.724174    63.698282    40.102471 
100596000    278.21347    329.66674    284.10205   -34.541426    30.094615    45.564698    40.102266 
100600000    276.94176    311.97985    287.00561   -34.409943    30.801195    24.974247    40.102165 
100604000    265.80066    305.55781    268.64863   -34.520265    31.484803     36.90918    40.103011 
100608000    276.58091    324.67438    291.40988   -35.627059    30.326484    33.264492     40.10451 
100612000    272.52398    325.39076    271.34946   -34.964347    30.280659    54.041302    40.105289 
100616000    268.82188    321.29253     278.3837    -34.65411    29.867746    42.908833    40.105394 
100620000    273.33754     325.5606    286.48624   -34.872663    30.129272    39.074368    40.105276 
100624000    271.89348    325.34141    272.35563   -34.507914    30.960056    52.985773    40.106243 
100628000    270.69857    321.85764    275.79109   -34.199855    29.738064     46.06655    40.107157 
100632000    274.26213    321.87637     295.9451   -35.524335    28.221381    25.931273    40.108023 
100636000    277.36419    311.24944    283.94519   -35.627569    29.649984    27.304249    40.107949 
100640000    282.90316    339.32603    277.13615    -35.72239     30.03739    62.189878    40.108175 
100644000    274.52106    317.62793    290.51403   -35.681272    29.256628    27.113908    40.108728 
100648000    274.01603     303.7674     304.3067   -34.643662    29.822047  -0.53929738    40.109393 
100652000    277.08281    322.95346    282.95933   -34.864216    30.596125    39.994125    40.108962 
100656000    268.55889    316.03912     283.4386   -33.816486    30.734551    32.600511    40.108316 
100660000    274.16378    329.66122    278.25636   -35.851481    30.186178    51.404859    40.108197 
100664000     275.8834    327.98882    264.02054    -35.74797    31.293376    63.968277    40.108793 
100668000    274.16382    309.81804    293.25883   -34.991815    30.441893    16.559213    40.107317 
100672000    272.32439    315.15114    288.63333   -34.338021    29.686837    26.517806    40.105827 
100676000    266.61053     316.0676    282.86884   -34.637048    30.114823    33.198767    40.105322 
100680000    268.61061     309.2797    280.15641   -34.413447    31.591475    29.123294    40.106281 
100684000    277.34761    338.32971    269.67398   -36.345011    29.715581    68.655733    40.106487 
100688000    274.65797    327.79075    281.59094   -34.573792    30.910816    46.199815    40.107147 
100692000    277.70734    330.25165    277.78031   -34.925684    30.779357     52.47134    40.106301 
100696000    264.44584    304.67294    271.04691   -33.985209    30.446966    33.626035    40.107452 
100700000    284.68316    334.30764    302.85383   -35.456631    29.196842    31.453811    40.108302 
100704000    269.67678    305.24358    264.88866   -34.402696    30.239466    40.354926    40.108672 
100708000    270.89546    325.93199    262.05378   -35.658677    31.700814    63.878213    40.107721 
100712000    284.49287    326.20386     283.7227   -36.619994    30.313337    42.481164    40.107616 
100716000    278.60033    337.47637    274.97672   -36.642276    30.126077    62.499649    40.107073 
100720000    285.66176    350.32211    282.10445   -38.033179    30.933169    68.217662    40.107277 
100724000    269.91479    322.11177    259.68155   -34.774228    31.968915    62.430216    40.107285 
100728000    266.75051    295.94679    273.74303   -34.095952    31.152063    22.203753    40.106875 
100732000    280.75806    338.99497    297.60234   -35.949509    29.630227    41.392636    40.107075 
100736000    268.06143    326.67056    249.06425   -34.542769    32.163602    77.606318    40.108761 
100740000    272.71692    329.43398    297.72421    -35.50965    29.690965    31.709766    40.108726 
100744000    270.97659    316.76003    287.16091   -35.384292    30.254956    29.599121    40.109302 
100748000    267.93445    320.45635    263.40763   -35.337326    31.174275    57.048724     40.10922 
100752000    274.93957    319.38239    267.21804   -35.149187    31.111192    52.164347    40.109288 
100756000    272.27995      321.618     263.2348    -35.53659    30.828209      58.3832    40.108727 
100760000    283.80831     312.6273    313.31474   -34.485473    29.353822  -0.68744683    40.108608 
100764000    271.27947    315.25006    269.60614   -34.175941    31.490305    45.643916    40.109179 
100768000    273.88236    321.64631    267.25913   -34.178352    31.472781    54.387178    40.109567 
100772000    270.49256    331.95196    280.33253   -34.982378    30.847042     51.61943     40.11043 
100776000    278.98451    328.59887    283.55164   -36.885365     30.75501    45.047229    40.110198 
100780000    268.19122    318.96653    273.33074   -35.123798    31.269711    45.635792    40.110031 
100784000     264.2538    310.32658    268.54295   -34.463417    31.676684    41.783631    40.109359 
100788000    268.45845    322.19551    264.88782   -35.448044    30.855297    57.307684    40.110164 
100792000    273.67653    320.38837    277.06688   -35.065417    31.028551    43.321492    40.109161 
100796000    277.21554    332.36387    280.15266   -34.837174    30.841288    52.211216    40.108497 
100800000    283.83635    323.39148    311.59958   -35.025705    29.649185    11.791903     40.10775 
100801000    271.62629    299.90779    296.66123   -34.206422    30.326167    3.2465584     40.10775 
Loop time of 21246.2 on 4 procs for 16000000 steps with 1498 atoms

Performance: 16.266 ns/day, 1.475 hours/ns, 753.077 timesteps/s
99.6% CPU use with 4 MPI tasks x no OpenMP threads

MPI task timing breakdown:
Section |  min time  |  avg time  |  max time  |%varavg| %total
---------------------------------------------------------------
Pair    | 10616      | 14667      | 18843      |3286.1 | 69.03
Bond    | 65.341     | 102.99     | 137.98     | 343.6 |  0.48
Neigh   | 116.81     | 116.85     | 116.88     |   0.2 |  0.55
Comm    | 269.8      | 4173       | 8193.3     |6034.4 | 19.64
Output  | 8.027      | 8.11       | 8.3562     |   5.0 |  0.04
Modify  | 1131.6     | 1678.9     | 2259.2     |1002.4 |  7.90
Other   |            | 499.2      |            |       |  2.35

Nlocal:    374.5 ave 714 max 35 min
Histogram: 2 0 0 0 0 0 0 0 0 2
Nghost:    2375.25 ave 4255 max 496 min
Histogram: 2 0 0 0 0 0 0 0 0 2
Neighs:    13074.2 ave 25867 max 315 min
Histogram: 2 0 0 0 0 0 0 0 0 2

Total # of neighbors = 52297
Ave neighs/atom = 34.9112
Ave special neighs/atom = 0.518024
Neighbor list builds = 28405
Dangerous builds = 0

write_restart FINALCONFIG
WARNING: Using a manybody potential with bonds/angles/dihedrals and special_bond exclusions (../pair.cpp:218)
Neighbor list info ...
  update every 1 steps, delay 0 steps, check yes
  max neighbors/atom: 2000, page size: 100000
  master list distance cutoff = 16
  ghost atom cutoff = 16
  binsize = 8, bins = 3 3 23
  4 neighbor lists, perpetual/occasional/extra = 4 0 0
  (1) pair lj/cut, perpetual, skip from (4)
      attributes: half, newton on
      pair build: skip
      stencil: none
      bin: none
  (2) pair morse, perpetual, skip from (4)
      attributes: half, newton on
      pair build: skip
      stencil: none
      bin: none
  (3) pair eam, perpetual, skip from (4)
      attributes: half, newton on
      pair build: skip
      stencil: none
      bin: none
  (4) neighbor class addition, perpetual
      attributes: half, newton on
      pair build: half/bin/newton
      stencil: half/bin/3d/newton
      bin: standard

#and everyone lived happily ever after, THE END
Total wall time: 6:11:45
